! Analog Devices, Inc.								
! Device:	ADL9006ACGZN							
! Description:	GaAs, Distributed LNA Amplifier							
! Conditions:	Vdd = 5.0 V							
!		Idd = 55mA 						
!		Pin = -25 dBm						
!		Operating Temperature = 85 C (at package bottom)       						
! Product validation unit SN1 soldered down to Evaluation Board as shown on ADL9006-EVALZ User Guide. Board loss de-embedded from S21 magnitude.  All other RF measurements reference to RF coaxial connector.								
! Frequency (GHz)	S11_Mag (dB)	S11_Phase (deg)	S21_Mag (dB)	S21_Phase (deg)	S12_Mag (dB)	S12_Phase (deg)	S22_Mag (dB)	S22_Phase (deg)
#  GHZ   S   DB   R 50								

0.01	-0.403	-1.769	-57.687	-35.39	-62.189	116.927	-0.332	-0.888
0.109975	-1.041	-17.532	-29.93	-11.835	-63.479	152.668	-0.339	-11.107
0.20995	-2.087	-28.406	-16.643	-1.616	-55.905	-161.689	-0.368	-21.816
0.309925	-2.875	-35.362	-6.927	-7.106	-46.081	164.051	-0.493	-33.772
0.4099	-3.344	-44.985	1.574	-38.832	-38.156	127.993	-1.244	-46.787
0.509875	-4.282	-45.992	-0.609	-38.764	-40.172	122.85	-1.033	-56.708
0.60985	-4.137	-56.149	7.125	-53.36	-33.83	105.342	-2.346	-74.285
0.709825	-5.167	-66.855	10.173	-83.785	-31.698	75.516	-4.625	-82.056
0.8098	-6.475	-71.274	10.813	-107.253	-31.714	54.816	-5.669	-82.486
0.909775	-7.19	-72.723	10.832	-121.112	-32.035	43.962	-5.896	-88.345
1.00975	-7.508	-75.395	11.119	-129.513	-31.891	37.727	-6.468	-98.448
1.109725	-7.761	-79.579	11.794	-136.747	-31.344	31.595	-7.563	-109.253
1.2097	-8.108	-84.359	12.586	-144.731	-30.692	24.425	-9.072	-118.844
1.309675	-8.52	-88.985	13.291	-153.542	-30.171	16.289	-10.825	-126.202
1.40965	-8.948	-93.375	13.863	-162.535	-29.803	8.148	-12.651	-131.283
1.509625	-9.37	-97.384	14.288	-171.355	-29.558	0.58	-14.411	-134.332
1.6096	-9.753	-101.074	14.609	-179.861	-29.372	-6.673	-16.038	-135.552
1.709575	-10.087	-104.58	14.857	172.077	-29.261	-13.682	-17.459	-135.763
1.80955	-10.389	-107.967	15.033	164.374	-29.179	-20.062	-18.682	-135.545
1.909525	-10.65	-111.199	15.149	157.042	-29.215	-26.33	-19.711	-135.442
2.0095	-10.856	-114.345	15.233	150.113	-29.119	-32.203	-20.564	-135.636
2.109475	-10.999	-117.305	15.292	143.484	-29.179	-37.746	-21.384	-135.948
2.20945	-11.08	-120.087	15.335	137.206	-29.104	-42.921	-22.162	-136.861
2.309425	-11.087	-123.018	15.364	131.208	-29.2	-48.218	-22.929	-137.078
2.4094	-11.028	-126.085	15.391	125.467	-29.219	-52.891	-23.709	-137.721
2.509375	-10.967	-129.495	15.433	119.81	-29.229	-57.627	-24.487	-137.265
2.60935	-10.875	-133.147	15.47	114.275	-29.28	-62.171	-25.228	-135.751
2.709325	-10.797	-136.918	15.493	108.822	-29.278	-66.707	-25.943	-132.97
2.8093	-10.739	-140.872	15.525	103.406	-29.278	-71.304	-26.443	-128.899
2.909275	-10.692	-144.836	15.531	98.092	-29.285	-75.649	-26.698	-124.002
3.00925	-10.639	-148.729	15.546	92.84	-29.268	-79.993	-26.737	-118.973
3.109225	-10.612	-152.586	15.546	87.655	-29.267	-84.525	-26.567	-113.609
3.2092	-10.588	-156.454	15.54	82.506	-29.285	-88.645	-26.077	-108.148
3.309175	-10.566	-160.209	15.52	77.461	-29.291	-92.863	-25.418	-103.686
3.40915	-10.563	-163.918	15.494	72.508	-29.273	-97.07	-24.608	-99.639
3.509125	-10.562	-167.618	15.47	67.563	-29.299	-101.062	-23.817	-97.474
3.6091	-10.562	-171.222	15.448	62.741	-29.315	-105.278	-22.955	-95.825
3.709075	-10.574	-174.855	15.409	57.938	-29.325	-109.366	-22.117	-94.647
3.80905	-10.599	-178.497	15.372	53.224	-29.335	-113.675	-21.263	-94.349
3.909025	-10.65	177.89	15.33	48.514	-29.353	-117.828	-20.472	-94.405
4.009	-10.697	174.123	15.293	43.869	-29.35	-121.902	-19.716	-94.638
4.108975	-10.806	170.238	15.245	39.25	-29.426	-126.252	-19.075	-94.933
4.20895	-10.91	166.224	15.199	34.706	-29.377	-130.141	-18.435	-95.695
4.308925	-11.049	162.351	15.134	30.2	-29.468	-134.336	-17.797	-96.826
4.4089	-11.189	158.596	15.086	25.764	-29.527	-138.554	-17.169	-98.068
4.508875	-11.364	154.822	15.028	21.406	-29.538	-142.404	-16.586	-99.796
4.60885	-11.57	151.191	14.966	17.142	-29.57	-146.279	-16.063	-101.545
4.708825	-11.802	147.53	14.913	12.937	-29.598	-150.278	-15.593	-103.426
4.8088	-12.071	143.905	14.861	8.763	-29.628	-154.104	-15.173	-105.097
4.908775	-12.352	140.199	14.81	4.638	-29.652	-157.981	-14.793	-106.629
5.00875	-12.664	136.457	14.774	0.558	-29.67	-161.93	-14.421	-108.088
5.108725	-13.013	132.568	14.733	-3.484	-29.652	-165.871	-14.08	-109.407
5.2087	-13.407	128.476	14.695	-7.514	-29.685	-170.178	-13.754	-110.635
5.308675	-13.857	124.329	14.665	-11.528	-29.723	-174.401	-13.478	-111.799
5.40865	-14.351	119.796	14.638	-15.513	-29.753	-177.981	-13.192	-112.856
5.508625	-14.93	114.886	14.602	-19.51	-29.778	177.518	-12.94	-113.859
5.6086	-15.54	109.966	14.57	-23.447	-29.858	173.66	-12.703	-114.863
5.708575	-16.218	104.338	14.541	-27.42	-29.921	169.658	-12.464	-115.812
5.80855	-17.015	98.352	14.509	-31.373	-29.936	165.58	-12.264	-116.655
5.908525	-17.866	91.756	14.476	-35.264	-30.034	161.59	-12.064	-117.482
6.0085	-18.84	84.341	14.454	-39.18	-30.07	157.273	-11.875	-118.494
6.108475	-19.855	75.54	14.422	-43.081	-30.109	153.011	-11.71	-119.189
6.20845	-20.932	66.185	14.396	-46.93	-30.224	149.248	-11.546	-120.122
6.308425	-21.97	54.405	14.367	-50.742	-30.291	145.112	-11.423	-120.911
6.4084	-22.862	41.572	14.359	-54.492	-30.416	141.466	-11.297	-121.895
6.508375	-23.472	26.634	14.338	-58.264	-30.505	137.503	-11.199	-122.771
6.60835	-23.628	11.173	14.326	-62.007	-30.591	133.294	-11.116	-123.861
6.708325	-23.357	-4.182	14.331	-65.767	-30.709	129.354	-11.063	-124.813
6.8083	-22.735	-17.703	14.344	-69.565	-30.84	125.7	-11.018	-125.807
6.908275	-21.906	-29.476	14.348	-73.338	-30.92	121.889	-11.003	-126.838
7.00825	-21.036	-39.329	14.356	-77.132	-31.018	117.945	-11.008	-127.921
7.108225	-20.187	-47.881	14.372	-81.004	-31.093	114.109	-11.022	-129.015
7.2082	-19.398	-55.14	14.398	-84.822	-31.209	110.494	-11.077	-130.149
7.308175	-18.746	-61.602	14.407	-88.681	-31.319	106.432	-11.139	-131.345
7.40815	-18.139	-67.245	14.415	-92.535	-31.44	102.96	-11.229	-132.572
7.508125	-17.601	-72.283	14.43	-96.412	-31.605	99.028	-11.341	-133.797
7.6081	-17.155	-77.032	14.448	-100.272	-31.703	95.3	-11.495	-135.086
7.708075	-16.748	-81.285	14.457	-104.138	-31.851	91.574	-11.688	-136.436
7.80805	-16.42	-85.824	14.462	-107.983	-31.997	87.842	-11.915	-137.698
7.908025	-16.13	-89.607	14.483	-111.843	-32.187	84.346	-12.17	-138.923
8.008	-15.935	-94.027	14.503	-115.643	-32.312	81.263	-12.464	-140.076
8.107975	-15.87	-97.72	14.512	-119.371	-32.441	77.873	-12.781	-141.044
8.20795	-15.844	-101.521	14.553	-123.162	-32.571	74.959	-13.114	-141.882
8.307925	-15.913	-105.025	14.594	-126.969	-32.661	71.531	-13.451	-142.794
8.4079	-16.065	-108.344	14.633	-130.82	-32.739	68.222	-13.807	-143.895
8.507875	-16.272	-111.525	14.669	-134.779	-32.829	64.994	-14.211	-145.149
8.60785	-16.576	-114.28	14.709	-138.736	-32.905	61.165	-14.645	-146.227
8.707825	-16.901	-117.256	14.743	-142.775	-32.982	58.147	-15.139	-147.634
8.8078	-17.316	-119.72	14.774	-146.773	-33.091	54.269	-15.689	-148.959
8.907775	-17.788	-122.195	14.796	-150.796	-33.178	50.412	-16.288	-150.447
9.00775	-18.363	-124.432	14.832	-154.823	-33.315	47.13	-16.961	-151.975
9.107725	-18.958	-126.409	14.869	-158.895	-33.411	43.633	-17.732	-153.451
9.2077	-19.659	-127.88	14.902	-163.057	-33.567	40.451	-18.603	-155.285
9.307675	-20.381	-129.29	14.936	-167.159	-33.74	36.904	-19.584	-157.004
9.40765	-21.249	-131.076	14.955	-171.344	-33.855	33.474	-20.674	-158.437
9.507625	-22.153	-132.288	14.985	-175.561	-34.041	29.705	-21.885	-159.604
9.6076	-23.294	-134.334	15.001	-179.782	-34.143	27.055	-23.257	-161.037
9.707575	-24.679	-135.028	15.004	176.03	-34.274	23.883	-24.786	-162.158
9.80755	-26.271	-135.989	15.018	171.854	-34.362	21.208	-26.521	-164.604
9.907525	-28.477	-135.467	15.026	167.6	-34.321	18.165	-28.629	-168.102
10.0075	-30.979	-132.447	15.018	163.398	-34.375	14.59	-31.191	-172.039
10.107475	-34.609	-126.618	15.012	159.219	-34.516	10.886	-34.896	-177.794
10.20745	-39.147	-103.75	14.999	155.038	-34.64	7.555	-40.606	162.894
10.307425	-41.871	-48.124	14.994	150.953	-34.752	3.799	-45.149	99.618
10.4074	-36.795	-10.515	14.991	146.791	-34.778	0.351	-40.093	52.209
10.507375	-33.101	0.351	14.982	142.721	-34.913	-2.821	-35.807	36.111
10.60735	-30.254	5.457	14.968	138.617	-35.032	-6.669	-33.191	30.496
10.707325	-28.169	6.102	14.958	134.519	-35.163	-9.368	-31.211	26.844
10.8073	-26.567	6.747	14.952	130.445	-35.247	-13.015	-29.719	25.1
10.907275	-25.212	6.522	14.933	126.4	-35.36	-16.434	-28.715	24.422
11.00725	-24.202	6.492	14.921	122.355	-35.432	-19.659	-27.96	24.741
11.107225	-23.283	5.348	14.911	118.305	-35.607	-23.272	-27.405	25.011
11.2072	-22.475	4.447	14.905	114.318	-35.702	-26.634	-26.897	25.75
11.307175	-21.794	3.639	14.899	110.307	-35.807	-29.735	-26.517	26.588
11.40715	-21.249	2.388	14.881	106.259	-35.976	-33.346	-26.225	28.631
11.507125	-20.734	0.96	14.874	102.262	-36.041	-36.892	-25.975	30.54
11.6071	-20.35	-0.424	14.863	98.229	-36.17	-40.319	-25.765	33.201
11.707075	-19.984	-1.799	14.871	94.233	-36.245	-43.475	-25.648	36.016
11.80705	-19.785	-3.503	14.863	90.22	-36.419	-46.423	-25.481	39.345
11.907025	-19.616	-4.991	14.859	86.219	-36.524	-50.007	-25.335	43.158
12.007	-19.477	-6.952	14.855	82.183	-36.577	-53.622	-25.122	47.384
12.106975	-19.449	-8.7	14.85	78.217	-36.699	-57.224	-24.838	51.288
12.20695	-19.453	-10.546	14.846	74.16	-36.841	-60.299	-24.447	55.906
12.306925	-19.525	-12.687	14.844	70.174	-36.999	-64.13	-24.092	59.968
12.4069	-19.651	-15.054	14.846	66.174	-37.088	-67.316	-23.716	63.802
12.506875	-19.77	-17.34	14.833	62.143	-37.241	-70.804	-23.318	67.645
12.60685	-20.075	-19.864	14.843	58.157	-37.369	-74.179	-22.916	71.11
12.706825	-20.358	-22.618	14.835	54.091	-37.48	-78.596	-22.451	74.627
12.8068	-20.772	-25.905	14.835	50.11	-37.633	-81.5	-21.986	77.555
12.906775	-21.206	-29.33	14.835	46.141	-37.856	-84.947	-21.479	80.182
13.00675	-21.744	-33.504	14.83	42.102	-37.942	-88.439	-21.056	82.546
13.106725	-22.422	-38.379	14.825	38.108	-38.182	-91.906	-20.663	84.537
13.2067	-23.165	-44.088	14.823	34.075	-38.333	-96.48	-20.239	86.334
13.306675	-23.983	-50.53	14.822	30.059	-38.58	-98.951	-19.891	88.179
13.40665	-25.116	-58.381	14.819	26	-38.744	-103.089	-19.523	89.849
13.506625	-25.919	-68.489	14.813	21.981	-39.006	-107.001	-19.204	91.176
13.6066	-27.001	-81.931	14.809	17.975	-39.224	-110.816	-18.915	92.397
13.706575	-27.639	-96.76	14.812	13.884	-39.47	-112.969	-18.635	93.557
13.80655	-27.809	-114.776	14.812	9.87	-39.684	-116.339	-18.43	94.463
13.906525	-27.37	-132.219	14.799	5.831	-40.115	-119.726	-18.205	95.596
14.0065	-26.371	-147.433	14.793	1.784	-40.354	-123.138	-18.049	96.213
14.106474	-25.089	-160.571	14.791	-2.227	-40.817	-126.503	-17.911	97.046
14.20645	-23.897	-171.011	14.782	-6.28	-41.248	-129.261	-17.794	97.81
14.306425	-22.64	-178.542	14.784	-10.271	-41.548	-131.739	-17.681	98.553
14.4064	-21.578	174.073	14.779	-14.308	-42.093	-133.862	-17.644	99.532
14.506375	-20.592	168.873	14.787	-18.364	-42.344	-136.021	-17.644	100.365
14.60635	-19.662	163.849	14.786	-22.365	-43.015	-137.919	-17.681	101.198
14.706326	-18.879	159.78	14.79	-26.428	-43.245	-139.509	-17.65	102.023
14.8063	-18.16	156.111	14.791	-30.473	-43.675	-139.802	-17.707	103.268
14.906275	-17.506	152.638	14.789	-34.5	-43.927	-141.905	-17.772	104.579
15.00625	-16.95	149.711	14.795	-38.539	-44.54	-141.88	-17.869	106.112
15.106225	-16.457	147.046	14.805	-42.539	-44.804	-141.509	-17.951	107.746
15.2062	-16	144.362	14.8	-46.549	-45.521	-140.461	-18.058	109.565
15.306175	-15.67	142.242	14.81	-50.601	-45.424	-140.617	-18.191	111.691
15.40615	-15.321	139.856	14.82	-54.61	-45.63	-137.354	-18.325	114.202
15.506125	-15.089	137.887	14.821	-58.684	-46.068	-136.307	-18.464	117.256
15.6061	-14.879	136.187	14.833	-62.694	-46.009	-133.829	-18.568	120.227
15.706075	-14.709	134.29	14.847	-66.779	-45.701	-131.963	-18.642	123.616
15.80605	-14.606	133.025	14.848	-70.802	-45.63	-130.127	-18.603	127.532
15.906025	-14.533	131.541	14.865	-74.879	-45.231	-128.907	-18.529	131.123
16.006	-14.545	130.238	14.867	-78.947	-44.983	-128.567	-18.416	134.924
16.105975	-14.554	129.264	14.88	-83.018	-44.234	-128.327	-18.279	138.317
16.20595	-14.633	128.068	14.889	-87.127	-43.906	-128.042	-18.09	141.782
16.305925	-14.756	127.195	14.906	-91.253	-43.587	-128.176	-17.876	144.883
16.4059	-14.912	126.437	14.915	-95.346	-43.21	-129.535	-17.653	148.058
16.505875	-15.149	125.855	14.932	-99.492	-42.841	-131.502	-17.38	150.976
16.60585	-15.423	125.595	14.946	-103.673	-42.425	-131.602	-17.094	153.58
16.705825	-15.729	125.119	14.962	-107.894	-41.945	-132.946	-16.813	155.51
16.8058	-16.109	125.022	14.979	-112.157	-41.499	-134.597	-16.569	157.624
16.905775	-16.533	124.965	14.993	-116.402	-40.989	-137.316	-16.295	159.395
17.00575	-17.073	125.182	15.001	-120.672	-40.584	-139.999	-16.074	160.973
17.105725	-17.619	126.169	15.015	-124.928	-40.218	-142.204	-15.869	162.382
17.205701	-18.278	127.391	15.027	-129.218	-39.715	-144.727	-15.632	163.778
17.305676	-18.932	129.49	15.033	-133.52	-39.512	-147.882	-15.45	165.062
17.405651	-19.65	132.791	15.039	-137.839	-39.254	-151.099	-15.285	166.359
17.505624	-20.407	136.918	15.056	-142.209	-38.917	-153.282	-15.139	167.531
17.605599	-21.163	142.958	15.049	-146.521	-38.491	-157.157	-14.995	168.688
17.705574	-21.731	150.163	15.053	-150.833	-38.259	-159.533	-14.86	169.71
17.80555	-22.259	159.046	15.069	-155.174	-37.929	-163.716	-14.671	171.294
17.905525	-22.245	168.949	15.053	-159.41	-37.703	-166.961	-14.546	172.68
18.0055	-22.075	177.939	15.052	-163.715	-37.45	-168.3	-14.412	174.123
18.105475	-21.425	-172.785	15.046	-168.007	-37.26	-172.606	-14.264	175.152
18.20545	-20.689	-166.586	15.043	-172.336	-37.025	-174.977	-14.102	176.043
18.305425	-19.742	-160.271	15.02	-176.715	-36.746	-178.995	-13.924	177.3
18.405401	-18.746	-156.42	14.996	179.002	-36.617	178.491	-13.716	178.526
18.505376	-17.839	-153.231	14.973	174.688	-36.354	174.819	-13.551	179.928
18.605351	-16.863	-151.308	14.948	170.367	-36.12	171.553	-13.388	-178.925
18.705324	-16.052	-150.753	14.926	166.098	-35.956	168.223	-13.167	-178.177
18.805299	-15.257	-149.822	14.898	161.769	-35.738	165.215	-12.942	-177.378
18.905274	-14.563	-150.115	14.86	157.507	-35.567	161.961	-12.716	-176.574
19.00525	-13.926	-150.169	14.824	153.232	-35.51	158.827	-12.55	-175.815
19.105225	-13.359	-150.811	14.782	148.923	-35.375	156.408	-12.363	-174.939
19.2052	-12.854	-151.507	14.738	144.708	-35.212	152.418	-12.183	-174.326
19.305175	-12.378	-152.349	14.692	140.371	-34.969	150.108	-11.989	-173.877
19.40515	-11.949	-153.449	14.654	136.091	-34.792	147.026	-11.805	-173.643
19.505125	-11.576	-154.532	14.609	131.784	-34.561	143.231	-11.621	-173.375
19.605101	-11.281	-155.746	14.572	127.549	-34.406	140.409	-11.429	-172.978
19.705076	-10.995	-157.172	14.529	123.325	-34.112	136.713	-11.243	-172.676
19.805051	-10.76	-158.45	14.507	119.209	-34.029	133.501	-11.086	-172.52
19.905024	-10.601	-159.817	14.457	115.007	-33.821	130.259	-10.952	-172.593
20.004999	-10.436	-161.491	14.443	110.884	-33.605	126.82	-10.868	-172.891
20.104974	-10.38	-162.627	14.409	106.785	-33.404	123.349	-10.77	-173.247
20.20495	-10.324	-164.521	14.386	102.621	-33.239	120.095	-10.678	-173.642
20.304925	-10.313	-166.172	14.393	98.596	-32.993	115.995	-10.602	-174.02
20.4049	-10.337	-167.689	14.382	94.476	-32.771	112.773	-10.574	-174.311
20.504875	-10.439	-169.845	14.372	90.389	-32.611	109.16	-10.589	-174.696
20.60485	-10.57	-171.62	14.384	86.309	-32.414	105.472	-10.632	-175.414
20.704825	-10.751	-173.845	14.386	82.191	-32.222	102.287	-10.679	-176.051
20.804801	-11.032	-176.053	14.397	78.173	-32.006	98.564	-10.732	-176.475
20.904776	-11.299	-178.454	14.407	74.087	-31.817	94.894	-10.84	-176.814
21.004751	-11.727	178.944	14.424	70.046	-31.528	90.87	-10.984	-177.014
21.104726	-12.188	176.294	14.44	66.153	-31.361	87.373	-11.168	-177.377
21.204699	-12.75	173.592	14.475	62.123	-31.12	83.341	-11.352	-177.739
21.304674	-13.45	170.576	14.507	58.118	-30.871	79.358	-11.548	-177.736
21.404649	-14.219	167.536	14.551	53.961	-30.691	75.174	-11.797	-177.498
21.504625	-15.165	164.211	14.612	49.802	-30.468	70.8	-12.057	-177.256
21.6046	-16.281	161.042	14.665	45.57	-30.284	66.399	-12.341	-176.791
21.704575	-17.61	157.482	14.718	41.225	-30.103	61.943	-12.624	-176.247
21.80455	-19.268	153.846	14.799	36.867	-29.951	57.189	-12.877	-175.191
21.904525	-21.362	150.262	14.873	32.467	-29.754	52.588	-13.182	-174.243
22.0045	-24.139	145.945	14.941	27.86	-29.629	47.891	-13.486	-173.085
22.104476	-28.426	141.725	14.997	23.19	-29.479	42.909	-13.804	-171.967
22.204451	-36.608	138.665	15.043	18.51	-29.306	38.098	-14.123	-170.294
22.304426	-41.968	-43.059	15.073	13.749	-29.181	33.08	-14.455	-168.214
22.404399	-30.332	-49.946	15.077	8.972	-29.036	28.144	-14.732	-165.544
22.504374	-25.896	-53.677	15.078	4.146	-28.949	22.934	-15.014	-162.46
22.604349	-22.88	-57.723	15.054	-0.718	-28.889	17.966	-15.185	-159.464
22.704325	-20.947	-62.379	15.025	-5.488	-28.849	13.12	-15.283	-156.621
22.8043	-19.49	-65.87	15.001	-10.432	-28.752	7.84	-15.3	-153.822
22.904275	-18.303	-70.742	14.963	-15.241	-28.691	3.094	-15.345	-150.837
23.00425	-17.415	-74.674	14.948	-19.959	-28.649	-1.945	-15.327	-148.188
23.104225	-16.701	-79.032	14.911	-24.816	-28.572	-6.623	-15.292	-145.828
23.2042	-16.128	-83.734	14.888	-29.447	-28.537	-11.182	-15.228	-143.712
23.304176	-15.672	-87.982	14.877	-34.185	-28.453	-16.097	-15.167	-141.664
23.404151	-15.383	-92.78	14.856	-39.011	-28.404	-20.846	-15.141	-139.889
23.504126	-15.189	-97.904	14.837	-43.702	-28.316	-25.293	-15.104	-137.895
23.604099	-15.061	-102.481	14.81	-48.546	-28.255	-30.148	-15.114	-136.539
23.704074	-15.009	-107.809	14.79	-53.199	-28.18	-34.592	-15.095	-135.226
23.804049	-15.005	-112.631	14.756	-57.912	-28.096	-39.096	-15.07	-133.874
23.904025	-15.059	-117.674	14.727	-62.567	-28.03	-43.792	-15.121	-132.32
24.004	-15.176	-123.508	14.708	-67.282	-27.929	-48.518	-15.144	-131.063
24.103975	-15.297	-129.201	14.692	-72.03	-27.898	-52.669	-15.215	-129.983
24.20395	-15.496	-135.428	14.658	-76.769	-27.814	-57.518	-15.281	-129.021
24.303925	-15.727	-142.046	14.614	-81.473	-27.712	-62.077	-15.353	-128.022
24.4039	-15.93	-148.748	14.591	-86.184	-27.629	-66.339	-15.48	-127.021
24.503876	-16.145	-156.061	14.552	-90.967	-27.548	-71.119	-15.673	-126.489
24.603851	-16.347	-163.699	14.524	-95.749	-27.45	-75.633	-15.89	-126.182
24.703826	-16.5	-171.278	14.486	-100.556	-27.33	-80.015	-16.104	-125.813
24.803799	-16.611	-179.763	14.444	-105.425	-27.215	-84.727	-16.369	-125.478
24.903774	-16.749	172.637	14.4	-110.196	-27.098	-89.235	-16.683	-124.713
25.003749	-16.729	164.976	14.353	-114.984	-26.997	-93.721	-17.133	-124.135
25.103725	-16.781	157.55	14.315	-119.795	-26.857	-98.378	-17.684	-123.472
25.2037	-16.722	150.403	14.283	-124.583	-26.719	-102.861	-18.24	-122.84
25.303675	-16.69	143.369	14.24	-129.413	-26.578	-107.659	-18.898	-122.075
25.40365	-16.643	136.58	14.217	-134.257	-26.416	-112.256	-19.651	-120.826
25.503625	-16.563	130.782	14.176	-139.122	-26.256	-116.756	-20.612	-118.828
25.6036	-16.539	124.691	14.148	-144.018	-26.083	-121.728	-21.769	-115.472
25.703576	-16.535	119.871	14.12	-148.851	-25.928	-126.563	-23.076	-109.704
25.803551	-16.403	115.221	14.084	-153.67	-25.769	-131.407	-24.564	-101.836
25.903526	-16.569	110.933	14.051	-158.496	-25.605	-136.3	-25.707	-89.106
26.003499	-16.509	107.318	14.031	-163.373	-25.474	-141.375	-26.411	-73.005
26.103474	-16.559	104.078	14.025	-168.352	-25.347	-146.344	-26.157	-56.037
26.203449	-16.768	101.36	13.995	-173.38	-25.204	-151.48	-24.932	-41.772
26.303425	-16.818	98.407	13.973	-178.364	-25.064	-156.535	-23.312	-31.886
26.4034	-17.012	97.033	13.938	176.644	-24.903	-161.57	-21.679	-26.171
26.503375	-17.278	96.049	13.918	171.574	-24.803	-166.824	-20.391	-22.878
26.60335	-17.584	95.587	13.899	166.508	-24.695	-171.986	-19.242	-21.254
26.703325	-17.709	96.207	13.86	161.253	-24.536	-177.487	-18.209	-20.847
26.8033	-17.84	97.317	13.82	156.009	-24.449	177.157	-17.281	-21.587
26.903276	-17.937	98.184	13.76	150.791	-24.377	171.594	-16.507	-23.004
27.003251	-17.881	99.696	13.721	145.553	-24.284	165.954	-15.894	-24.79
27.103226	-17.911	101.571	13.643	140.245	-24.219	160.623	-15.343	-27.78
27.203199	-17.765	103.572	13.591	134.948	-24.223	154.973	-14.992	-30.84
27.303174	-17.583	105.204	13.515	129.677	-24.229	149.72	-14.649	-33.774
27.403149	-17.349	106.649	13.451	124.384	-24.216	143.767	-14.506	-37.27
27.503124	-17.169	108.019	13.377	118.962	-24.217	138.751	-14.528	-40.712
27.6031	-16.93	109.382	13.298	113.7	-24.233	133.344	-14.61	-44.641
27.703075	-16.69	109.983	13.204	108.44	-24.271	128.243	-14.799	-48.745
27.80305	-16.432	110.937	13.093	103.047	-24.323	122.719	-15.124	-53.134
27.903025	-16.067	111.395	12.999	97.862	-24.383	117.429	-15.537	-57.521
28.003	-15.91	112.137	12.895	92.516	-24.429	112.02	-16.094	-62.504
28.102975	-15.61	112.386	12.779	87.167	-24.528	106.905	-16.819	-67.768
28.202951	-15.422	112.496	12.686	81.919	-24.562	101.775	-17.527	-73.971
28.302926	-15.189	112.771	12.568	76.778	-24.683	96.369	-18.371	-80.968
28.402901	-14.937	111.651	12.438	71.397	-24.735	91.461	-19.469	-88.491
28.502874	-14.714	111.453	12.334	66.146	-24.869	85.902	-20.646	-98.019
28.602849	-14.429	110.51	12.211	60.974	-24.959	80.915	-21.917	-110.9
28.702824	-14.253	108.813	12.117	55.694	-25.035	75.642	-22.933	-126.905
28.8028	-14.027	108.094	11.977	50.469	-25.2	70.447	-23.404	-144.709
28.902775	-13.911	105.783	11.843	45.215	-25.327	65.677	-23.343	-162.524
29.00275	-13.767	104.082	11.738	39.919	-25.481	60.18	-22.729	-178.739
29.102725	-13.694	101.665	11.584	34.605	-25.585	54.941	-21.618	166.653
29.2027	-13.693	99.183	11.474	29.234	-25.723	50.075	-20.359	155.478
29.302675	-13.657	96.377	11.33	23.764	-25.893	44.983	-19.238	147.137
29.402651	-13.75	93.519	11.178	18.341	-26.013	39.132	-18.231	140.502
29.502626	-13.855	90.636	11.022	12.851	-26.21	34.563	-17.276	134.889
29.602601	-14.092	86.999	10.864	7.159	-26.322	29.304	-16.471	130.36
29.702574	-14.377	83.723	10.698	1.585	-26.528	24.204	-15.719	126.975
29.802549	-14.857	80.355	10.5	-4.116	-26.685	18.826	-15.015	124.093
29.902524	-15.375	77.213	10.292	-9.823	-26.801	12.896	-14.473	121.357
30.0025	-16.104	74.035	10.079	-15.553	-26.999	8.138	-13.927	119.425
30.102475	-16.958	71.627	9.846	-21.343	-27.134	2.771	-13.446	117.303
30.20245	-17.994	69.269	9.593	-27.01	-27.34	-3.129	-13.048	115.843
30.302425	-19.371	68.551	9.286	-32.796	-27.498	-8.679	-12.614	114.504
30.4024	-20.871	69.53	9.012	-38.389	-27.743	-14.664	-12.243	113.522
30.502375	-22.787	74.837	8.708	-43.941	-27.975	-20.691	-11.827	112.865
30.602351	-24.632	85.754	8.363	-49.348	-28.234	-26.563	-11.483	112.206
30.702326	-25.454	104.453	8.046	-54.732	-28.56	-32.341	-11.152	111.641
30.802301	-25.096	126.889	7.708	-59.945	-28.767	-38.431	-10.809	110.834
30.902274	-23.123	138.726	7.359	-65.153	-29.175	-44.611	-10.445	110.025
31.002249	-21.108	146.62	6.976	-70.116	-29.516	-50.699	-10.09	109.388
31.102224	-19.172	149.126	6.609	-75.036	-29.839	-56.487	-9.759	108.72
31.2022	-17.758	148.239	6.225	-79.626	-30.218	-62.03	-9.498	108.061
31.302175	-16.33	146.679	5.814	-84.324	-30.663	-67.638	-9.265	107.074
31.40215	-15.304	144.136	5.44	-88.632	-31.191	-73.789	-9.046	106.148
31.502125	-14.376	140.19	5.041	-92.846	-31.586	-78.149	-8.808	104.976
31.6021	-13.575	136.1	4.661	-97.007	-32.045	-84.209	-8.613	103.917
31.702075	-12.905	132.639	4.286	-100.88	-32.514	-90.003	-8.486	103.216
31.802051	-12.449	127.86	3.916	-104.64	-33.087	-94.338	-8.346	102.197
31.902026	-11.878	123.978	3.545	-108.375	-33.653	-99.243	-8.251	101.574
32.002001	-11.653	119.76	3.208	-111.971	-34.161	-103.87	-8.158	100.362
32.101974	-11.292	115.437	2.874	-115.609	-34.609	-108.659	-8.085	99.297
32.201949	-11.133	111.623	2.591	-119.202	-35.107	-112.429	-7.996	98.433
32.301924	-11.001	107.362	2.307	-122.763	-35.663	-117.11	-7.947	97.341
32.4019	-10.898	103.167	2.033	-126.397	-36.261	-121.201	-7.938	96.72
32.501875	-10.893	99.538	1.782	-129.953	-36.651	-124.734	-7.938	96.048
32.60185	-11.01	94.956	1.522	-133.524	-37.181	-129.154	-7.932	95.303
32.701825	-10.967	91.127	1.309	-137.063	-37.52	-132.186	-7.91	94.471
32.8018	-11.204	86.67	1.08	-140.695	-37.724	-135.453	-7.901	93.758
32.901775	-11.316	82.482	0.877	-144.203	-38.016	-138.395	-7.851	93.175
33.001751	-11.533	77.746	0.685	-148.054	-38.141	-142.133	-7.846	92.163
33.101726	-11.812	73.541	0.477	-151.716	-38.299	-146.331	-7.858	91.141
33.201701	-12.111	68.983	0.286	-155.453	-38.506	-150.568	-7.876	90.168
33.301674	-12.513	63.701	0.1	-159.177	-38.744	-154.837	-7.903	89.147
33.401649	-12.903	58.625	-0.077	-162.821	-39.038	-158.84	-7.863	88.229
33.501624	-13.249	52.282	-0.245	-166.47	-39.217	-163.829	-7.879	87.112
33.601599	-13.666	45.91	-0.401	-170.244	-39.487	-168.254	-7.895	85.865
33.701575	-13.971	38.867	-0.552	-173.91	-39.556	-173.03	-7.923	84.38
33.80155	-14.258	31.282	-0.679	-177.461	-39.89	-176.062	-7.916	82.94
33.901525	-14.411	24.25	-0.825	179.131	-40.184	178.19	-7.943	81.642
34.0015	-14.481	15.779	-0.929	175.595	-40.365	176.134	-7.972	80.07
34.101475	-14.416	8.036	-1.053	171.902	-40.714	171.425	-7.989	78.299
34.20145	-14.235	-0.043	-1.166	168.373	-40.641	168.458	-8.044	76.524
34.301426	-14.033	-7.411	-1.273	164.798	-41.142	164.345	-8.08	74.638
34.401399	-13.606	-14.096	-1.352	161.334	-41.142	162.271	-8.149	72.547
34.501374	-13.272	-20.17	-1.459	157.713	-41.184	158.417	-8.202	70.383
34.601349	-12.85	-25.549	-1.529	154.068	-41.722	155.481	-8.293	68.001
34.701324	-12.443	-30.82	-1.601	150.338	-41.976	151.582	-8.334	65.344
34.801299	-12.008	-35.072	-1.652	146.749	-41.807	149.493	-8.407	63.076
34.901275	-11.567	-39.275	-1.707	142.871	-42.161	145.37	-8.516	60.57
35.00125	-11.151	-43.439	-1.756	139.015	-42.209	142.226	-8.633	57.87
35.101225	-10.725	-46.395	-1.794	135.145	-42.083	140.149	-8.752	55.283
35.2012	-10.324	-50.263	-1.846	130.947	-42.428	137.898	-8.873	52.236
35.301175	-10.026	-52.436	-1.9	126.604	-42.079	135.823	-9.05	48.747
35.40115	-9.628	-55.893	-1.95	122.356	-41.884	132.982	-9.172	45.145
35.501126	-9.481	-58.024	-2.014	118.106	-41.847	131.413	-9.287	42.095
35.601101	-9.055	-61.218	-2.071	113.718	-41.788	125.5	-9.42	38.764
35.701076	-8.98	-63.931	-2.124	109.15	-41.733	119.093	-9.56	35.316
35.801051	-8.629	-66.36	-2.216	104.596	-41.508	119.369	-9.725	31.255
35.901026	-8.543	-69.384	-2.244	100.275	-41.848	113.852	-9.852	27.671
36.001001	-8.332	-71.383	-2.345	95.638	-42.011	107.292	-9.967	23.783
36.100977	-8.26	-74.682	-2.415	90.901	-41.933	104.117	-10.167	19.664
36.200952	-8.097	-77.009	-2.513	86.334	-41.7	99.709	-10.327	15.897
36.300927	-8.009	-80.095	-2.58	81.448	-41.486	95.961	-10.473	11.578
36.400898	-7.85	-82.946	-2.693	76.681	-41.491	89.107	-10.547	7.234
36.500873	-7.733	-85.597	-2.786	71.876	-41.934	83.421	-10.623	3.051
36.600848	-7.628	-87.885	-2.924	66.97	-41.534	77.728	-10.784	-1.329
36.700824	-7.637	-91.602	-3.028	61.92	-41.63	73.83	-10.888	-6.167
36.800799	-7.418	-93.812	-3.162	57.189	-42.068	68.873	-10.975	-11.14
36.900774	-7.459	-97.421	-3.307	52.126	-42.528	63.339	-11	-16.183
37.000749	-7.185	-100.031	-3.451	47.268	-42.81	54.964	-10.986	-21.173
37.100724	-7.166	-102.875	-3.645	42.333	-42.995	50.802	-11.021	-26.189
37.200699	-7.075	-104.824	-3.844	37.479	-44.107	46.365	-11.084	-31.253
37.300675	-7.083	-108.204	-4.04	32.57	-43.776	45.682	-11.089	-36.536
37.40065	-7.044	-110.388	-4.258	27.782	-44.43	47.26	-11.009	-41.875
37.500625	-6.996	-114.218	-4.49	22.81	-44.568	40.289	-10.868	-47.239
37.6006	-6.952	-117.047	-4.718	17.852	-44.564	38.975	-10.797	-51.828
37.700575	-6.932	-120.599	-5.012	12.934	-44.05	33.161	-10.734	-56.199
37.80055	-6.867	-123.954	-5.273	8.21	-44.525	28.774	-10.806	-61.318
37.900526	-6.813	-127.279	-5.594	3.672	-44.53	25	-10.748	-66.681
38.000501	-6.82	-130.853	-5.881	-0.717	-44.648	19.952	-10.595	-71.562
38.100476	-6.814	-134.855	-6.194	-4.823	-43.875	16.491	-10.473	-75.899
38.200451	-6.899	-138.65	-6.53	-8.872	-44.392	13.498	-10.392	-80.183
38.300426	-6.953	-143.316	-6.823	-12.406	-44.539	9.003	-10.335	-84.829
38.400401	-7.112	-147.949	-7.153	-15.699	-44.186	3.559	-10.218	-89.153
38.500377	-7.228	-152.92	-7.382	-18.662	-44.283	-6.287	-10.078	-93.354
38.600352	-7.515	-158.606	-7.546	-21.295	-44.327	-8.51	-9.944	-96.967
38.700327	-7.69	-163.346	-7.584	-24.001	-44.503	-13.849	-9.838	-100.455
38.800298	-7.981	-169.364	-7.581	-27.165	-43.993	-22.597	-9.741	-103.776
38.900273	-8.182	-174.225	-7.53	-30.516	-44.176	-25.26	-9.658	-107.383
39.000248	-8.385	-179.887	-7.457	-34.306	-43.977	-31.24	-9.532	-110.922
39.100223	-8.671	174.948	-7.404	-38.4	-43.843	-36.257	-9.437	-113.806
39.200199	-8.76	169.334	-7.3	-42.61	-44.812	-47.621	-9.347	-116.642
39.300174	-8.992	163.907	-7.209	-47.181	-44.486	-52.617	-9.272	-119.634
39.400149	-9.066	158.548	-7.135	-52.019	-44.356	-57.956	-9.227	-122.435
39.500124	-9.209	153.035	-7.059	-56.962	-44.822	-61.826	-9.14	-124.892
39.600099	-9.203	147.455	-7.028	-62.327	-44.813	-66.339	-9.086	-127.456
39.700074	-9.199	142.924	-7.061	-67.651	-45.822	-74.177	-9.01	-129.773
39.80005	-9.24	137.525	-7.047	-73.234	-44.725	-77.202	-8.968	-131.854
39.900025	-9.023	132.499	-7.119	-78.746	-45.112	-80.238	-8.958	-133.611
40	-8.881	128.868	-7.201	-84.262	-45.879	-85.538	-8.93	-135.832
