!Agilent Technologies,E8364B,MY43040894,A.07.50.67
!Agilent E8364B: A.07.50.67
!Date: Tuesday, May 12, 2020 09:44:47
!Correction: S11(Full 2 Port(1,2)) 
!S21(Full 2 Port(1,2)) 
!S12(Full 2 Port(1,2)) 
!S22(Full 2 Port(1,2)) 
!S2P File: Measurements: S11, S21, S12, S22:
# Hz S  dB   R 50
10000000 -5.231338e-001 -8.962480e+000 -4.884332e+001 -1.648889e+002 -5.242519e+001 1.554989e+002 -3.038732e-002 -2.116195e+000
28743750 -5.391703e-001 -1.028735e+001 -4.973330e+001 -1.523599e+002 -5.345959e+001 -1.728338e+002 -3.107764e-002 -2.518497e+000
47487500 -5.545831e-001 -1.173475e+001 -5.064495e+001 -1.446351e+002 -5.458626e+001 -1.342884e+002 -3.336193e-002 -2.946690e+000
66231250 -5.691920e-001 -1.327641e+001 -5.132185e+001 -1.413450e+002 -5.539819e+001 -9.107981e+001 -3.567567e-002 -3.397585e+000
84975000 -5.876193e-001 -1.492910e+001 -5.180732e+001 -1.343199e+002 -5.612778e+001 -4.495025e+001 -3.630709e-002 -3.898711e+000
103718750 -6.101657e-001 -1.669438e+001 -5.317128e+001 -1.306579e+002 -5.689329e+001 7.410434e+000 -3.677592e-002 -4.426817e+000
122462500 -6.341529e-001 -1.853854e+001 -5.449771e+001 -1.309730e+002 -5.755441e+001 6.710483e+001 -3.514859e-002 -4.978484e+000
141206250 -6.581294e-001 -2.049036e+001 -5.588911e+001 -1.266012e+002 -5.829502e+001 1.222621e+002 -3.564725e-002 -5.559753e+000
159950000 -6.848244e-001 -2.254965e+001 -5.697614e+001 -1.190184e+002 -5.886631e+001 -1.785686e+002 -3.482782e-002 -6.164937e+000
178693750 -7.129605e-001 -2.470812e+001 -5.788225e+001 -1.063310e+002 -5.938618e+001 -1.157010e+002 -3.456883e-002 -6.799277e+000
197437500 -7.401388e-001 -2.695896e+001 -5.890962e+001 -1.001109e+002 -6.025786e+001 -5.177997e+001 -3.330233e-002 -7.477545e+000
216181250 -7.730626e-001 -2.931550e+001 -5.996596e+001 -9.039197e+001 -6.081969e+001 7.472805e+000 -3.081062e-002 -8.172442e+000
234925000 -8.069364e-001 -3.177041e+001 -6.081384e+001 -7.512193e+001 -6.194968e+001 6.966127e+001 -2.752849e-002 -8.914484e+000
253668750 -8.421612e-001 -3.419347e+001 -6.084022e+001 -6.259554e+001 -6.202528e+001 1.291828e+002 -2.334012e-002 -9.597637e+000
272412500 -8.782756e-001 -3.657311e+001 -6.114681e+001 -6.153611e+001 -6.185053e+001 -1.657718e+002 -2.037317e-002 -1.029828e+001
291156250 -9.135872e-001 -3.897300e+001 -6.208870e+001 -5.990051e+001 -6.231576e+001 -1.095051e+002 -1.539480e-002 -1.096697e+001
309900000 -9.475228e-001 -4.135505e+001 -6.255783e+001 -5.879652e+001 -6.233014e+001 -5.112257e+001 -1.138736e-002 -1.166488e+001
328643750 -9.856058e-001 -4.369429e+001 -6.228218e+001 -5.929253e+001 -6.240524e+001 -1.720685e+000 -7.320099e-003 -1.235212e+001
347387500 -1.024044e+000 -4.603997e+001 -6.258710e+001 -5.796155e+001 -6.271023e+001 4.274661e+001 -2.437383e-003 -1.304635e+001
366131250 -1.060338e+000 -4.835316e+001 -6.347793e+001 -6.302811e+001 -6.291446e+001 8.157887e+001 1.805157e-003 -1.375199e+001
384875000 -1.100853e+000 -5.063205e+001 -6.352106e+001 -6.882393e+001 -6.248218e+001 1.165811e+002 2.760309e-003 -1.444443e+001
403618750 -1.142118e+000 -5.291412e+001 -6.371794e+001 -8.666888e+001 -6.303098e+001 1.541880e+002 6.929927e-003 -1.514600e+001
422362500 -1.180074e+000 -5.516076e+001 -6.357412e+001 -1.031728e+002 -6.322871e+001 -1.710225e+002 1.199787e-002 -1.584055e+001
441106250 -1.221116e+000 -5.739190e+001 -6.390709e+001 -1.136299e+002 -6.366676e+001 -1.417464e+002 1.627004e-002 -1.652937e+001
459850000 -1.260736e+000 -5.962054e+001 -6.443920e+001 -1.293309e+002 -6.327193e+001 -1.145516e+002 2.013890e-002 -1.722297e+001
478593750 -1.301865e+000 -6.181815e+001 -6.446913e+001 -1.455280e+002 -6.273778e+001 -9.583257e+001 2.494963e-002 -1.790866e+001
497337500 -1.344753e+000 -6.400570e+001 -6.485366e+001 -1.630079e+002 -6.244743e+001 -8.038248e+001 2.998326e-002 -1.861724e+001
516081250 -1.386324e+000 -6.614935e+001 -6.540556e+001 1.687730e+002 -6.256782e+001 -6.468437e+001 3.243661e-002 -1.930449e+001
534825000 -1.426085e+000 -6.827426e+001 -6.481644e+001 1.458909e+002 -6.266670e+001 -5.845154e+001 3.481399e-002 -1.998851e+001
553568750 -1.466606e+000 -7.040706e+001 -6.438754e+001 1.210720e+002 -6.289335e+001 -5.305698e+001 3.340307e-002 -2.069411e+001
572312500 -1.508018e+000 -7.252299e+001 -6.401151e+001 9.711960e+001 -6.279448e+001 -4.912153e+001 3.401113e-002 -2.139795e+001
591056250 -1.549263e+000 -7.461053e+001 -6.380249e+001 6.636890e+001 -6.292738e+001 -5.439731e+001 3.163926e-002 -2.210414e+001
609800000 -1.591023e+000 -7.667029e+001 -6.455610e+001 3.433156e+001 -6.327969e+001 -6.374379e+001 3.181718e-002 -2.281897e+001
628543750 -1.634038e+000 -7.871784e+001 -6.438297e+001 8.047053e+000 -6.329095e+001 -7.147341e+001 3.186434e-002 -2.352206e+001
647287500 -1.674078e+000 -8.074609e+001 -6.460217e+001 -2.470143e+001 -6.414932e+001 -6.728243e+001 2.919820e-002 -2.423218e+001
666031250 -1.712634e+000 -8.275902e+001 -6.468469e+001 -6.026133e+001 -6.404428e+001 -6.697894e+001 2.454543e-002 -2.493750e+001
684775000 -1.752742e+000 -8.473930e+001 -6.463309e+001 -1.004491e+002 -6.420029e+001 -6.031788e+001 1.934916e-002 -2.565347e+001
703518750 -1.793640e+000 -8.674551e+001 -6.457727e+001 -1.372808e+002 -6.506866e+001 -5.668831e+001 1.596921e-002 -2.637791e+001
722262500 -1.833129e+000 -8.870273e+001 -6.437458e+001 1.793133e+002 -6.542098e+001 -4.804220e+001 1.108106e-002 -2.711376e+001
741006250 -1.876319e+000 -9.063699e+001 -6.428212e+001 1.454239e+002 -6.580508e+001 -4.385288e+001 6.628318e-003 -2.783054e+001
759750000 -1.917421e+000 -9.255901e+001 -6.409351e+001 1.188405e+002 -6.625032e+001 -3.918407e+001 1.247067e-004 -2.854828e+001
778493750 -1.955622e+000 -9.444044e+001 -6.428589e+001 1.014935e+002 -6.622955e+001 -3.653588e+001 -6.472369e-003 -2.926891e+001
797237500 -1.995558e+000 -9.632773e+001 -6.399398e+001 8.679726e+001 -6.627436e+001 -3.160316e+001 -1.261740e-002 -2.998542e+001
815981250 -2.033123e+000 -9.821115e+001 -6.431937e+001 7.227183e+001 -6.637989e+001 -1.965986e+001 -1.874230e-002 -3.071871e+001
834725000 -2.067636e+000 -1.000621e+002 -6.461064e+001 5.579241e+001 -6.650060e+001 -1.765165e+001 -2.441764e-002 -3.143718e+001
853468750 -2.105470e+000 -1.018847e+002 -6.516544e+001 4.209826e+001 -6.657852e+001 -8.816174e+000 -3.294115e-002 -3.215567e+001
872212500 -2.142697e+000 -1.037074e+002 -6.604809e+001 2.060600e+001 -6.729793e+001 -1.205117e+000 -4.231184e-002 -3.289016e+001
890956250 -2.179994e+000 -1.055065e+002 -6.592027e+001 -6.052293e+000 -6.751405e+001 2.128022e+000 -5.152215e-002 -3.362695e+001
909700000 -2.217125e+000 -1.072892e+002 -6.596922e+001 -2.020158e+001 -6.780231e+001 5.240875e+000 -6.068514e-002 -3.437608e+001
928443750 -2.253794e+000 -1.090602e+002 -6.581740e+001 -2.823290e+001 -6.834962e+001 -7.157388e-001 -7.047638e-002 -3.510027e+001
947187500 -2.291282e+000 -1.108277e+002 -6.641210e+001 -2.904083e+001 -6.818609e+001 -1.495185e+001 -7.996009e-002 -3.582781e+001
965931250 -2.326519e+000 -1.125804e+002 -6.664650e+001 -3.075981e+001 -6.871790e+001 -2.706178e+001 -8.995096e-002 -3.656449e+001
984675000 -2.361871e+000 -1.143123e+002 -6.683883e+001 -2.902329e+001 -6.891880e+001 -4.713293e+001 -9.949452e-002 -3.728677e+001
1003418750 -2.396400e+000 -1.160118e+002 -6.739745e+001 -3.612670e+001 -6.936938e+001 -6.882631e+001 -1.059745e-001 -3.801451e+001
1022162500 -2.430021e+000 -1.176982e+002 -6.793037e+001 -3.859607e+001 -6.937260e+001 -9.038544e+001 -1.129885e-001 -3.875617e+001
1040906250 -2.463607e+000 -1.193884e+002 -6.735000e+001 -5.012353e+001 -6.936031e+001 -1.056569e+002 -1.216145e-001 -3.948675e+001
1059650000 -2.498073e+000 -1.210579e+002 -6.798167e+001 -6.676075e+001 -6.930787e+001 -1.185541e+002 -1.320495e-001 -4.021593e+001
1078393750 -2.532047e+000 -1.227072e+002 -6.760258e+001 -7.950198e+001 -6.885732e+001 -1.387227e+002 -1.434077e-001 -4.095296e+001
1097137500 -2.568298e+000 -1.243383e+002 -6.812021e+001 -9.392292e+001 -6.881780e+001 -1.530763e+002 -1.521574e-001 -4.166837e+001
1115881250 -2.602374e+000 -1.259664e+002 -6.815097e+001 -1.026421e+002 -6.969047e+001 -1.752504e+002 -1.618929e-001 -4.239069e+001
1134625000 -2.633716e+000 -1.275756e+002 -6.904562e+001 -1.121979e+002 -6.899353e+001 1.599373e+002 -1.708757e-001 -4.311200e+001
1153368750 -2.664345e+000 -1.291698e+002 -6.895887e+001 -1.178336e+002 -6.880647e+001 1.381748e+002 -1.796856e-001 -4.382830e+001
1172112500 -2.695287e+000 -1.307387e+002 -6.926545e+001 -1.238880e+002 -6.898618e+001 1.127088e+002 -1.888568e-001 -4.456746e+001
1190856250 -2.725820e+000 -1.323029e+002 -6.971019e+001 -1.382432e+002 -6.848899e+001 9.318239e+001 -1.972232e-001 -4.530346e+001
1209600000 -2.756521e+000 -1.338670e+002 -6.979382e+001 -1.535206e+002 -6.874585e+001 8.002721e+001 -2.072129e-001 -4.604052e+001
1228343750 -2.786433e+000 -1.354140e+002 -7.030405e+001 -1.715422e+002 -6.879650e+001 5.626546e+001 -2.166736e-001 -4.676751e+001
1247087500 -2.816391e+000 -1.369479e+002 -7.009204e+001 1.662538e+002 -6.863842e+001 3.087204e+001 -2.228589e-001 -4.749090e+001
1265831250 -2.847202e+000 -1.384652e+002 -7.026450e+001 1.537736e+002 -6.878302e+001 2.639468e+000 -2.305251e-001 -4.820242e+001
1284575000 -2.878240e+000 -1.399792e+002 -7.066392e+001 1.409183e+002 -6.905282e+001 -1.970637e+001 -2.367141e-001 -4.894003e+001
1303318750 -2.907337e+000 -1.414743e+002 -6.997291e+001 1.237872e+002 -6.859708e+001 -4.392605e+001 -2.435501e-001 -4.966033e+001
1322062500 -2.935089e+000 -1.429645e+002 -6.994359e+001 1.130825e+002 -6.858353e+001 -6.303870e+001 -2.492259e-001 -5.036893e+001
1340806250 -2.962225e+000 -1.444365e+002 -7.020582e+001 9.375974e+001 -6.838077e+001 -8.177338e+001 -2.556644e-001 -5.108962e+001
1359550000 -2.990800e+000 -1.459105e+002 -7.041531e+001 7.525056e+001 -6.818785e+001 -8.845447e+001 -2.632569e-001 -5.181305e+001
1378293750 -3.018712e+000 -1.473880e+002 -7.036111e+001 6.299872e+001 -6.822792e+001 -9.499512e+001 -2.680590e-001 -5.253736e+001
1397037500 -3.046769e+000 -1.488341e+002 -7.019370e+001 5.677816e+001 -6.756458e+001 -1.069760e+002 -2.720317e-001 -5.326072e+001
1415781250 -3.072967e+000 -1.502679e+002 -7.013556e+001 5.999066e+001 -6.757876e+001 -1.252259e+002 -2.749186e-001 -5.397827e+001
1434525000 -3.100291e+000 -1.516807e+002 -7.013865e+001 6.786794e+001 -6.741959e+001 -1.376539e+002 -2.808935e-001 -5.470749e+001
1453268750 -3.125889e+000 -1.530880e+002 -7.016280e+001 7.171589e+001 -6.748657e+001 -1.492428e+002 -2.878139e-001 -5.541744e+001
1472012500 -3.149783e+000 -1.544910e+002 -7.031681e+001 8.185914e+001 -6.731077e+001 -1.733196e+002 -2.935257e-001 -5.613048e+001
1490756250 -3.174647e+000 -1.558990e+002 -7.049947e+001 9.881374e+001 -6.727862e+001 1.590590e+002 -2.976463e-001 -5.683436e+001
1509500000 -3.199851e+000 -1.573018e+002 -7.054257e+001 1.097575e+002 -6.704989e+001 1.371638e+002 -3.001385e-001 -5.754937e+001
1528243750 -3.226750e+000 -1.586863e+002 -6.992558e+001 1.187897e+002 -6.683370e+001 1.173129e+002 -3.006152e-001 -5.827888e+001
1546987500 -3.250980e+000 -1.600482e+002 -7.026368e+001 1.293056e+002 -6.587134e+001 1.015661e+002 -3.018141e-001 -5.899311e+001
1565731250 -3.275704e+000 -1.613991e+002 -6.937950e+001 1.429386e+002 -6.623126e+001 8.090755e+001 -3.063073e-001 -5.972546e+001
1584475000 -3.296712e+000 -1.627517e+002 -6.926595e+001 1.633759e+002 -6.624093e+001 5.932323e+001 -3.094074e-001 -6.044058e+001
1603218750 -3.318851e+000 -1.641227e+002 -6.911347e+001 -1.749612e+002 -6.576899e+001 4.252185e+001 -3.134431e-001 -6.114898e+001
1621962500 -3.344144e+000 -1.654693e+002 -6.879282e+001 -1.538907e+002 -6.543901e+001 2.174559e+001 -3.173100e-001 -6.185719e+001
1640706250 -3.367587e+000 -1.668154e+002 -6.855836e+001 -1.362819e+002 -6.526772e+001 -2.831765e+000 -3.173613e-001 -6.255883e+001
1659450000 -3.391217e+000 -1.681198e+002 -6.831328e+001 -1.128038e+002 -6.505179e+001 -1.774996e+001 -3.194485e-001 -6.327870e+001
1678193750 -3.412811e+000 -1.694231e+002 -6.839975e+001 -9.181079e+001 -6.498499e+001 -2.975652e+001 -3.231301e-001 -6.399239e+001
1696937500 -3.431059e+000 -1.707137e+002 -6.810821e+001 -7.172634e+001 -6.471449e+001 -3.322001e+001 -3.269254e-001 -6.470592e+001
1715681250 -3.451023e+000 -1.720213e+002 -6.774680e+001 -5.462952e+001 -6.452579e+001 -3.664030e+001 -3.323866e-001 -6.540685e+001
1734425000 -3.469779e+000 -1.733424e+002 -6.807346e+001 -2.675034e+001 -6.531857e+001 -3.798933e+001 -3.361238e-001 -6.611322e+001
1753168750 -3.492205e+000 -1.746299e+002 -6.785038e+001 5.883464e+000 -6.518228e+001 -3.792886e+001 -3.425356e-001 -6.682154e+001
1771912500 -3.515202e+000 -1.759129e+002 -6.788256e+001 4.343322e+001 -6.520147e+001 -3.682738e+001 -3.454112e-001 -6.753539e+001
1790656250 -3.535240e+000 -1.771788e+002 -6.768981e+001 7.385047e+001 -6.534565e+001 -4.634641e+001 -3.468735e-001 -6.824930e+001
1809400000 -3.550921e+000 -1.784300e+002 -6.706674e+001 9.026636e+001 -6.559411e+001 -5.818170e+001 -3.517356e-001 -6.897375e+001
1828143750 -3.567054e+000 -1.796966e+002 -6.710681e+001 9.409056e+001 -6.568409e+001 -6.564675e+001 -3.581222e-001 -6.967947e+001
1846887500 -3.585034e+000 1.790379e+002 -6.770539e+001 8.799463e+001 -6.549448e+001 -5.846666e+001 -3.648690e-001 -7.038972e+001
1865631250 -3.602681e+000 1.777565e+002 -6.774052e+001 8.507384e+001 -6.513565e+001 -5.369603e+001 -3.696720e-001 -7.108870e+001
1884375000 -3.622387e+000 1.764804e+002 -6.733308e+001 7.952850e+001 -6.518812e+001 -3.904346e+001 -3.738685e-001 -7.180065e+001
1903118750 -3.642653e+000 1.752273e+002 -6.733944e+001 6.577553e+001 -6.522868e+001 -2.064235e+001 -3.792126e-001 -7.251501e+001
1921862500 -3.660722e+000 1.739939e+002 -6.711016e+001 4.740502e+001 -6.516740e+001 -4.300251e+000 -3.867870e-001 -7.324050e+001
1940606250 -3.676805e+000 1.727711e+002 -6.718048e+001 3.465490e+001 -6.505968e+001 6.795172e+000 -3.934014e-001 -7.395765e+001
1959350000 -3.689843e+000 1.715320e+002 -6.734557e+001 3.018220e+001 -6.500511e+001 5.623659e+000 -4.051982e-001 -7.467443e+001
1978093750 -3.705065e+000 1.702821e+002 -6.702783e+001 2.755216e+001 -6.543127e+001 1.105604e+001 -4.162086e-001 -7.539816e+001
1996837500 -3.721997e+000 1.690388e+002 -6.742747e+001 1.791660e+001 -6.471346e+001 1.856181e+001 -4.221593e-001 -7.611652e+001
2015581250 -3.743217e+000 1.678144e+002 -6.746117e+001 -2.667819e+000 -6.451030e+001 1.833504e+001 -4.320740e-001 -7.683961e+001
2034325000 -3.759693e+000 1.666039e+002 -6.716779e+001 -3.680652e+001 -6.444708e+001 1.131559e+001 -4.420502e-001 -7.756841e+001
2053068750 -3.770416e+000 1.653813e+002 -6.724218e+001 -7.186152e+001 -6.489796e+001 1.354514e+001 -4.513274e-001 -7.829613e+001
2071812500 -3.782208e+000 1.641703e+002 -6.738319e+001 -1.035353e+002 -6.490655e+001 1.086977e+001 -4.652546e-001 -7.902549e+001
2090556250 -3.795102e+000 1.629385e+002 -6.734458e+001 -1.396342e+002 -6.490353e+001 9.783789e+000 -4.771909e-001 -7.975052e+001
2109300000 -3.811027e+000 1.617134e+002 -6.696008e+001 -1.708956e+002 -6.482172e+001 7.491392e+000 -4.907243e-001 -8.046936e+001
2128043750 -3.831389e+000 1.604881e+002 -6.738514e+001 1.539461e+002 -6.471632e+001 5.594468e+000 -5.028338e-001 -8.120630e+001
2146787500 -3.847122e+000 1.592943e+002 -6.724747e+001 1.226481e+002 -6.446825e+001 -4.543261e+000 -5.138627e-001 -8.193978e+001
2165531250 -3.861969e+000 1.581104e+002 -6.684745e+001 8.158668e+001 -6.342918e+001 -1.366892e+001 -5.255363e-001 -8.266421e+001
2184275000 -3.873418e+000 1.569024e+002 -6.683138e+001 3.186533e+001 -6.323713e+001 -2.371191e+001 -5.365653e-001 -8.341307e+001
2203018750 -3.885294e+000 1.557068e+002 -6.654008e+001 -2.001117e+001 -6.311805e+001 -3.319579e+001 -5.511411e-001 -8.414162e+001
2221762500 -3.899669e+000 1.545031e+002 -6.687218e+001 -6.859952e+001 -6.272835e+001 -4.276504e+001 -5.652156e-001 -8.487566e+001
2240506250 -3.915826e+000 1.532994e+002 -6.708116e+001 -1.137178e+002 -6.269330e+001 -3.885025e+001 -5.772045e-001 -8.558679e+001
2259250000 -3.932151e+000 1.521108e+002 -6.762790e+001 -1.598349e+002 -6.357188e+001 -3.648277e+001 -5.900002e-001 -8.632542e+001
2277993750 -3.945761e+000 1.509358e+002 -6.707842e+001 1.531954e+002 -6.323914e+001 -3.837464e+001 -6.026021e-001 -8.705525e+001
2296737500 -3.957891e+000 1.497638e+002 -6.659782e+001 1.050022e+002 -6.335535e+001 -3.273581e+001 -6.182252e-001 -8.779450e+001
2315481250 -3.968508e+000 1.485919e+002 -6.642972e+001 6.666177e+001 -6.300434e+001 -2.910001e+001 -6.313567e-001 -8.853214e+001
2334225000 -3.978894e+000 1.474101e+002 -6.609834e+001 3.672424e+001 -6.335444e+001 -1.629961e+001 -6.466408e-001 -8.927136e+001
2352968750 -3.991008e+000 1.462247e+002 -6.570191e+001 9.340581e+000 -6.325022e+001 -3.286736e+000 -6.599367e-001 -9.000632e+001
2371712500 -4.001625e+000 1.450331e+002 -6.599319e+001 -1.757333e+001 -6.341938e+001 8.327217e+000 -6.748038e-001 -9.073399e+001
2390456250 -4.012847e+000 1.438540e+002 -6.621966e+001 -4.608152e+001 -6.390537e+001 2.236425e+001 -6.871423e-001 -9.146194e+001
2409200000 -4.023807e+000 1.426895e+002 -6.620040e+001 -7.957810e+001 -6.352802e+001 2.742708e+001 -7.007334e-001 -9.219745e+001
2427943750 -4.032693e+000 1.415106e+002 -6.566366e+001 -1.108673e+002 -6.378770e+001 3.660749e+001 -7.165409e-001 -9.293663e+001
2446687500 -4.039257e+000 1.403269e+002 -6.563949e+001 -1.383501e+002 -6.375689e+001 5.038703e+001 -7.293447e-001 -9.367940e+001
2465431250 -4.048152e+000 1.391403e+002 -6.595676e+001 -1.629242e+002 -6.377153e+001 6.522659e+001 -7.416731e-001 -9.440697e+001
2484175000 -4.061169e+000 1.379750e+002 -6.606403e+001 1.785268e+002 -6.352121e+001 7.746553e+001 -7.556947e-001 -9.514655e+001
2502918750 -4.072769e+000 1.368030e+002 -6.586128e+001 1.474975e+002 -6.374468e+001 9.366445e+001 -7.683395e-001 -9.587736e+001
2521662500 -4.082720e+000 1.356404e+002 -6.569188e+001 1.249729e+002 -6.412540e+001 1.049470e+002 -7.794536e-001 -9.660418e+001
2540406250 -4.092509e+000 1.344763e+002 -6.614206e+001 9.983190e+001 -6.399902e+001 1.096615e+002 -7.923066e-001 -9.736345e+001
2559150000 -4.098692e+000 1.333083e+002 -6.567628e+001 8.087292e+001 -6.419291e+001 1.140406e+002 -8.056166e-001 -9.810291e+001
2577893750 -4.106037e+000 1.321140e+002 -6.540891e+001 6.575163e+001 -6.447569e+001 1.183828e+002 -8.209904e-001 -9.883512e+001
2596637500 -4.115185e+000 1.309272e+002 -6.542602e+001 5.527441e+001 -6.480474e+001 1.203827e+002 -8.354100e-001 -9.959003e+001
2615381250 -4.122736e+000 1.297516e+002 -6.546593e+001 4.610897e+001 -6.521214e+001 1.207992e+002 -8.500771e-001 -1.003126e+002
2634125000 -4.131923e+000 1.285502e+002 -6.571732e+001 2.978484e+001 -6.530103e+001 1.188590e+002 -8.651372e-001 -1.010389e+002
2652868750 -4.138191e+000 1.273718e+002 -6.593184e+001 1.104472e+001 -6.574710e+001 1.213290e+002 -8.798219e-001 -1.017850e+002
2671612500 -4.144328e+000 1.262019e+002 -6.567457e+001 2.151683e+000 -6.558081e+001 1.123461e+002 -8.970758e-001 -1.025360e+002
2690356250 -4.152282e+000 1.250184e+002 -6.520411e+001 -6.826783e+000 -6.494682e+001 1.072076e+002 -9.113695e-001 -1.032894e+002
2709100000 -4.158939e+000 1.238274e+002 -6.556827e+001 -7.926044e+000 -6.519101e+001 9.757915e+001 -9.263191e-001 -1.040470e+002
2727843750 -4.165429e+000 1.226386e+002 -6.619103e+001 -1.775508e+001 -6.562165e+001 8.557941e+001 -9.415177e-001 -1.047859e+002
2746587500 -4.171139e+000 1.214511e+002 -6.663556e+001 -3.234332e+001 -6.616101e+001 7.155473e+001 -9.581376e-001 -1.055311e+002
2765331250 -4.178988e+000 1.202683e+002 -6.670149e+001 -4.642628e+001 -6.573629e+001 4.599056e+001 -9.744526e-001 -1.062719e+002
2784075000 -4.185048e+000 1.190769e+002 -6.705312e+001 -6.454805e+001 -6.592076e+001 1.944441e+001 -9.894557e-001 -1.070463e+002
2802818750 -4.191963e+000 1.178845e+002 -6.685342e+001 -8.716055e+001 -6.585889e+001 -5.069955e+000 -1.004805e+000 -1.078013e+002
2821562500 -4.197105e+000 1.166916e+002 -6.698192e+001 -1.099051e+002 -6.539631e+001 -3.097701e+001 -1.021603e+000 -1.085534e+002
2840306250 -4.203025e+000 1.155002e+002 -6.721262e+001 -1.296857e+002 -6.560152e+001 -5.570310e+001 -1.035614e+000 -1.093097e+002
2859050000 -4.207710e+000 1.143206e+002 -6.796549e+001 -1.388554e+002 -6.561118e+001 -7.913246e+001 -1.052434e+000 -1.100574e+002
2877793750 -4.213482e+000 1.131094e+002 -6.811711e+001 -1.539350e+002 -6.564598e+001 -1.036936e+002 -1.064008e+000 -1.107903e+002
2896537500 -4.218437e+000 1.119235e+002 -6.832260e+001 -1.711219e+002 -6.556329e+001 -1.187095e+002 -1.084750e+000 -1.115455e+002
2915281250 -4.225639e+000 1.107169e+002 -6.788749e+001 1.789591e+002 -6.568113e+001 -1.436273e+002 -1.103137e+000 -1.123381e+002
2934025000 -4.230549e+000 1.095034e+002 -6.807809e+001 1.775565e+002 -6.564099e+001 -1.634625e+002 -1.117203e+000 -1.130999e+002
2952768750 -4.234915e+000 1.082951e+002 -6.835097e+001 1.687615e+002 -6.521809e+001 1.773433e+002 -1.141517e+000 -1.138681e+002
2971512500 -4.241662e+000 1.070638e+002 -6.827171e+001 1.615327e+002 -6.568433e+001 1.530809e+002 -1.160521e+000 -1.146572e+002
2990256250 -4.246074e+000 1.058515e+002 -6.818489e+001 1.514788e+002 -6.564117e+001 1.300844e+002 -1.176207e+000 -1.154056e+002
3009000000 -4.252089e+000 1.046655e+002 -6.839520e+001 1.346194e+002 -6.541180e+001 1.132365e+002 -1.198041e+000 -1.161843e+002
3027743750 -4.257495e+000 1.034375e+002 -6.833598e+001 1.173253e+002 -6.500014e+001 9.704945e+001 -1.218059e+000 -1.169818e+002
3046487500 -4.260408e+000 1.022259e+002 -6.874537e+001 1.032322e+002 -6.535294e+001 7.741319e+001 -1.233612e+000 -1.177340e+002
3065231250 -4.265040e+000 1.010141e+002 -6.879505e+001 9.803464e+001 -6.518766e+001 5.686580e+001 -1.253778e+000 -1.185173e+002
3083975000 -4.268806e+000 9.974680e+001 -6.821788e+001 1.041237e+002 -6.506228e+001 4.116803e+001 -1.274482e+000 -1.193098e+002
3102718750 -4.268716e+000 9.853094e+001 -6.865498e+001 1.080948e+002 -6.510835e+001 2.653466e+001 -1.291499e+000 -1.200649e+002
3121462500 -4.274393e+000 9.729838e+001 -6.859369e+001 1.120300e+002 -6.485418e+001 6.027211e+000 -1.316975e+000 -1.208584e+002
3140206250 -4.276534e+000 9.601521e+001 -6.819863e+001 1.185814e+002 -6.459816e+001 -5.222868e+000 -1.336960e+000 -1.216505e+002
3158950000 -4.275841e+000 9.479442e+001 -6.737111e+001 1.271077e+002 -6.401912e+001 -1.866622e+001 -1.357926e+000 -1.224094e+002
3177693750 -4.285511e+000 9.353910e+001 -6.728345e+001 1.383058e+002 -6.413223e+001 -2.693860e+001 -1.382365e+000 -1.232266e+002
3196437500 -4.288231e+000 9.222937e+001 -6.748721e+001 1.516229e+002 -6.457499e+001 -3.686842e+001 -1.400978e+000 -1.240146e+002
3215181250 -4.285272e+000 9.099707e+001 -6.745069e+001 1.678409e+002 -6.508714e+001 -4.225378e+001 -1.426957e+000 -1.247568e+002
3233925000 -4.293174e+000 8.974072e+001 -6.790462e+001 -1.733110e+002 -6.512638e+001 -5.638403e+001 -1.451051e+000 -1.256000e+002
3252668750 -4.293062e+000 8.842451e+001 -6.773088e+001 -1.609877e+002 -6.517499e+001 -6.372705e+001 -1.472287e+000 -1.263930e+002
3271412500 -4.290077e+000 8.715548e+001 -6.787193e+001 -1.465920e+002 -6.502737e+001 -7.721008e+001 -1.498644e+000 -1.271539e+002
3290156250 -4.298468e+000 8.585645e+001 -6.728200e+001 -1.381940e+002 -6.492916e+001 -9.106109e+001 -1.523609e+000 -1.279956e+002
3308900000 -4.298517e+000 8.454664e+001 -6.716103e+001 -1.205480e+002 -6.544976e+001 -1.013199e+002 -1.549755e+000 -1.287896e+002
3327643750 -4.299373e+000 8.326791e+001 -6.700374e+001 -9.435969e+001 -6.591225e+001 -1.078414e+002 -1.574401e+000 -1.295837e+002
3346387500 -4.302823e+000 8.195905e+001 -6.726425e+001 -7.162871e+001 -6.618555e+001 -1.072931e+002 -1.598339e+000 -1.303974e+002
3365131250 -4.304001e+000 8.062390e+001 -6.714434e+001 -5.661418e+001 -6.578761e+001 -1.143422e+002 -1.623284e+000 -1.311856e+002
3383875000 -4.302346e+000 7.932179e+001 -6.691057e+001 -4.131038e+001 -6.618509e+001 -1.187385e+002 -1.649615e+000 -1.319794e+002
3402618750 -4.306574e+000 7.799925e+001 -6.676907e+001 -2.220193e+001 -6.642102e+001 -1.088642e+002 -1.675852e+000 -1.328070e+002
3421362500 -4.305816e+000 7.662833e+001 -6.687915e+001 -8.141387e+000 -6.600013e+001 -1.097607e+002 -1.702839e+000 -1.336122e+002
3440106250 -4.305148e+000 7.530205e+001 -6.711315e+001 8.540767e-001 -6.582064e+001 -1.153937e+002 -1.726836e+000 -1.344210e+002
3458850000 -4.307498e+000 7.395170e+001 -6.774276e+001 1.372050e+001 -6.619438e+001 -1.075925e+002 -1.754612e+000 -1.352504e+002
3477593750 -4.306159e+000 7.255554e+001 -6.742558e+001 3.083771e+001 -6.561281e+001 -9.011712e+001 -1.781347e+000 -1.360720e+002
3496337500 -4.303474e+000 7.123121e+001 -6.692688e+001 4.026325e+001 -6.656623e+001 -7.030356e+001 -1.810533e+000 -1.368940e+002
3515081250 -4.308095e+000 6.987492e+001 -6.726075e+001 5.059841e+001 -6.646156e+001 -5.943028e+001 -1.836111e+000 -1.377316e+002
3533825000 -4.305202e+000 6.847858e+001 -6.763272e+001 5.246292e+001 -6.640733e+001 -4.568565e+001 -1.862247e+000 -1.385691e+002
3552568750 -4.305478e+000 6.711803e+001 -6.794399e+001 6.487662e+001 -6.633775e+001 -2.071674e+001 -1.889638e+000 -1.394002e+002
3571312500 -4.311275e+000 6.570544e+001 -6.779992e+001 6.733925e+001 -6.633597e+001 2.348627e+000 -1.918647e+000 -1.402657e+002
3590056250 -4.315877e+000 6.427937e+001 -6.812146e+001 7.293233e+001 -6.643583e+001 2.844107e+001 -1.948285e+000 -1.411441e+002
3608800000 -4.309772e+000 6.285411e+001 -6.791010e+001 7.562096e+001 -6.594707e+001 4.570136e+001 -1.974581e+000 -1.419663e+002
3627543750 -4.308514e+000 6.146838e+001 -6.787549e+001 7.486929e+001 -6.587961e+001 6.971658e+001 -2.006328e+000 -1.428263e+002
3646287500 -4.313570e+000 5.999612e+001 -6.795782e+001 7.178659e+001 -6.549496e+001 9.617722e+001 -2.034334e+000 -1.437168e+002
3665031250 -4.307274e+000 5.853657e+001 -6.742284e+001 6.538813e+001 -6.538185e+001 1.267578e+002 -2.062648e+000 -1.445332e+002
3683775000 -4.309566e+000 5.715473e+001 -6.756860e+001 5.752909e+001 -6.517629e+001 1.491795e+002 -2.094449e+000 -1.453862e+002
3702518750 -4.319686e+000 5.563658e+001 -6.754280e+001 5.327551e+001 -6.527837e+001 -1.767410e+002 -2.127743e+000 -1.462795e+002
3721262500 -4.312735e+000 5.412928e+001 -6.719991e+001 5.613959e+001 -6.513456e+001 -1.395627e+002 -2.154473e+000 -1.471344e+002
3740006250 -4.315329e+000 5.270862e+001 -6.705698e+001 5.331796e+001 -6.481415e+001 -1.149613e+002 -2.192382e+000 -1.480073e+002
3758750000 -4.321904e+000 5.113752e+001 -6.730688e+001 4.133420e+001 -6.432764e+001 -9.710884e+001 -2.225280e+000 -1.489110e+002
3777493750 -4.315603e+000 4.959978e+001 -6.742208e+001 2.022248e+001 -6.437393e+001 -7.555754e+001 -2.257358e+000 -1.497731e+002
3796237500 -4.321584e+000 4.813055e+001 -6.752629e+001 -7.826487e-001 -6.476221e+001 -5.430059e+001 -2.295711e+000 -1.506617e+002
3814981250 -4.331666e+000 4.649992e+001 -6.724387e+001 -1.546777e+001 -6.428299e+001 -3.941825e+001 -2.329554e+000 -1.515916e+002
3833725000 -4.323713e+000 4.493462e+001 -6.720573e+001 -3.485683e+001 -6.378991e+001 -3.196449e+001 -2.359668e+000 -1.524404e+002
3852468750 -4.336146e+000 4.341570e+001 -6.773746e+001 -4.806662e+001 -6.436172e+001 -1.853657e+001 -2.401311e+000 -1.533496e+002
3871212500 -4.339801e+000 4.173634e+001 -6.821188e+001 -5.339769e+001 -6.451566e+001 -4.526204e+000 -2.440806e+000 -1.542716e+002
3889956250 -4.338405e+000 4.014108e+001 -6.775539e+001 -6.418025e+001 -6.400884e+001 3.986028e+000 -2.476703e+000 -1.551573e+002
3908700000 -4.353489e+000 3.857649e+001 -6.743680e+001 -8.652289e+001 -6.422129e+001 5.768332e+000 -2.522692e+000 -1.560823e+002
3927443750 -4.360811e+000 3.684672e+001 -6.742696e+001 -9.994394e+001 -6.318139e+001 1.304583e+001 -2.561628e+000 -1.570243e+002
3946187500 -4.360858e+000 3.521859e+001 -6.716698e+001 -1.209700e+002 -6.304687e+001 2.695663e+001 -2.604444e+000 -1.579364e+002
3964931250 -4.383047e+000 3.354929e+001 -6.643909e+001 -1.383216e+002 -6.271457e+001 3.791615e+001 -2.654537e+000 -1.588812e+002
3983675000 -4.386494e+000 3.177525e+001 -6.606725e+001 -1.610842e+002 -6.250793e+001 4.709384e+001 -2.697651e+000 -1.598141e+002
4002418750 -4.389603e+000 3.013407e+001 -6.612446e+001 -1.792880e+002 -6.240487e+001 4.806153e+001 -2.744477e+000 -1.607333e+002
4021162500 -4.410543e+000 2.840833e+001 -6.571579e+001 1.643177e+002 -6.281474e+001 4.431058e+001 -2.795424e+000 -1.616790e+002
4039906250 -4.423463e+000 2.662182e+001 -6.555122e+001 1.479317e+002 -6.261452e+001 4.459466e+001 -2.844308e+000 -1.626483e+002
4058650000 -4.439767e+000 2.488343e+001 -6.505952e+001 1.304333e+002 -6.204578e+001 4.386694e+001 -2.895665e+000 -1.636243e+002
4077393750 -4.464350e+000 2.311408e+001 -6.439265e+001 1.172366e+002 -6.148007e+001 3.829311e+001 -2.951826e+000 -1.645828e+002
4096137500 -4.482106e+000 2.125652e+001 -6.390474e+001 1.082104e+002 -6.115107e+001 3.687188e+001 -3.007136e+000 -1.655730e+002
4114881250 -4.504396e+000 1.942743e+001 -6.318489e+001 1.004147e+002 -6.093639e+001 3.964386e+001 -3.065621e+000 -1.665790e+002
4133625000 -4.530302e+000 1.758927e+001 -6.248454e+001 8.859374e+001 -6.049408e+001 3.923981e+001 -3.123165e+000 -1.675758e+002
4152368750 -4.555120e+000 1.570180e+001 -6.226591e+001 7.051148e+001 -6.011625e+001 3.523285e+001 -3.187188e+000 -1.685661e+002
4171112500 -4.586145e+000 1.378964e+001 -6.189452e+001 5.622570e+001 -5.980089e+001 3.957447e+001 -3.249053e+000 -1.696186e+002
4189856250 -4.622017e+000 1.188517e+001 -6.098571e+001 4.775042e+001 -5.948842e+001 4.295478e+001 -3.311425e+000 -1.706430e+002
4208600000 -4.657428e+000 9.926645e+000 -6.006205e+001 4.622087e+001 -5.869847e+001 4.071640e+001 -3.378484e+000 -1.716552e+002
4227343750 -4.696276e+000 7.949001e+000 -5.952002e+001 4.979297e+001 -5.780787e+001 3.863094e+001 -3.450360e+000 -1.727167e+002
4246087500 -4.741050e+000 5.966963e+000 -5.901673e+001 4.859633e+001 -5.732180e+001 4.038694e+001 -3.520811e+000 -1.737599e+002
4264831250 -4.790505e+000 3.934242e+000 -5.845871e+001 4.626708e+001 -5.674172e+001 4.166685e+001 -3.599554e+000 -1.748191e+002
4283575000 -4.839561e+000 1.878787e+000 -5.713249e+001 4.202672e+001 -5.564066e+001 4.363393e+001 -3.676342e+000 -1.759064e+002
4302318750 -4.899059e+000 -1.528987e-001 -5.553852e+001 3.551235e+001 -5.488623e+001 4.482993e+001 -3.753571e+000 -1.769749e+002
4321062500 -4.966059e+000 -2.257534e+000 -5.451948e+001 3.103423e+001 -5.428657e+001 4.433667e+001 -3.839645e+000 -1.780459e+002
4339806250 -5.031110e+000 -4.420781e+000 -5.377640e+001 3.260604e+001 -5.325120e+001 4.412671e+001 -3.924932e+000 -1.791659e+002
4358550000 -5.109500e+000 -6.536931e+000 -5.307887e+001 2.982672e+001 -5.266082e+001 3.895238e+001 -4.013614e+000 1.797287e+002
4377293750 -5.194989e+000 -8.731925e+000 -5.214515e+001 2.735140e+001 -5.174218e+001 3.303593e+001 -4.107399e+000 1.786270e+002
4396037500 -5.282558e+000 -1.093103e+001 -5.115653e+001 2.589540e+001 -5.108117e+001 3.137167e+001 -4.203122e+000 1.774990e+002
4414781250 -5.388100e+000 -1.313038e+001 -5.026627e+001 2.569694e+001 -5.025695e+001 2.600117e+001 -4.301877e+000 1.763676e+002
4433525000 -5.501327e+000 -1.539893e+001 -4.920135e+001 2.425990e+001 -4.947055e+001 2.300385e+001 -4.407609e+000 1.752446e+002
4452268750 -5.617393e+000 -1.766410e+001 -4.824202e+001 2.087087e+001 -4.802880e+001 2.276710e+001 -4.516952e+000 1.740924e+002
4471012500 -5.752914e+000 -1.990987e+001 -4.724178e+001 1.808660e+001 -4.716057e+001 2.033790e+001 -4.631521e+000 1.729415e+002
4489756250 -5.895808e+000 -2.222359e+001 -4.638064e+001 1.586975e+001 -4.623822e+001 1.887808e+001 -4.749512e+000 1.718036e+002
4508500000 -6.048752e+000 -2.453197e+001 -4.535106e+001 1.374771e+001 -4.535339e+001 1.638462e+001 -4.872755e+000 1.706436e+002
4527243750 -6.221296e+000 -2.678532e+001 -4.452187e+001 1.145047e+001 -4.447276e+001 1.323577e+001 -5.002204e+000 1.694872e+002
4545987500 -6.406662e+000 -2.910927e+001 -4.359613e+001 1.004059e+001 -4.352857e+001 1.125482e+001 -5.138296e+000 1.683321e+002
4564731250 -6.604678e+000 -3.136968e+001 -4.266767e+001 7.393503e+000 -4.248637e+001 8.239795e+000 -5.280424e+000 1.671560e+002
4583475000 -6.821751e+000 -3.359803e+001 -4.169817e+001 4.647350e+000 -4.159381e+001 5.389541e+000 -5.428431e+000 1.659883e+002
4602218750 -7.052064e+000 -3.584294e+001 -4.070020e+001 1.523500e+000 -4.039951e+001 1.324718e+000 -5.582920e+000 1.648349e+002
4620962500 -7.293885e+000 -3.799653e+001 -3.969875e+001 -1.248912e+000 -3.949359e+001 -2.022635e+000 -5.744640e+000 1.636878e+002
4639706250 -7.563786e+000 -4.007325e+001 -3.882563e+001 -4.620066e+000 -3.847578e+001 -5.287173e+000 -5.917431e+000 1.625499e+002
4658450000 -7.841281e+000 -4.213656e+001 -3.786884e+001 -8.330290e+000 -3.762959e+001 -8.543715e+000 -6.096098e+000 1.614181e+002
4677193750 -8.132893e+000 -4.402229e+001 -3.690844e+001 -1.159364e+001 -3.674726e+001 -1.198957e+001 -6.286875e+000 1.603146e+002
4695937500 -8.452828e+000 -4.580145e+001 -3.598904e+001 -1.525973e+001 -3.586561e+001 -1.538923e+001 -6.486885e+000 1.592174e+002
4714681250 -8.780795e+000 -4.753837e+001 -3.507856e+001 -1.886670e+001 -3.503588e+001 -1.891447e+001 -6.692713e+000 1.581886e+002
4733425000 -9.121710e+000 -4.907177e+001 -3.415397e+001 -2.301842e+001 -3.419016e+001 -2.251638e+001 -6.913416e+000 1.571645e+002
4752168750 -9.474864e+000 -5.046646e+001 -3.331179e+001 -2.703389e+001 -3.330322e+001 -2.656304e+001 -7.139044e+000 1.562036e+002
4770912500 -9.834312e+000 -5.167439e+001 -3.247470e+001 -3.108358e+001 -3.245449e+001 -3.070728e+001 -7.375823e+000 1.553223e+002
4789656250 -1.019499e+001 -5.269730e+001 -3.162616e+001 -3.528041e+001 -3.162350e+001 -3.489569e+001 -7.625192e+000 1.544530e+002
4808400000 -1.056231e+001 -5.352534e+001 -3.080672e+001 -3.966294e+001 -3.079071e+001 -3.914710e+001 -7.882153e+000 1.536767e+002
4827143750 -1.092245e+001 -5.420305e+001 -2.998677e+001 -4.410843e+001 -2.995974e+001 -4.359410e+001 -8.146044e+000 1.529945e+002
4845887500 -1.127423e+001 -5.465854e+001 -2.920876e+001 -4.855973e+001 -2.916445e+001 -4.831167e+001 -8.422052e+000 1.523964e+002
4864631250 -1.162438e+001 -5.494589e+001 -2.844532e+001 -5.336819e+001 -2.837491e+001 -5.288234e+001 -8.701724e+000 1.519182e+002
4883375000 -1.195164e+001 -5.510118e+001 -2.767566e+001 -5.788376e+001 -2.763999e+001 -5.749759e+001 -8.987247e+000 1.515484e+002
4902118750 -1.226636e+001 -5.509117e+001 -2.693361e+001 -6.254729e+001 -2.691272e+001 -6.226081e+001 -9.279208e+000 1.512674e+002
4920862500 -1.256788e+001 -5.495042e+001 -2.620924e+001 -6.734731e+001 -2.619660e+001 -6.702705e+001 -9.568867e+000 1.511006e+002
4939606250 -1.284558e+001 -5.467969e+001 -2.551738e+001 -7.217805e+001 -2.551439e+001 -7.182007e+001 -9.854570e+000 1.510951e+002
4958350000 -1.310328e+001 -5.427160e+001 -2.485304e+001 -7.711819e+001 -2.483916e+001 -7.685766e+001 -1.013917e+001 1.512032e+002
4977093750 -1.333985e+001 -5.380211e+001 -2.418233e+001 -8.210986e+001 -2.417745e+001 -8.169175e+001 -1.041536e+001 1.514448e+002
4995837500 -1.354769e+001 -5.325363e+001 -2.354262e+001 -8.712808e+001 -2.355624e+001 -8.671829e+001 -1.068460e+001 1.518387e+002
5014581250 -1.373680e+001 -5.260578e+001 -2.292835e+001 -9.226230e+001 -2.292752e+001 -9.180546e+001 -1.094995e+001 1.523188e+002
5033325000 -1.389978e+001 -5.195376e+001 -2.232473e+001 -9.735453e+001 -2.233216e+001 -9.685297e+001 -1.119549e+001 1.528819e+002
5052068750 -1.403857e+001 -5.124857e+001 -2.176026e+001 -1.024893e+002 -2.176355e+001 -1.020514e+002 -1.143158e+001 1.535652e+002
5070812500 -1.414813e+001 -5.052529e+001 -2.120773e+001 -1.076719e+002 -2.120276e+001 -1.073491e+002 -1.165064e+001 1.543051e+002
5089556250 -1.423782e+001 -4.981704e+001 -2.067206e+001 -1.128242e+002 -2.067458e+001 -1.125371e+002 -1.185080e+001 1.551286e+002
5108300000 -1.429858e+001 -4.913856e+001 -2.016168e+001 -1.179989e+002 -2.016189e+001 -1.177946e+002 -1.203811e+001 1.560242e+002
5127043750 -1.432924e+001 -4.849555e+001 -1.966190e+001 -1.231288e+002 -1.966287e+001 -1.229266e+002 -1.221139e+001 1.569307e+002
5145787500 -1.433856e+001 -4.789428e+001 -1.918909e+001 -1.282740e+002 -1.919177e+001 -1.280729e+002 -1.236070e+001 1.578157e+002
5164531250 -1.432745e+001 -4.740326e+001 -1.873640e+001 -1.334804e+002 -1.873024e+001 -1.332750e+002 -1.249487e+001 1.587691e+002
5183275000 -1.429367e+001 -4.698919e+001 -1.829597e+001 -1.386278e+002 -1.829900e+001 -1.383842e+002 -1.261343e+001 1.597039e+002
5202018750 -1.424238e+001 -4.672087e+001 -1.788460e+001 -1.437725e+002 -1.788392e+001 -1.435478e+002 -1.271450e+001 1.606128e+002
5220762500 -1.417931e+001 -4.657134e+001 -1.748334e+001 -1.489436e+002 -1.748047e+001 -1.486705e+002 -1.280056e+001 1.615541e+002
5239506250 -1.410179e+001 -4.655652e+001 -1.709528e+001 -1.539798e+002 -1.710118e+001 -1.537584e+002 -1.287458e+001 1.624178e+002
5258250000 -1.401772e+001 -4.668364e+001 -1.673566e+001 -1.590840e+002 -1.673358e+001 -1.588777e+002 -1.292797e+001 1.632162e+002
5276993750 -1.392790e+001 -4.693779e+001 -1.637695e+001 -1.641152e+002 -1.637958e+001 -1.638995e+002 -1.296906e+001 1.639892e+002
5295737500 -1.382926e+001 -4.732796e+001 -1.604456e+001 -1.690613e+002 -1.604757e+001 -1.689246e+002 -1.299932e+001 1.646843e+002
5314481250 -1.373813e+001 -4.785945e+001 -1.572561e+001 -1.740803e+002 -1.571967e+001 -1.739211e+002 -1.301734e+001 1.653318e+002
5333225000 -1.364361e+001 -4.848226e+001 -1.541164e+001 -1.789579e+002 -1.541306e+001 -1.787792e+002 -1.303062e+001 1.659106e+002
5351968750 -1.355350e+001 -4.921381e+001 -1.512659e+001 1.761714e+002 -1.512690e+001 1.763266e+002 -1.304780e+001 1.663912e+002
5370712500 -1.346878e+001 -5.008761e+001 -1.483837e+001 1.712897e+002 -1.483680e+001 1.714868e+002 -1.304930e+001 1.667640e+002
5389456250 -1.339250e+001 -5.103179e+001 -1.456410e+001 1.665724e+002 -1.457447e+001 1.667412e+002 -1.305434e+001 1.670934e+002
5408200000 -1.332728e+001 -5.205552e+001 -1.431676e+001 1.618256e+002 -1.432314e+001 1.619446e+002 -1.306013e+001 1.673155e+002
5426943750 -1.326542e+001 -5.317247e+001 -1.406079e+001 1.570921e+002 -1.406892e+001 1.572998e+002 -1.306722e+001 1.674649e+002
5445687500 -1.320986e+001 -5.435318e+001 -1.382533e+001 1.525140e+002 -1.383877e+001 1.526826e+002 -1.308150e+001 1.675913e+002
5464431250 -1.316843e+001 -5.554790e+001 -1.360390e+001 1.478712e+002 -1.360806e+001 1.480344e+002 -1.310620e+001 1.676505e+002
5483175000 -1.313130e+001 -5.687743e+001 -1.337633e+001 1.433362e+002 -1.338563e+001 1.435393e+002 -1.312964e+001 1.676428e+002
5501918750 -1.311091e+001 -5.821904e+001 -1.317417e+001 1.388678e+002 -1.318297e+001 1.390636e+002 -1.316343e+001 1.676095e+002
5520662500 -1.310006e+001 -5.961147e+001 -1.297423e+001 1.343687e+002 -1.297494e+001 1.345828e+002 -1.320343e+001 1.675908e+002
5539406250 -1.309386e+001 -6.107774e+001 -1.277497e+001 1.299935e+002 -1.278011e+001 1.302587e+002 -1.324972e+001 1.675591e+002
5558150000 -1.309855e+001 -6.254267e+001 -1.259630e+001 1.256491e+002 -1.259995e+001 1.258539e+002 -1.330624e+001 1.675730e+002
5576893750 -1.311980e+001 -6.403968e+001 -1.241563e+001 1.212861e+002 -1.241360e+001 1.214963e+002 -1.337298e+001 1.675842e+002
5595637500 -1.314653e+001 -6.558820e+001 -1.223885e+001 1.170523e+002 -1.224229e+001 1.172864e+002 -1.343760e+001 1.675907e+002
5614381250 -1.318664e+001 -6.711161e+001 -1.207859e+001 1.128255e+002 -1.207922e+001 1.130067e+002 -1.351035e+001 1.676209e+002
5633125000 -1.324572e+001 -6.867463e+001 -1.191326e+001 1.086047e+002 -1.190935e+001 1.088250e+002 -1.358185e+001 1.676942e+002
5651868750 -1.330351e+001 -7.023555e+001 -1.175624e+001 1.044881e+002 -1.175877e+001 1.047286e+002 -1.365779e+001 1.678579e+002
5670612500 -1.338142e+001 -7.175464e+001 -1.161005e+001 1.003563e+002 -1.160962e+001 1.005559e+002 -1.373894e+001 1.680259e+002
5689356250 -1.347159e+001 -7.328783e+001 -1.145963e+001 9.630631e+001 -1.145864e+001 9.653892e+001 -1.382118e+001 1.682142e+002
5708100000 -1.356960e+001 -7.479955e+001 -1.132300e+001 9.229263e+001 -1.132512e+001 9.254553e+001 -1.389736e+001 1.684559e+002
5726843750 -1.368207e+001 -7.627296e+001 -1.118942e+001 8.825610e+001 -1.118642e+001 8.851919e+001 -1.396865e+001 1.687000e+002
5745587500 -1.381115e+001 -7.771757e+001 -1.105386e+001 8.432590e+001 -1.105319e+001 8.459920e+001 -1.403260e+001 1.689848e+002
5764331250 -1.394956e+001 -7.911253e+001 -1.093329e+001 8.041184e+001 -1.093527e+001 8.068187e+001 -1.409550e+001 1.693654e+002
5783075000 -1.409718e+001 -8.042507e+001 -1.080790e+001 7.651610e+001 -1.080803e+001 7.676989e+001 -1.415157e+001 1.697426e+002
5801818750 -1.425723e+001 -8.169020e+001 -1.069586e+001 7.270156e+001 -1.068881e+001 7.292462e+001 -1.421398e+001 1.701147e+002
5820562500 -1.442860e+001 -8.289918e+001 -1.057813e+001 6.885802e+001 -1.057184e+001 6.911794e+001 -1.426269e+001 1.704752e+002
5839306250 -1.460047e+001 -8.402487e+001 -1.046171e+001 6.509538e+001 -1.045866e+001 6.534198e+001 -1.430171e+001 1.708729e+002
5858050000 -1.478201e+001 -8.506328e+001 -1.035778e+001 6.134608e+001 -1.035260e+001 6.157793e+001 -1.433486e+001 1.712674e+002
5876793750 -1.497095e+001 -8.596931e+001 -1.024994e+001 5.759925e+001 -1.024567e+001 5.787941e+001 -1.436324e+001 1.716510e+002
5895537500 -1.516308e+001 -8.682901e+001 -1.015125e+001 5.394323e+001 -1.015593e+001 5.420958e+001 -1.438801e+001 1.720514e+002
5914281250 -1.535843e+001 -8.754507e+001 -1.005870e+001 5.024276e+001 -1.005930e+001 5.048394e+001 -1.441343e+001 1.724108e+002
5933025000 -1.556198e+001 -8.818802e+001 -9.958712e+000 4.660620e+001 -9.961423e+000 4.688104e+001 -1.442744e+001 1.727347e+002
5951768750 -1.575700e+001 -8.877803e+001 -9.869864e+000 4.302988e+001 -9.883060e+000 4.328558e+001 -1.443346e+001 1.730331e+002
5970512500 -1.595267e+001 -8.919807e+001 -9.784376e+000 3.941948e+001 -9.790625e+000 3.965264e+001 -1.443446e+001 1.733490e+002
5989256250 -1.614990e+001 -8.953713e+001 -9.695743e+000 3.591089e+001 -9.703610e+000 3.615202e+001 -1.442959e+001 1.735940e+002
6008000000 -1.633008e+001 -8.979951e+001 -9.618648e+000 3.242479e+001 -9.634039e+000 3.264854e+001 -1.442673e+001 1.738543e+002
6026743750 -1.651117e+001 -8.989766e+001 -9.540308e+000 2.888866e+001 -9.550641e+000 2.911131e+001 -1.442353e+001 1.740503e+002
6045487500 -1.669080e+001 -8.995065e+001 -9.463098e+000 2.545179e+001 -9.472161e+000 2.569770e+001 -1.441496e+001 1.741855e+002
6064231250 -1.684935e+001 -8.992934e+001 -9.394981e+000 2.201103e+001 -9.410235e+000 2.225264e+001 -1.440666e+001 1.743182e+002
6082975000 -1.700350e+001 -8.984925e+001 -9.322780e+000 1.857033e+001 -9.333335e+000 1.880942e+001 -1.439327e+001 1.743876e+002
6101718750 -1.713473e+001 -8.972815e+001 -9.253897e+000 1.521588e+001 -9.266067e+000 1.548605e+001 -1.438005e+001 1.744287e+002
6120462500 -1.725498e+001 -8.952369e+001 -9.191049e+000 1.183490e+001 -9.208272e+000 1.207118e+001 -1.437331e+001 1.744912e+002
6139206250 -1.736908e+001 -8.925813e+001 -9.121421e+000 8.501410e+000 -9.134766e+000 8.716686e+000 -1.436910e+001 1.744521e+002
6157950000 -1.747165e+001 -8.898499e+001 -9.061617e+000 5.238118e+000 -9.076707e+000 5.463126e+000 -1.436684e+001 1.744011e+002
6176693750 -1.755336e+001 -8.869864e+001 -9.006140e+000 1.914183e+000 -9.019762e+000 2.113544e+000 -1.436975e+001 1.743420e+002
6195437500 -1.762256e+001 -8.840797e+001 -8.942167e+000 -1.372306e+000 -8.955166e+000 -1.131512e+000 -1.437359e+001 1.742319e+002
6214181250 -1.766928e+001 -8.814571e+001 -8.883649e+000 -4.561638e+000 -8.901667e+000 -4.334159e+000 -1.437860e+001 1.741342e+002
6232925000 -1.770190e+001 -8.782443e+001 -8.828458e+000 -7.783572e+000 -8.848731e+000 -7.555749e+000 -1.438785e+001 1.740096e+002
6251668750 -1.772232e+001 -8.752365e+001 -8.775556e+000 -1.098781e+001 -8.795079e+000 -1.075713e+001 -1.440519e+001 1.738733e+002
6270412500 -1.773714e+001 -8.728094e+001 -8.730045e+000 -1.418762e+001 -8.748588e+000 -1.391016e+001 -1.442921e+001 1.737067e+002
6289156250 -1.773509e+001 -8.709360e+001 -8.678027e+000 -1.734766e+001 -8.700714e+000 -1.708222e+001 -1.445309e+001 1.735456e+002
6307900000 -1.771783e+001 -8.701974e+001 -8.632468e+000 -2.045136e+001 -8.651456e+000 -2.023715e+001 -1.447673e+001 1.734045e+002
6326643750 -1.768859e+001 -8.699395e+001 -8.585825e+000 -2.359409e+001 -8.600144e+000 -2.335857e+001 -1.450863e+001 1.732868e+002
6345387500 -1.765287e+001 -8.698837e+001 -8.536662e+000 -2.667689e+001 -8.554517e+000 -2.643471e+001 -1.454670e+001 1.731724e+002
6364131250 -1.759764e+001 -8.704594e+001 -8.495053e+000 -2.974088e+001 -8.512340e+000 -2.953954e+001 -1.458794e+001 1.730803e+002
6382875000 -1.755093e+001 -8.713879e+001 -8.452806e+000 -3.282631e+001 -8.461316e+000 -3.259663e+001 -1.463657e+001 1.729510e+002
6401618750 -1.749469e+001 -8.736793e+001 -8.406559e+000 -3.585294e+001 -8.421396e+000 -3.561874e+001 -1.467956e+001 1.728447e+002
6420362500 -1.743448e+001 -8.771008e+001 -8.369714e+000 -3.888597e+001 -8.382495e+000 -3.866488e+001 -1.472660e+001 1.728059e+002
6439106250 -1.737692e+001 -8.812834e+001 -8.329326e+000 -4.193185e+001 -8.338728e+000 -4.167379e+001 -1.478027e+001 1.727635e+002
6457850000 -1.731123e+001 -8.862018e+001 -8.284016e+000 -4.489577e+001 -8.302959e+000 -4.464140e+001 -1.483633e+001 1.727719e+002
6476593750 -1.724331e+001 -8.914207e+001 -8.248149e+000 -4.788883e+001 -8.265702e+000 -4.763829e+001 -1.488948e+001 1.728023e+002
6495337500 -1.719371e+001 -8.977408e+001 -8.210208e+000 -5.086859e+001 -8.222508e+000 -5.060373e+001 -1.494643e+001 1.727920e+002
6514081250 -1.714140e+001 -9.047971e+001 -8.173060e+000 -5.379758e+001 -8.189582e+000 -5.353207e+001 -1.499809e+001 1.728503e+002
6532825000 -1.710050e+001 -9.124896e+001 -8.140480e+000 -5.674409e+001 -8.155202e+000 -5.649361e+001 -1.504967e+001 1.729531e+002
6551568750 -1.705991e+001 -9.212639e+001 -8.103707e+000 -5.966438e+001 -8.116667e+000 -5.938933e+001 -1.510493e+001 1.730499e+002
6570312500 -1.702122e+001 -9.302148e+001 -8.073295e+000 -6.256252e+001 -8.086479e+000 -6.227863e+001 -1.515524e+001 1.731974e+002
6589056250 -1.699697e+001 -9.394712e+001 -8.040943e+000 -6.548586e+001 -8.053339e+000 -6.521449e+001 -1.520602e+001 1.733314e+002
6607800000 -1.698050e+001 -9.494939e+001 -8.006630e+000 -6.834911e+001 -8.019043e+000 -6.807769e+001 -1.525255e+001 1.734792e+002
6626543750 -1.697033e+001 -9.598512e+001 -7.977429e+000 -7.119611e+001 -7.991248e+000 -7.095766e+001 -1.529019e+001 1.736340e+002
6645287500 -1.698487e+001 -9.705901e+001 -7.952670e+000 -7.410395e+001 -7.963146e+000 -7.384298e+001 -1.532693e+001 1.738041e+002
6664031250 -1.699552e+001 -9.821891e+001 -7.920040e+000 -7.696236e+001 -7.932676e+000 -7.668207e+001 -1.536441e+001 1.740362e+002
6682775000 -1.701497e+001 -9.932990e+001 -7.895330e+000 -7.977611e+001 -7.907798e+000 -7.951341e+001 -1.539712e+001 1.742386e+002
6701518750 -1.705022e+001 -1.004296e+002 -7.865891e+000 -8.261047e+001 -7.877250e+000 -8.238232e+001 -1.542487e+001 1.744467e+002
6720262500 -1.710348e+001 -1.016277e+002 -7.839441e+000 -8.540348e+001 -7.847328e+000 -8.516820e+001 -1.544897e+001 1.746756e+002
6739006250 -1.716980e+001 -1.027579e+002 -7.814552e+000 -8.822147e+001 -7.829320e+000 -8.797306e+001 -1.546916e+001 1.749092e+002
6757750000 -1.724675e+001 -1.039042e+002 -7.785361e+000 -9.101886e+001 -7.800346e+000 -9.080175e+001 -1.548504e+001 1.751061e+002
6776493750 -1.732241e+001 -1.051160e+002 -7.762198e+000 -9.377711e+001 -7.773867e+000 -9.354044e+001 -1.549239e+001 1.753218e+002
6795237500 -1.741329e+001 -1.062091e+002 -7.740308e+000 -9.657490e+001 -7.755795e+000 -9.631926e+001 -1.549895e+001 1.755211e+002
6813981250 -1.752247e+001 -1.073142e+002 -7.715140e+000 -9.933221e+001 -7.729298e+000 -9.911187e+001 -1.549992e+001 1.757382e+002
6832725000 -1.764738e+001 -1.084328e+002 -7.696988e+000 -1.020869e+002 -7.710105e+000 -1.018264e+002 -1.549664e+001 1.758949e+002
6851468750 -1.778072e+001 -1.094802e+002 -7.673457e+000 -1.048459e+002 -7.693443e+000 -1.046000e+002 -1.548795e+001 1.760465e+002
6870212500 -1.792470e+001 -1.105166e+002 -7.652193e+000 -1.075526e+002 -7.666220e+000 -1.073475e+002 -1.547536e+001 1.761950e+002
6888956250 -1.807156e+001 -1.115012e+002 -7.640152e+000 -1.102892e+002 -7.648201e+000 -1.100412e+002 -1.545733e+001 1.762930e+002
6907700000 -1.823545e+001 -1.124065e+002 -7.618911e+000 -1.130245e+002 -7.632664e+000 -1.127964e+002 -1.544363e+001 1.763979e+002
6926443750 -1.841470e+001 -1.132495e+002 -7.599563e+000 -1.156892e+002 -7.609654e+000 -1.155024e+002 -1.541970e+001 1.764793e+002
6945187500 -1.861692e+001 -1.140204e+002 -7.585032e+000 -1.184055e+002 -7.595006e+000 -1.181812e+002 -1.539807e+001 1.764799e+002
6963931250 -1.882335e+001 -1.147458e+002 -7.562793e+000 -1.210970e+002 -7.577692e+000 -1.209042e+002 -1.537425e+001 1.765086e+002
6982675000 -1.903421e+001 -1.154152e+002 -7.548942e+000 -1.237577e+002 -7.557929e+000 -1.235742e+002 -1.534633e+001 1.764773e+002
7001418750 -1.924313e+001 -1.159848e+002 -7.533577e+000 -1.264662e+002 -7.549202e+000 -1.262464e+002 -1.532291e+001 1.764266e+002
7020162500 -1.945845e+001 -1.163364e+002 -7.511782e+000 -1.291149e+002 -7.533474e+000 -1.289286e+002 -1.530490e+001 1.763792e+002
7038906250 -1.969301e+001 -1.165805e+002 -7.502106e+000 -1.317600e+002 -7.517388e+000 -1.315654e+002 -1.528096e+001 1.762602e+002
7057650000 -1.993656e+001 -1.167386e+002 -7.488329e+000 -1.344480e+002 -7.506377e+000 -1.341988e+002 -1.525897e+001 1.761241e+002
7076393750 -2.017613e+001 -1.167782e+002 -7.471106e+000 -1.370587e+002 -7.490996e+000 -1.368686e+002 -1.524147e+001 1.759824e+002
7095137500 -2.041623e+001 -1.166925e+002 -7.464255e+000 -1.396927e+002 -7.476370e+000 -1.394895e+002 -1.521965e+001 1.757631e+002
7113881250 -2.063962e+001 -1.165041e+002 -7.451191e+000 -1.423529e+002 -7.467733e+000 -1.421289e+002 -1.520594e+001 1.755682e+002
7132625000 -2.086415e+001 -1.160808e+002 -7.436366e+000 -1.449356e+002 -7.454531e+000 -1.447638e+002 -1.519667e+001 1.753661e+002
7151368750 -2.109179e+001 -1.154289e+002 -7.431582e+000 -1.475623e+002 -7.445086e+000 -1.473565e+002 -1.518689e+001 1.750913e+002
7170112500 -2.131512e+001 -1.147059e+002 -7.417538e+000 -1.501972e+002 -7.438965e+000 -1.499691e+002 -1.518233e+001 1.748018e+002
7188856250 -2.152984e+001 -1.138764e+002 -7.409228e+000 -1.527593e+002 -7.427023e+000 -1.525730e+002 -1.518143e+001 1.745123e+002
7207600000 -2.173342e+001 -1.129346e+002 -7.406739e+000 -1.553924e+002 -7.421740e+000 -1.551609e+002 -1.518193e+001 1.741988e+002
7226343750 -2.189948e+001 -1.119179e+002 -7.392902e+000 -1.579934e+002 -7.414858e+000 -1.577696e+002 -1.519068e+001 1.738870e+002
7245087500 -2.204526e+001 -1.106804e+002 -7.388505e+000 -1.605372e+002 -7.405105e+000 -1.603561e+002 -1.520120e+001 1.735467e+002
7263831250 -2.217763e+001 -1.092858e+002 -7.385306e+000 -1.631537e+002 -7.398877e+000 -1.629408e+002 -1.521819e+001 1.731796e+002
7282575000 -2.230144e+001 -1.078346e+002 -7.371689e+000 -1.657351e+002 -7.391198e+000 -1.655043e+002 -1.524328e+001 1.728492e+002
7301318750 -2.240452e+001 -1.063312e+002 -7.370111e+000 -1.682799e+002 -7.383515e+000 -1.680584e+002 -1.526784e+001 1.724815e+002
7320062500 -2.249140e+001 -1.048836e+002 -7.364745e+000 -1.708824e+002 -7.378585e+000 -1.706330e+002 -1.530301e+001 1.721250e+002
7338806250 -2.253300e+001 -1.033842e+002 -7.354475e+000 -1.734148e+002 -7.372305e+000 -1.731881e+002 -1.534496e+001 1.717814e+002
7357550000 -2.254071e+001 -1.017124e+002 -7.356503e+000 -1.759723e+002 -7.367581e+000 -1.757375e+002 -1.539306e+001 1.714347e+002
7376293750 -2.252912e+001 -1.000896e+002 -7.351901e+000 -1.785696e+002 -7.362235e+000 -1.782895e+002 -1.544815e+001 1.711151e+002
7395037500 -2.250616e+001 -9.842358e+001 -7.346993e+000 1.788906e+002 -7.355670e+000 1.792181e+002 -1.550342e+001 1.707789e+002
7413781250 -2.246776e+001 -9.677002e+001 -7.344781e+000 1.763566e+002 -7.356638e+000 1.766718e+002 -1.556830e+001 1.704839e+002
7432525000 -2.240472e+001 -9.528175e+001 -7.341307e+000 1.738265e+002 -7.346745e+000 1.741164e+002 -1.563667e+001 1.702229e+002
7451268750 -2.230528e+001 -9.392398e+001 -7.339104e+000 1.712994e+002 -7.342972e+000 1.716134e+002 -1.570614e+001 1.699686e+002
7470012500 -2.217319e+001 -9.250208e+001 -7.334226e+000 1.687342e+002 -7.342226e+000 1.690744e+002 -1.578824e+001 1.697546e+002
7488756250 -2.202659e+001 -9.112550e+001 -7.329977e+000 1.662455e+002 -7.338127e+000 1.665343e+002 -1.587519e+001 1.695933e+002
7507500000 -2.187858e+001 -8.988406e+001 -7.335426e+000 1.637104e+002 -7.338934e+000 1.640435e+002 -1.596733e+001 1.694441e+002
7526243750 -2.171680e+001 -8.876278e+001 -7.327286e+000 1.611659e+002 -7.341202e+000 1.615038e+002 -1.606694e+001 1.693866e+002
7544987500 -2.154868e+001 -8.783331e+001 -7.325759e+000 1.586761e+002 -7.337537e+000 1.589906e+002 -1.616436e+001 1.693354e+002
7563731250 -2.135193e+001 -8.709525e+001 -7.333265e+000 1.561351e+002 -7.342133e+000 1.564895e+002 -1.626871e+001 1.693138e+002
7582475000 -2.113008e+001 -8.644520e+001 -7.327415e+000 1.536005e+002 -7.342789e+000 1.539464e+002 -1.637623e+001 1.694074e+002
7601218750 -2.090428e+001 -8.583685e+001 -7.330168e+000 1.511196e+002 -7.338858e+000 1.514257e+002 -1.648290e+001 1.695195e+002
7619962500 -2.068049e+001 -8.533570e+001 -7.338212e+000 1.485750e+002 -7.344552e+000 1.489382e+002 -1.659299e+001 1.697258e+002
7638706250 -2.046042e+001 -8.495425e+001 -7.332153e+000 1.460727e+002 -7.345705e+000 1.463876e+002 -1.671046e+001 1.699945e+002
7657450000 -2.025183e+001 -8.477836e+001 -7.336810e+000 1.436056e+002 -7.342680e+000 1.439014e+002 -1.682538e+001 1.703133e+002
7676193750 -2.002876e+001 -8.479058e+001 -7.339472e+000 1.410569e+002 -7.349296e+000 1.414282e+002 -1.694118e+001 1.707302e+002
7694937500 -1.980190e+001 -8.488747e+001 -7.333769e+000 1.385656e+002 -7.351103e+000 1.388970e+002 -1.705685e+001 1.712303e+002
7713681250 -1.957587e+001 -8.504108e+001 -7.344487e+000 1.360852e+002 -7.349703e+000 1.364068e+002 -1.716179e+001 1.717479e+002
7732425000 -1.936426e+001 -8.524892e+001 -7.346590e+000 1.335323e+002 -7.359751e+000 1.339019e+002 -1.726674e+001 1.723950e+002
7751168750 -1.915810e+001 -8.555126e+001 -7.344938e+000 1.310501e+002 -7.363626e+000 1.313568e+002 -1.736583e+001 1.731262e+002
7769912500 -1.896795e+001 -8.598029e+001 -7.355794e+000 1.285600e+002 -7.364987e+000 1.288761e+002 -1.745820e+001 1.738846e+002
7788656250 -1.877806e+001 -8.655281e+001 -7.357081e+000 1.260243e+002 -7.376169e+000 1.263712e+002 -1.754311e+001 1.747633e+002
7807400000 -1.858639e+001 -8.711526e+001 -7.358416e+000 1.235675e+002 -7.382889e+000 1.238214e+002 -1.761991e+001 1.756555e+002
7826143750 -1.840188e+001 -8.771327e+001 -7.371772e+000 1.210933e+002 -7.388209e+000 1.213029e+002 -1.769077e+001 1.766528e+002
7844887500 -1.823282e+001 -8.834275e+001 -7.379714e+000 1.185450e+002 -7.398637e+000 1.188064e+002 -1.774768e+001 1.777561e+002
7863631250 -1.807811e+001 -8.899837e+001 -7.383467e+000 1.160437e+002 -7.408194e+000 1.162647e+002 -1.780045e+001 1.788647e+002
7882375000 -1.793118e+001 -8.967052e+001 -7.398515e+000 1.135400e+002 -7.415471e+000 1.137641e+002 -1.783926e+001 -1.799692e+002
7901118750 -1.779388e+001 -9.047845e+001 -7.409328e+000 1.110304e+002 -7.430696e+000 1.112465e+002 -1.786006e+001 -1.787635e+002
7919862500 -1.765559e+001 -9.129265e+001 -7.418775e+000 1.085055e+002 -7.437122e+000 1.086961e+002 -1.786701e+001 -1.775121e+002
7938606250 -1.751014e+001 -9.197632e+001 -7.426881e+000 1.060015e+002 -7.444851e+000 1.062023e+002 -1.785761e+001 -1.762442e+002
7957350000 -1.739161e+001 -9.268788e+001 -7.440404e+000 1.034745e+002 -7.462572e+000 1.036909e+002 -1.783023e+001 -1.749327e+002
7976093750 -1.727615e+001 -9.345853e+001 -7.450692e+000 1.009566e+002 -7.470117e+000 1.011461e+002 -1.779530e+001 -1.736182e+002
7994837500 -1.716220e+001 -9.419069e+001 -7.461318e+000 9.844279e+001 -7.478404e+000 9.866759e+001 -1.774189e+001 -1.722822e+002
8013581250 -1.706176e+001 -9.498214e+001 -7.476330e+000 9.592278e+001 -7.498148e+000 9.613660e+001 -1.767303e+001 -1.710010e+002
8032325000 -1.695879e+001 -9.579755e+001 -7.488027e+000 9.339759e+001 -7.508121e+000 9.360528e+001 -1.759728e+001 -1.696894e+002
8051068750 -1.685617e+001 -9.653136e+001 -7.497442e+000 9.087312e+001 -7.521767e+000 9.111477e+001 -1.749741e+001 -1.684244e+002
8069812500 -1.676929e+001 -9.731572e+001 -7.515772e+000 8.834122e+001 -7.543632e+000 8.858535e+001 -1.738177e+001 -1.671569e+002
8088556250 -1.668061e+001 -9.807119e+001 -7.532976e+000 8.579651e+001 -7.557256e+000 8.603536e+001 -1.725786e+001 -1.659039e+002
8107300000 -1.660168e+001 -9.881966e+001 -7.547548e+000 8.327348e+001 -7.574982e+000 8.352464e+001 -1.711708e+001 -1.647956e+002
8126043750 -1.653142e+001 -9.960288e+001 -7.568918e+000 8.075480e+001 -7.597428e+000 8.095972e+001 -1.696443e+001 -1.636922e+002
8144787500 -1.644723e+001 -1.003511e+002 -7.586353e+000 7.819972e+001 -7.612160e+000 7.840497e+001 -1.680717e+001 -1.626380e+002
8163531250 -1.636699e+001 -1.010377e+002 -7.603593e+000 7.567664e+001 -7.632710e+000 7.589792e+001 -1.663126e+001 -1.616659e+002
8182275000 -1.629922e+001 -1.017404e+002 -7.628517e+000 7.313322e+001 -7.657493e+000 7.333854e+001 -1.644944e+001 -1.607071e+002
8201018750 -1.622706e+001 -1.024498e+002 -7.646123e+000 7.055746e+001 -7.674805e+000 7.078635e+001 -1.626342e+001 -1.598524e+002
8219762500 -1.616213e+001 -1.031640e+002 -7.666553e+000 6.803497e+001 -7.701355e+000 6.827152e+001 -1.606701e+001 -1.591198e+002
8238506250 -1.609660e+001 -1.038735e+002 -7.693951e+000 6.547640e+001 -7.726289e+000 6.570243e+001 -1.586390e+001 -1.583776e+002
8257250000 -1.601791e+001 -1.045554e+002 -7.712960e+000 6.287996e+001 -7.749808e+000 6.315420e+001 -1.565599e+001 -1.577686e+002
8275993750 -1.594536e+001 -1.051857e+002 -7.737672e+000 6.035659e+001 -7.777788e+000 6.060284e+001 -1.543464e+001 -1.572680e+002
8294737500 -1.587538e+001 -1.058343e+002 -7.768033e+000 5.777388e+001 -7.804243e+000 5.802798e+001 -1.521395e+001 -1.567676e+002
8313481250 -1.580429e+001 -1.065091e+002 -7.789156e+000 5.519836e+001 -7.830431e+000 5.547237e+001 -1.499406e+001 -1.564026e+002
8332225000 -1.573263e+001 -1.071548e+002 -7.818273e+000 5.266729e+001 -7.862164e+000 5.292746e+001 -1.477047e+001 -1.561046e+002
8350968750 -1.565544e+001 -1.078409e+002 -7.850019e+000 5.006969e+001 -7.892283e+000 5.034758e+001 -1.455239e+001 -1.558771e+002
8369712500 -1.557152e+001 -1.085210e+002 -7.875389e+000 4.749905e+001 -7.922767e+000 4.779790e+001 -1.432869e+001 -1.557020e+002
8388456250 -1.548966e+001 -1.091653e+002 -7.910914e+000 4.494707e+001 -7.957395e+000 4.522785e+001 -1.410557e+001 -1.556379e+002
8407200000 -1.540909e+001 -1.097994e+002 -7.945001e+000 4.232424e+001 -7.990758e+000 4.263548e+001 -1.388566e+001 -1.555560e+002
8425943750 -1.532798e+001 -1.104717e+002 -7.971469e+000 3.974996e+001 -8.026455e+000 4.006033e+001 -1.366798e+001 -1.556171e+002
8444687500 -1.524751e+001 -1.111440e+002 -8.013106e+000 3.717214e+001 -8.065085e+000 3.747974e+001 -1.345227e+001 -1.557346e+002
8463431250 -1.515608e+001 -1.118808e+002 -8.050244e+000 3.453941e+001 -8.100035e+000 3.488642e+001 -1.323405e+001 -1.558880e+002
8482175000 -1.505877e+001 -1.125821e+002 -8.085105e+000 3.196736e+001 -8.138905e+000 3.230474e+001 -1.302185e+001 -1.561316e+002
8500918750 -1.496385e+001 -1.132435e+002 -8.129542e+000 2.938847e+001 -8.179098e+000 2.971365e+001 -1.280770e+001 -1.564078e+002
8519662500 -1.487000e+001 -1.139841e+002 -8.167461e+000 2.674960e+001 -8.218187e+000 2.712357e+001 -1.260192e+001 -1.567080e+002
8538406250 -1.477263e+001 -1.146990e+002 -8.206264e+000 2.418059e+001 -8.264244e+000 2.453036e+001 -1.240374e+001 -1.570460e+002
8557150000 -1.467688e+001 -1.154660e+002 -8.257773e+000 2.156395e+001 -8.307499e+000 2.193387e+001 -1.220589e+001 -1.574375e+002
8575893750 -1.457235e+001 -1.163214e+002 -8.298336e+000 1.893534e+001 -8.354540e+000 1.934413e+001 -1.201184e+001 -1.578629e+002
8594637500 -1.446525e+001 -1.171201e+002 -8.344947e+000 1.636955e+001 -8.404628e+000 1.672061e+001 -1.182132e+001 -1.583743e+002
8613381250 -1.435967e+001 -1.179162e+002 -8.398296e+000 1.373588e+001 -8.448848e+000 1.412008e+001 -1.163132e+001 -1.589000e+002
8632125000 -1.425279e+001 -1.187831e+002 -8.443705e+000 1.110311e+001 -8.501290e+000 1.153326e+001 -1.144823e+001 -1.594117e+002
8650868750 -1.414640e+001 -1.196434e+002 -8.495708e+000 8.505721e+000 -8.551076e+000 8.894175e+000 -1.127111e+001 -1.599855e+002
8669612500 -1.403872e+001 -1.205845e+002 -8.551588e+000 5.859740e+000 -8.601175e+000 6.308179e+000 -1.109697e+001 -1.605950e+002
8688356250 -1.392573e+001 -1.215811e+002 -8.599100e+000 3.245602e+000 -8.657326e+000 3.711444e+000 -1.092762e+001 -1.612386e+002
8707100000 -1.381131e+001 -1.225405e+002 -8.657095e+000 6.575704e-001 -8.712227e+000 1.088879e+000 -1.076283e+001 -1.619144e+002
8725843750 -1.370175e+001 -1.235417e+002 -8.715325e+000 -2.006977e+000 -8.768400e+000 -1.498273e+000 -1.060058e+001 -1.626096e+002
8744587500 -1.359180e+001 -1.245860e+002 -8.769292e+000 -4.604915e+000 -8.830022e+000 -4.109457e+000 -1.044802e+001 -1.632999e+002
8763331250 -1.348638e+001 -1.256511e+002 -8.833719e+000 -7.226002e+000 -8.886636e+000 -6.751561e+000 -1.029790e+001 -1.640581e+002
8782075000 -1.337817e+001 -1.267910e+002 -8.893999e+000 -9.893064e+000 -8.947401e+000 -9.342360e+000 -1.015121e+001 -1.648309e+002
8800818750 -1.326740e+001 -1.279697e+002 -8.953829e+000 -1.250756e+001 -9.013424e+000 -1.198578e+001 -1.000949e+001 -1.656547e+002
8819562500 -1.315862e+001 -1.291190e+002 -9.024071e+000 -1.512670e+001 -9.071668e+000 -1.462624e+001 -9.867808e+000 -1.664890e+002
8838306250 -1.305273e+001 -1.303170e+002 -9.085265e+000 -1.778825e+001 -9.135980e+000 -1.721052e+001 -9.731490e+000 -1.673405e+002
8857050000 -1.295072e+001 -1.315330e+002 -9.152726e+000 -2.038832e+001 -9.206489e+000 -1.985492e+001 -9.605083e+000 -1.681960e+002
8875793750 -1.285296e+001 -1.327718e+002 -9.223695e+000 -2.303399e+001 -9.268021e+000 -2.248631e+001 -9.481421e+000 -1.690679e+002
8894537500 -1.275330e+001 -1.340896e+002 -9.287647e+000 -2.568063e+001 -9.340132e+000 -2.507577e+001 -9.363462e+000 -1.699712e+002
8913281250 -1.265448e+001 -1.354206e+002 -9.360109e+000 -2.828619e+001 -9.413200e+000 -2.773967e+001 -9.250348e+000 -1.709023e+002
8932025000 -1.255850e+001 -1.367550e+002 -9.434280e+000 -3.095775e+001 -9.478899e+000 -3.036363e+001 -9.140203e+000 -1.718462e+002
8950768750 -1.246568e+001 -1.381273e+002 -9.499100e+000 -3.361163e+001 -9.555486e+000 -3.297419e+001 -9.033956e+000 -1.728129e+002
8969512500 -1.237863e+001 -1.395094e+002 -9.578132e+000 -3.624484e+001 -9.628615e+000 -3.566574e+001 -8.933584e+000 -1.737837e+002
8988256250 -1.229483e+001 -1.409355e+002 -9.652810e+000 -3.893021e+001 -9.698616e+000 -3.828017e+001 -8.838445e+000 -1.747800e+002
9007000000 -1.221292e+001 -1.423928e+002 -9.725583e+000 -4.158004e+001 -9.778327e+000 -4.090903e+001 -8.748655e+000 -1.757924e+002
9025743750 -1.213235e+001 -1.438747e+002 -9.807679e+000 -4.423754e+001 -9.850636e+000 -4.358145e+001 -8.664545e+000 -1.767976e+002
9044487500 -1.205342e+001 -1.453816e+002 -9.882750e+000 -4.691536e+001 -9.927238e+000 -4.619764e+001 -8.582204e+000 -1.778277e+002
9063231250 -1.197890e+001 -1.468767e+002 -9.961337e+000 -4.955802e+001 -1.001118e+001 -4.886445e+001 -8.505754e+000 -1.788625e+002
9081975000 -1.191345e+001 -1.483790e+002 -1.004779e+001 -5.222645e+001 -1.008546e+001 -5.156156e+001 -8.436963e+000 -1.799032e+002
9100718750 -1.184960e+001 -1.499409e+002 -1.012792e+001 -5.492426e+001 -1.016498e+001 -5.420628e+001 -8.370245e+000 1.790286e+002
9119462500 -1.178653e+001 -1.515151e+002 -1.021184e+001 -5.758987e+001 -1.025221e+001 -5.691051e+001 -8.310545e+000 1.779763e+002
9138206250 -1.172525e+001 -1.531135e+002 -1.029889e+001 -6.030320e+001 -1.032752e+001 -5.960839e+001 -8.256625e+000 1.769049e+002
9156950000 -1.166766e+001 -1.546978e+002 -1.038049e+001 -6.299150e+001 -1.041084e+001 -6.224861e+001 -8.203985e+000 1.758286e+002
9175693750 -1.161459e+001 -1.562910e+002 -1.046804e+001 -6.569317e+001 -1.049897e+001 -6.498399e+001 -8.156141e+000 1.747675e+002
9194437500 -1.156352e+001 -1.579146e+002 -1.055543e+001 -6.843443e+001 -1.057574e+001 -6.769711e+001 -8.115754e+000 1.737209e+002
9213181250 -1.151969e+001 -1.595374e+002 -1.063955e+001 -7.113153e+001 -1.066718e+001 -7.037682e+001 -8.078399e+000 1.726610e+002
9231925000 -1.147663e+001 -1.611912e+002 -1.073090e+001 -7.386766e+001 -1.075751e+001 -7.312542e+001 -8.051908e+000 1.716193e+002
9250668750 -1.143037e+001 -1.628659e+002 -1.081983e+001 -7.661986e+001 -1.084060e+001 -7.584414e+001 -8.031919e+000 1.705682e+002
9269412500 -1.138861e+001 -1.645064e+002 -1.090816e+001 -7.935466e+001 -1.093583e+001 -7.858545e+001 -8.015077e+000 1.695218e+002
9288156250 -1.135204e+001 -1.661636e+002 -1.100329e+001 -8.214095e+001 -1.102541e+001 -8.139976e+001 -8.002383e+000 1.684962e+002
9306900000 -1.131847e+001 -1.678598e+002 -1.109418e+001 -8.493092e+001 -1.111297e+001 -8.413946e+001 -7.997644e+000 1.674818e+002
9325643750 -1.128940e+001 -1.695341e+002 -1.119021e+001 -8.769303e+001 -1.121053e+001 -8.692421e+001 -7.995951e+000 1.664651e+002
9344387500 -1.125972e+001 -1.712428e+002 -1.128809e+001 -9.051961e+001 -1.130239e+001 -8.976572e+001 -8.001070e+000 1.654919e+002
9363131250 -1.122783e+001 -1.729485e+002 -1.138209e+001 -9.335002e+001 -1.139512e+001 -9.255691e+001 -8.013510e+000 1.645212e+002
9381875000 -1.120079e+001 -1.746164e+002 -1.148712e+001 -9.615895e+001 -1.149645e+001 -9.540146e+001 -8.027914e+000 1.635834e+002
9400618750 -1.117812e+001 -1.763171e+002 -1.158803e+001 -9.904875e+001 -1.159345e+001 -9.827340e+001 -8.051215e+000 1.626820e+002
9419362500 -1.115568e+001 -1.780267e+002 -1.168692e+001 -1.019067e+002 -1.169644e+001 -1.011201e+002 -8.078507e+000 1.617816e+002
9438106250 -1.113869e+001 -1.797353e+002 -1.179663e+001 -1.047918e+002 -1.180565e+001 -1.040279e+002 -8.107680e+000 1.609235e+002
9456850000 -1.111621e+001 1.785302e+002 -1.190220e+001 -1.077259e+002 -1.190746e+001 -1.069525e+002 -8.146242e+000 1.601070e+002
9475593750 -1.109793e+001 1.768413e+002 -1.201311e+001 -1.106294e+002 -1.201635e+001 -1.098468e+002 -8.188129e+000 1.593091e+002
9494337500 -1.108463e+001 1.751482e+002 -1.213306e+001 -1.135804e+002 -1.212845e+001 -1.128050e+002 -8.229351e+000 1.585887e+002
9513081250 -1.106657e+001 1.734368e+002 -1.224376e+001 -1.165722e+002 -1.223961e+001 -1.157596e+002 -8.280314e+000 1.579155e+002
9531825000 -1.105295e+001 1.717306e+002 -1.236240e+001 -1.195143e+002 -1.235957e+001 -1.187305e+002 -8.334446e+000 1.572852e+002
9550568750 -1.104235e+001 1.699920e+002 -1.248969e+001 -1.225456e+002 -1.248096e+001 -1.217844e+002 -8.386772e+000 1.567150e+002
9569312500 -1.102243e+001 1.682662e+002 -1.260857e+001 -1.255869e+002 -1.260685e+001 -1.248175e+002 -8.445642e+000 1.562085e+002
9588056250 -1.100748e+001 1.665850e+002 -1.274153e+001 -1.286105e+002 -1.274204e+001 -1.278808e+002 -8.501250e+000 1.557361e+002
9606800000 -1.099596e+001 1.648833e+002 -1.288238e+001 -1.317224e+002 -1.287566e+001 -1.309890e+002 -8.556626e+000 1.553604e+002
9625543750 -1.098146e+001 1.631850e+002 -1.301266e+001 -1.348109e+002 -1.301467e+001 -1.340774e+002 -8.616611e+000 1.550301e+002
9644287500 -1.096975e+001 1.614902e+002 -1.316433e+001 -1.379258e+002 -1.315879e+001 -1.372329e+002 -8.671459e+000 1.547532e+002
9663031250 -1.095666e+001 1.597560e+002 -1.331809e+001 -1.411017e+002 -1.330641e+001 -1.404089e+002 -8.718399e+000 1.545574e+002
9681775000 -1.093515e+001 1.580241e+002 -1.346498e+001 -1.442557e+002 -1.346265e+001 -1.435671e+002 -8.766119e+000 1.544259e+002
9700518750 -1.091651e+001 1.563341e+002 -1.363579e+001 -1.474264e+002 -1.362598e+001 -1.467635e+002 -8.802573e+000 1.543521e+002
9719262500 -1.089935e+001 1.546064e+002 -1.380223e+001 -1.506669e+002 -1.379303e+001 -1.499683e+002 -8.835323e+000 1.543795e+002
9738006250 -1.087475e+001 1.529062e+002 -1.396881e+001 -1.538382e+002 -1.397069e+001 -1.531914e+002 -8.864205e+000 1.544191e+002
9756750000 -1.086130e+001 1.511763e+002 -1.416016e+001 -1.571150e+002 -1.415482e+001 -1.564521e+002 -8.883003e+000 1.545169e+002
9775493750 -1.084179e+001 1.494194e+002 -1.434366e+001 -1.604136e+002 -1.434293e+001 -1.597117e+002 -8.890261e+000 1.546585e+002
9794237500 -1.081155e+001 1.476881e+002 -1.453875e+001 -1.636672e+002 -1.454257e+001 -1.630158e+002 -8.889742e+000 1.548327e+002
9812981250 -1.078831e+001 1.459778e+002 -1.474458e+001 -1.669660e+002 -1.474570e+001 -1.662912e+002 -8.872922e+000 1.550209e+002
9831725000 -1.075726e+001 1.442258e+002 -1.495310e+001 -1.702702e+002 -1.495932e+001 -1.695662e+002 -8.845886e+000 1.552774e+002
9850468750 -1.072311e+001 1.424950e+002 -1.517442e+001 -1.735452e+002 -1.518186e+001 -1.729031e+002 -8.812235e+000 1.555449e+002
9869212500 -1.069502e+001 1.407312e+002 -1.540293e+001 -1.768481e+002 -1.540535e+001 -1.762057e+002 -8.766937e+000 1.557930e+002
9887956250 -1.066172e+001 1.389178e+002 -1.564376e+001 1.798671e+002 -1.565273e+001 -1.794764e+002 -8.706492e+000 1.560332e+002
9906700000 -1.061906e+001 1.371265e+002 -1.589130e+001 1.765429e+002 -1.590612e+001 1.771734e+002 -8.632453e+000 1.562552e+002
9925443750 -1.058194e+001 1.353225e+002 -1.614181e+001 1.732532e+002 -1.615946e+001 1.738754e+002 -8.548563e+000 1.564774e+002
9944187500 -1.054066e+001 1.334814e+002 -1.641246e+001 1.699761e+002 -1.643744e+001 1.705956e+002 -8.451228e+000 1.566858e+002
9962931250 -1.049755e+001 1.316821e+002 -1.669374e+001 1.666526e+002 -1.671518e+001 1.672578e+002 -8.344919e+000 1.568462e+002
9981675000 -1.045762e+001 1.298215e+002 -1.697342e+001 1.633881e+002 -1.699860e+001 1.640517e+002 -8.230210e+000 1.569614e+002
10000418750 -1.041255e+001 1.279337e+002 -1.727682e+001 1.601638e+002 -1.730250e+001 1.608251e+002 -8.105988e+000 1.570150e+002
10019162500 -1.036062e+001 1.260508e+002 -1.758084e+001 1.569073e+002 -1.760473e+001 1.575915e+002 -7.969936e+000 1.570252e+002
10037906250 -1.031194e+001 1.241201e+002 -1.788710e+001 1.537373e+002 -1.791590e+001 1.544450e+002 -7.826174e+000 1.569733e+002
10056650000 -1.025613e+001 1.222119e+002 -1.821897e+001 1.505483e+002 -1.825102e+001 1.512675e+002 -7.677128e+000 1.568745e+002
10075393750 -1.021012e+001 1.202936e+002 -1.855104e+001 1.473728e+002 -1.857970e+001 1.481370e+002 -7.524573e+000 1.566861e+002
10094137500 -1.016438e+001 1.183079e+002 -1.888878e+001 1.443101e+002 -1.892397e+001 1.450928e+002 -7.368247e+000 1.564232e+002
10112881250 -1.011241e+001 1.163431e+002 -1.924684e+001 1.412361e+002 -1.928331e+001 1.420144e+002 -7.207952e+000 1.560876e+002
10131625000 -1.006543e+001 1.143415e+002 -1.959714e+001 1.381792e+002 -1.963480e+001 1.390012e+002 -7.046565e+000 1.556730e+002
10150368750 -1.001488e+001 1.123152e+002 -1.996470e+001 1.352438e+002 -2.000631e+001 1.360675e+002 -6.881885e+000 1.551742e+002
10169112500 -9.963030e+000 1.103211e+002 -2.034668e+001 1.322540e+002 -2.038510e+001 1.330997e+002 -6.715594e+000 1.546365e+002
10187856250 -9.915133e+000 1.083163e+002 -2.071739e+001 1.293448e+002 -2.076190e+001 1.302129e+002 -6.553522e+000 1.540305e+002
10206600000 -9.863659e+000 1.062419e+002 -2.111142e+001 1.265637e+002 -2.115819e+001 1.274385e+002 -6.393557e+000 1.533490e+002
10225343750 -9.814260e+000 1.042084e+002 -2.151127e+001 1.238092e+002 -2.155057e+001 1.246298e+002 -6.236040e+000 1.526097e+002
10244087500 -9.769661e+000 1.021104e+002 -2.190332e+001 1.210450e+002 -2.195563e+001 1.219193e+002 -6.084803e+000 1.518206e+002
10262831250 -9.719756e+000 1.000210e+002 -2.231965e+001 1.183672e+002 -2.236616e+001 1.192554e+002 -5.936944e+000 1.509592e+002
10281575000 -9.674769e+000 9.799202e+001 -2.273593e+001 1.156949e+002 -2.278019e+001 1.166423e+002 -5.791186e+000 1.500604e+002
10300318750 -9.634592e+000 9.589175e+001 -2.315715e+001 1.131177e+002 -2.319570e+001 1.141042e+002 -5.650711e+000 1.491328e+002
10319062500 -9.583134e+000 9.379855e+001 -2.357489e+001 1.105513e+002 -2.361865e+001 1.115752e+002 -5.518887e+000 1.481691e+002
10337806250 -9.539573e+000 9.174224e+001 -2.400260e+001 1.081030e+002 -2.404069e+001 1.091217e+002 -5.395666e+000 1.471665e+002
10356550000 -9.499305e+000 8.963693e+001 -2.443669e+001 1.056692e+002 -2.447097e+001 1.067691e+002 -5.271511e+000 1.461170e+002
10375293750 -9.450842e+000 8.756812e+001 -2.487233e+001 1.032753e+002 -2.489521e+001 1.043865e+002 -5.156158e+000 1.450655e+002
10394037500 -9.414650e+000 8.551373e+001 -2.530219e+001 1.009488e+002 -2.532568e+001 1.021626e+002 -5.046301e+000 1.439736e+002
10412781250 -9.374578e+000 8.341179e+001 -2.573943e+001 9.870951e+001 -2.576041e+001 9.994103e+001 -4.939384e+000 1.428794e+002
10431525000 -9.329010e+000 8.134969e+001 -2.617387e+001 9.651333e+001 -2.619817e+001 9.777305e+001 -4.838856e+000 1.417851e+002
10450268750 -9.293193e+000 7.929777e+001 -2.660055e+001 9.439380e+001 -2.664158e+001 9.558881e+001 -4.746838e+000 1.406445e+002
10469012500 -9.252210e+000 7.723881e+001 -2.705107e+001 9.230438e+001 -2.709184e+001 9.355590e+001 -4.653819e+000 1.395004e+002
10487756250 -9.215410e+000 7.522253e+001 -2.749088e+001 9.024667e+001 -2.753554e+001 9.160851e+001 -4.568893e+000 1.383797e+002
10506500000 -9.182979e+000 7.319744e+001 -2.792334e+001 8.821803e+001 -2.797519e+001 8.961679e+001 -4.488409e+000 1.372362e+002
10525243750 -9.142260e+000 7.115786e+001 -2.836405e+001 8.630238e+001 -2.841304e+001 8.774852e+001 -4.409516e+000 1.361013e+002
10543987500 -9.105021e+000 6.916670e+001 -2.881485e+001 8.433634e+001 -2.885308e+001 8.578825e+001 -4.338155e+000 1.349909e+002
10562731250 -9.071609e+000 6.717456e+001 -2.925502e+001 8.256301e+001 -2.929559e+001 8.400806e+001 -4.271921e+000 1.338313e+002
10581475000 -9.029556e+000 6.519071e+001 -2.968627e+001 8.069821e+001 -2.974219e+001 8.224390e+001 -4.202723e+000 1.326862e+002
10600218750 -8.994330e+000 6.325149e+001 -3.013647e+001 7.896942e+001 -3.018443e+001 8.050262e+001 -4.145834e+000 1.315725e+002
10618962500 -8.963151e+000 6.126959e+001 -3.059730e+001 7.721425e+001 -3.062169e+001 7.881590e+001 -4.087664e+000 1.304117e+002
10637706250 -8.925151e+000 5.931313e+001 -3.103631e+001 7.552243e+001 -3.106209e+001 7.714655e+001 -4.029704e+000 1.292823e+002
10656450000 -8.893050e+000 5.738519e+001 -3.146849e+001 7.375309e+001 -3.150512e+001 7.552779e+001 -3.982029e+000 1.281797e+002
10675193750 -8.858103e+000 5.545114e+001 -3.189805e+001 7.212389e+001 -3.193935e+001 7.380182e+001 -3.933594e+000 1.270511e+002
10693937500 -8.818894e+000 5.357113e+001 -3.235850e+001 7.050826e+001 -3.237842e+001 7.217500e+001 -3.883524e+000 1.259349e+002
10712681250 -8.787299e+000 5.170223e+001 -3.278112e+001 6.889436e+001 -3.279927e+001 7.073967e+001 -3.842638e+000 1.248400e+002
10731425000 -8.753867e+000 4.982135e+001 -3.321161e+001 6.737524e+001 -3.323142e+001 6.916738e+001 -3.801806e+000 1.237084e+002
10750168750 -8.717109e+000 4.795561e+001 -3.365796e+001 6.595934e+001 -3.364574e+001 6.771788e+001 -3.760405e+000 1.226242e+002
10768912500 -8.683972e+000 4.611148e+001 -3.408574e+001 6.449300e+001 -3.406054e+001 6.630078e+001 -3.725739e+000 1.215423e+002
10787656250 -8.644764e+000 4.427667e+001 -3.452067e+001 6.301092e+001 -3.449264e+001 6.476320e+001 -3.690677e+000 1.204272e+002
10806400000 -8.606054e+000 4.249126e+001 -3.495224e+001 6.158245e+001 -3.490564e+001 6.347114e+001 -3.653203e+000 1.193459e+002
10825143750 -8.569172e+000 4.071386e+001 -3.538920e+001 6.018107e+001 -3.532833e+001 6.208263e+001 -3.625082e+000 1.182877e+002
10843887500 -8.535521e+000 3.893497e+001 -3.579608e+001 5.872677e+001 -3.576273e+001 6.058513e+001 -3.590520e+000 1.171975e+002
10862631250 -8.497442e+000 3.717428e+001 -3.621641e+001 5.728255e+001 -3.618195e+001 5.911200e+001 -3.562313e+000 1.161537e+002
10881375000 -8.462186e+000 3.541600e+001 -3.669542e+001 5.598664e+001 -3.658499e+001 5.803236e+001 -3.540329e+000 1.151115e+002
10900118750 -8.424148e+000 3.368601e+001 -3.710994e+001 5.446816e+001 -3.699432e+001 5.657495e+001 -3.516021e+000 1.140343e+002
10918862500 -8.384043e+000 3.198855e+001 -3.756051e+001 5.317863e+001 -3.740849e+001 5.501044e+001 -3.491787e+000 1.129853e+002
10937606250 -8.347702e+000 3.029397e+001 -3.797029e+001 5.207225e+001 -3.785897e+001 5.365102e+001 -3.473509e+000 1.119313e+002
10956350000 -8.311200e+000 2.861223e+001 -3.841422e+001 5.058329e+001 -3.827350e+001 5.228296e+001 -3.448876e+000 1.108685e+002
10975093750 -8.272402e+000 2.693449e+001 -3.887771e+001 4.917989e+001 -3.870343e+001 5.093870e+001 -3.430521e+000 1.098521e+002
10993837500 -8.231587e+000 2.525875e+001 -3.934465e+001 4.797646e+001 -3.910444e+001 4.977031e+001 -3.416746e+000 1.088222e+002
11012581250 -8.191686e+000 2.363875e+001 -3.979962e+001 4.664162e+001 -3.949163e+001 4.833793e+001 -3.397385e+000 1.077905e+002
11031325000 -8.152741e+000 2.202799e+001 -4.022001e+001 4.516374e+001 -3.992007e+001 4.712043e+001 -3.380316e+000 1.067896e+002
11050068750 -8.115565e+000 2.045377e+001 -4.059041e+001 4.407674e+001 -4.035252e+001 4.585742e+001 -3.369174e+000 1.057800e+002
11068812500 -8.078766e+000 1.887688e+001 -4.102732e+001 4.301735e+001 -4.082723e+001 4.421121e+001 -3.352237e+000 1.047623e+002
11087556250 -8.038646e+000 1.729423e+001 -4.147394e+001 4.176289e+001 -4.131118e+001 4.313449e+001 -3.338822e+000 1.037910e+002
11106300000 -7.998349e+000 1.575368e+001 -4.192039e+001 4.055003e+001 -4.171280e+001 4.216511e+001 -3.330413e+000 1.027661e+002
11125043750 -7.959583e+000 1.421828e+001 -4.235358e+001 3.923129e+001 -4.219819e+001 4.098176e+001 -3.316165e+000 1.017630e+002
11143787500 -7.918279e+000 1.269203e+001 -4.279927e+001 3.832351e+001 -4.267452e+001 4.017009e+001 -3.306427e+000 1.008023e+002
11162531250 -7.879798e+000 1.119668e+001 -4.324938e+001 3.714334e+001 -4.316286e+001 3.908587e+001 -3.298375e+000 9.982282e+001
11181275000 -7.843995e+000 9.696911e+000 -4.369600e+001 3.556472e+001 -4.359478e+001 3.773969e+001 -3.283750e+000 9.883704e+001
11200018750 -7.803526e+000 8.204840e+000 -4.413834e+001 3.422532e+001 -4.402662e+001 3.643330e+001 -3.278583e+000 9.790395e+001
11218762500 -7.763746e+000 6.731859e+000 -4.458855e+001 3.344972e+001 -4.453518e+001 3.491491e+001 -3.275948e+000 9.693547e+001
11237506250 -7.721512e+000 5.287080e+000 -4.504957e+001 3.242266e+001 -4.504166e+001 3.382687e+001 -3.268090e+000 9.597204e+001
11256250000 -7.683319e+000 3.857064e+000 -4.560929e+001 3.078625e+001 -4.546304e+001 3.263649e+001 -3.263187e+000 9.503259e+001
11274993750 -7.647731e+000 2.451084e+000 -4.614363e+001 2.921230e+001 -4.577185e+001 3.177025e+001 -3.263540e+000 9.406719e+001
11293737500 -7.610367e+000 1.014951e+000 -4.659983e+001 2.841281e+001 -4.618840e+001 3.058507e+001 -3.252614e+000 9.310473e+001
11312481250 -7.570234e+000 -3.937855e-001 -4.702764e+001 2.720346e+001 -4.670769e+001 2.889734e+001 -3.250484e+000 9.220135e+001
11331225000 -7.531914e+000 -1.781551e+000 -4.747193e+001 2.625294e+001 -4.716908e+001 2.766316e+001 -3.247324e+000 9.126012e+001
11349968750 -7.491221e+000 -3.148530e+000 -4.790126e+001 2.497044e+001 -4.756592e+001 2.632443e+001 -3.241920e+000 9.032614e+001
11368712500 -7.450118e+000 -4.483962e+000 -4.833327e+001 2.343905e+001 -4.802767e+001 2.496049e+001 -3.240055e+000 8.943493e+001
11387456250 -7.415396e+000 -5.828024e+000 -4.870054e+001 2.252394e+001 -4.843241e+001 2.367725e+001 -3.241222e+000 8.851256e+001
11406200000 -7.378841e+000 -7.189702e+000 -4.909695e+001 2.152520e+001 -4.892835e+001 2.246419e+001 -3.236977e+000 8.759193e+001
11424943750 -7.339338e+000 -8.503323e+000 -4.957278e+001 2.000587e+001 -4.939172e+001 2.071769e+001 -3.237833e+000 8.670023e+001
11443687500 -7.302884e+000 -9.821658e+000 -4.995424e+001 1.940561e+001 -4.989153e+001 2.026513e+001 -3.238918e+000 8.576546e+001
11462431250 -7.260767e+000 -1.111334e+001 -5.053764e+001 1.789126e+001 -5.039768e+001 2.108047e+001 -3.235084e+000 8.485802e+001
11481175000 -7.220064e+000 -1.238266e+001 -5.105965e+001 1.738239e+001 -5.100352e+001 1.787149e+001 -3.235132e+000 8.396539e+001
11499918750 -7.186520e+000 -1.367108e+001 -5.132560e+001 1.756279e+001 -5.137271e+001 1.755577e+001 -3.236141e+000 8.304409e+001
11518662500 -7.148186e+000 -1.494728e+001 -5.181938e+001 1.654931e+001 -5.166722e+001 1.554346e+001 -3.231210e+000 8.214086e+001
11537406250 -7.107657e+000 -1.619412e+001 -5.231930e+001 1.373011e+001 -5.223621e+001 1.209095e+001 -3.234998e+000 8.128606e+001
11556150000 -7.067894e+000 -1.744058e+001 -5.259641e+001 1.405267e+001 -5.266666e+001 1.074599e+001 -3.237329e+000 8.036781e+001
11574893750 -7.026145e+000 -1.865337e+001 -5.309357e+001 1.093421e+001 -5.297485e+001 8.935734e+000 -3.234665e+000 7.947211e+001
11593637500 -6.988989e+000 -1.984326e+001 -5.347007e+001 7.241404e+000 -5.365683e+001 7.225455e+000 -3.237830e+000 7.859978e+001
11612381250 -6.956328e+000 -2.103530e+001 -5.397670e+001 1.177767e+001 -5.423612e+001 4.878958e+000 -3.239868e+000 7.768340e+001
11631125000 -6.918361e+000 -2.224175e+001 -5.443250e+001 1.109694e+001 -5.495496e+001 1.374841e-001 -3.236248e+000 7.681858e+001
11649868750 -6.881734e+000 -2.339618e+001 -5.495953e+001 1.158056e+001 -5.527309e+001 -2.147901e+000 -3.242011e+000 7.596327e+001
11668612500 -6.845729e+000 -2.459084e+001 -5.535018e+001 6.595903e+000 -5.560226e+001 -4.419797e+000 -3.244669e+000 7.504377e+001
11687356250 -6.805340e+000 -2.573827e+001 -5.586625e+001 4.040721e+000 -5.598447e+001 -8.097302e+000 -3.243203e+000 7.419469e+001
11706100000 -6.770895e+000 -2.685970e+001 -5.660938e+001 8.756424e+000 -5.667566e+001 -7.949697e+000 -3.250601e+000 7.333104e+001
11724843750 -6.739811e+000 -2.799615e+001 -5.695546e+001 5.866418e+000 -5.715012e+001 -1.257845e+001 -3.254424e+000 7.242571e+001
11743587500 -6.702041e+000 -2.913004e+001 -5.754844e+001 2.636523e+000 -5.764019e+001 -1.330831e+001 -3.253772e+000 7.157047e+001
11762331250 -6.666430e+000 -3.023795e+001 -5.810989e+001 -1.693342e+000 -5.811376e+001 -1.850146e+001 -3.263317e+000 7.071658e+001
11781075000 -6.629906e+000 -3.137919e+001 -5.838914e+001 -5.742959e+000 -5.873822e+001 -1.730023e+001 -3.264824e+000 6.981552e+001
11799818750 -6.588613e+000 -3.246527e+001 -5.902356e+001 -8.444700e+000 -5.930548e+001 -2.022878e+001 -3.263104e+000 6.892090e+001
11818562500 -6.556170e+000 -3.351085e+001 -6.069243e+001 -1.050546e+001 -5.983982e+001 -2.259663e+001 -3.267436e+000 6.809260e+001
11837306250 -6.525763e+000 -3.460706e+001 -6.110158e+001 -1.121224e+001 -6.043129e+001 -2.703078e+001 -3.272893e+000 6.721464e+001
11856050000 -6.486490e+000 -3.569380e+001 -6.143564e+001 -1.800417e+001 -6.120935e+001 -3.458499e+001 -3.270330e+000 6.637549e+001
11874793750 -6.454835e+000 -3.674491e+001 -6.192741e+001 -2.294988e+001 -6.173404e+001 -5.015814e+001 -3.285147e+000 6.561026e+001
11893537500 -6.421676e+000 -3.784653e+001 -6.214581e+001 -2.329612e+001 -6.179812e+001 -6.997871e+001 -3.298453e+000 6.468714e+001
11912281250 -6.380212e+000 -3.886007e+001 -6.273543e+001 -2.801439e+001 -6.184682e+001 -9.036911e+001 -3.290320e+000 6.383150e+001
11931025000 -6.354377e+000 -3.984382e+001 -6.303419e+001 -3.650006e+001 -6.230277e+001 -1.133245e+002 -3.304679e+000 6.305264e+001
11949768750 -6.322403e+000 -4.092152e+001 -6.329929e+001 -3.938904e+001 -6.256257e+001 -1.325688e+002 -3.317033e+000 6.213970e+001
11968512500 -6.283495e+000 -4.194031e+001 -6.371644e+001 -4.554227e+001 -6.261077e+001 -1.484637e+002 -3.306643e+000 6.128785e+001
11987256250 -6.257030e+000 -4.295128e+001 -6.398480e+001 -5.555415e+001 -6.268936e+001 -1.649717e+002 -3.325079e+000 6.051511e+001
12006000000 -6.220012e+000 -4.400151e+001 -6.448087e+001 -6.145934e+001 -6.300174e+001 1.771525e+002 -3.334261e+000 5.960223e+001
12024743750 -6.180402e+000 -4.494299e+001 -6.489297e+001 -6.469993e+001 -6.301470e+001 1.545828e+002 -3.329739e+000 5.877918e+001
12043487500 -6.154131e+000 -4.591964e+001 -6.522024e+001 -7.782027e+001 -6.319789e+001 1.355588e+002 -3.349111e+000 5.799730e+001
12062231250 -6.120811e+000 -4.695311e+001 -6.512103e+001 -8.258422e+001 -6.328147e+001 1.193585e+002 -3.354963e+000 5.708337e+001
12080975000 -6.081811e+000 -4.792454e+001 -6.526066e+001 -8.566745e+001 -6.341662e+001 9.745931e+001 -3.351182e+000 5.627301e+001
12099718750 -6.054370e+000 -4.890281e+001 -6.557314e+001 -8.415374e+001 -6.330689e+001 7.657102e+001 -3.371877e+000 5.550211e+001
12118462500 -6.016659e+000 -4.988373e+001 -6.551978e+001 -8.763990e+001 -6.330530e+001 5.878025e+001 -3.378463e+000 5.458353e+001
12137206250 -5.979417e+000 -5.077913e+001 -6.493391e+001 -9.816248e+001 -6.312707e+001 3.487273e+001 -3.377126e+000 5.379894e+001
12155950000 -5.954844e+000 -5.171926e+001 -6.546967e+001 -9.849542e+001 -6.310502e+001 1.744781e+001 -3.397456e+000 5.299668e+001
12174693750 -5.920726e+000 -5.268527e+001 -6.507066e+001 -1.026808e+002 -6.281220e+001 -3.736095e+000 -3.400000e+000 5.210761e+001
12193437500 -5.886804e+000 -5.361604e+001 -6.495914e+001 -1.056277e+002 -6.265613e+001 -2.109364e+001 -3.403269e+000 5.133669e+001
12212181250 -5.860485e+000 -5.455999e+001 -6.468715e+001 -1.088584e+002 -6.237836e+001 -4.405817e+001 -3.427677e+000 5.053340e+001
12230925000 -5.825334e+000 -5.549014e+001 -6.434976e+001 -1.102973e+002 -6.210176e+001 -6.567659e+001 -3.431149e+000 4.968563e+001
12249668750 -5.796097e+000 -5.636871e+001 -6.295107e+001 -1.170996e+002 -6.167468e+001 -8.647655e+001 -3.440083e+000 4.888084e+001
12268412500 -5.766921e+000 -5.726826e+001 -6.268041e+001 -1.225423e+002 -6.125053e+001 -1.048704e+002 -3.456904e+000 4.805535e+001
12287156250 -5.738445e+000 -5.817738e+001 -6.239963e+001 -1.212338e+002 -6.089890e+001 -1.201338e+002 -3.460470e+000 4.717987e+001
12305900000 -5.707181e+000 -5.908316e+001 -6.217613e+001 -1.236379e+002 -6.049085e+001 -1.254711e+002 -3.462413e+000 4.635938e+001
12324643750 -5.677041e+000 -5.997181e+001 -6.178955e+001 -1.306594e+002 -6.067006e+001 -1.296517e+002 -3.474527e+000 4.555667e+001
12343387500 -5.645952e+000 -6.087202e+001 -6.125193e+001 -1.345684e+002 -6.045907e+001 -1.309113e+002 -3.487195e+000 4.469674e+001
12362131250 -5.613316e+000 -6.173544e+001 -6.131634e+001 -1.357643e+002 -5.998029e+001 -1.310078e+002 -3.495710e+000 4.389400e+001
12380875000 -5.586749e+000 -6.260257e+001 -6.148844e+001 -1.390931e+002 -5.988165e+001 -1.346804e+002 -3.506382e+000 4.308480e+001
12399618750 -5.562593e+000 -6.349833e+001 -6.118215e+001 -1.381542e+002 -5.995683e+001 -1.393813e+002 -3.518994e+000 4.226711e+001
12418362500 -5.530927e+000 -6.436525e+001 -6.106759e+001 -1.370279e+002 -6.020406e+001 -1.458340e+002 -3.526542e+000 4.146608e+001
12437106250 -5.502755e+000 -6.522352e+001 -6.063063e+001 -1.360141e+002 -5.992276e+001 -1.508671e+002 -3.541439e+000 4.066231e+001
12455850000 -5.475665e+000 -6.610413e+001 -6.009171e+001 -1.364815e+002 -5.958480e+001 -1.497671e+002 -3.552785e+000 3.982050e+001
12474593750 -5.446556e+000 -6.693500e+001 -5.960190e+001 -1.347178e+002 -5.924913e+001 -1.519966e+002 -3.560843e+000 3.902206e+001
12493337500 -5.421935e+000 -6.776244e+001 -5.951896e+001 -1.364124e+002 -5.891225e+001 -1.540665e+002 -3.573722e+000 3.820798e+001
12512081250 -5.399896e+000 -6.862778e+001 -5.936357e+001 -1.413945e+002 -5.865825e+001 -1.523770e+002 -3.581728e+000 3.738661e+001
12530825000 -5.372875e+000 -6.946694e+001 -5.909417e+001 -1.444294e+002 -5.867344e+001 -1.522725e+002 -3.590664e+000 3.658568e+001
12549568750 -5.344875e+000 -7.031030e+001 -5.884470e+001 -1.475174e+002 -5.868799e+001 -1.535554e+002 -3.605206e+000 3.577410e+001
12568312500 -5.317537e+000 -7.115249e+001 -5.890367e+001 -1.489622e+002 -5.851382e+001 -1.539520e+002 -3.614315e+000 3.492800e+001
12587056250 -5.287604e+000 -7.197126e+001 -5.860730e+001 -1.524293e+002 -5.833124e+001 -1.552402e+002 -3.617900e+000 3.412518e+001
12605800000 -5.266424e+000 -7.276155e+001 -5.858959e+001 -1.530171e+002 -5.839097e+001 -1.560910e+002 -3.632297e+000 3.333805e+001
12624543750 -5.242463e+000 -7.358236e+001 -5.834034e+001 -1.532758e+002 -5.819447e+001 -1.572313e+002 -3.643903e+000 3.249096e+001
12643287500 -5.214361e+000 -7.438866e+001 -5.848480e+001 -1.534034e+002 -5.808242e+001 -1.591889e+002 -3.646515e+000 3.169395e+001
12662031250 -5.188121e+000 -7.518304e+001 -5.852258e+001 -1.580350e+002 -5.782651e+001 -1.576574e+002 -3.664789e+000 3.091850e+001
12680775000 -5.158503e+000 -7.600239e+001 -5.825930e+001 -1.570698e+002 -5.776611e+001 -1.580088e+002 -3.675003e+000 3.006439e+001
12699518750 -5.134031e+000 -7.677398e+001 -5.844835e+001 -1.589404e+002 -5.772923e+001 -1.589615e+002 -3.678535e+000 2.928197e+001
12718262500 -5.112659e+000 -7.755276e+001 -5.850967e+001 -1.613857e+002 -5.737935e+001 -1.591952e+002 -3.697275e+000 2.848741e+001
12737006250 -5.087364e+000 -7.835004e+001 -5.832437e+001 -1.621145e+002 -5.731573e+001 -1.623647e+002 -3.706168e+000 2.764093e+001
12755750000 -5.061781e+000 -7.912685e+001 -5.839088e+001 -1.607295e+002 -5.708749e+001 -1.651716e+002 -3.712888e+000 2.689230e+001
12774493750 -5.036585e+000 -7.990108e+001 -5.828061e+001 -1.621035e+002 -5.695530e+001 -1.649536e+002 -3.733392e+000 2.609295e+001
12793237500 -5.009534e+000 -8.069541e+001 -5.800769e+001 -1.618990e+002 -5.680595e+001 -1.661045e+002 -3.738297e+000 2.523531e+001
12811981250 -4.984152e+000 -8.141393e+001 -5.739343e+001 -1.637456e+002 -5.650359e+001 -1.664267e+002 -3.747908e+000 2.447895e+001
12830725000 -4.960289e+000 -8.218307e+001 -5.702063e+001 -1.639379e+002 -5.609944e+001 -1.672241e+002 -3.765946e+000 2.365102e+001
12849468750 -4.937635e+000 -8.296814e+001 -5.683954e+001 -1.638053e+002 -5.557258e+001 -1.679812e+002 -3.770869e+000 2.281920e+001
12868212500 -4.912724e+000 -8.370472e+001 -5.654912e+001 -1.645567e+002 -5.538992e+001 -1.682749e+002 -3.781548e+000 2.207541e+001
12886956250 -4.886556e+000 -8.447738e+001 -5.657230e+001 -1.655135e+002 -5.525753e+001 -1.698335e+002 -3.800267e+000 2.124301e+001
12905700000 -4.860018e+000 -8.522813e+001 -5.644374e+001 -1.683106e+002 -5.492289e+001 -1.722058e+002 -3.806546e+000 2.041253e+001
12924443750 -4.835415e+000 -8.595970e+001 -5.633120e+001 -1.693332e+002 -5.483453e+001 -1.733951e+002 -3.818856e+000 1.965205e+001
12943187500 -4.812191e+000 -8.671039e+001 -5.605223e+001 -1.714065e+002 -5.459782e+001 -1.748001e+002 -3.835863e+000 1.881052e+001
12961931250 -4.787637e+000 -8.745519e+001 -5.573383e+001 -1.740265e+002 -5.434942e+001 -1.772592e+002 -3.837412e+000 1.801601e+001
12980675000 -4.763786e+000 -8.818875e+001 -5.553571e+001 -1.729851e+002 -5.418373e+001 -1.781717e+002 -3.851029e+000 1.726158e+001
12999418750 -4.736516e+000 -8.894328e+001 -5.535870e+001 -1.734604e+002 -5.411584e+001 -1.786165e+002 -3.868532e+000 1.643739e+001
13018162500 -4.715353e+000 -8.965427e+001 -5.487233e+001 -1.746687e+002 -5.393790e+001 1.798992e+002 -3.878733e+000 1.566445e+001
13036906250 -4.692136e+000 -9.038528e+001 -5.472386e+001 -1.751059e+002 -5.363404e+001 1.786453e+002 -3.893643e+000 1.486502e+001
13055650000 -4.669347e+000 -9.113985e+001 -5.469294e+001 -1.761842e+002 -5.348700e+001 1.776559e+002 -3.903743e+000 1.405437e+001
13074393750 -4.646243e+000 -9.184663e+001 -5.456267e+001 -1.770885e+002 -5.328508e+001 1.777675e+002 -3.913516e+000 1.328681e+001
13093137500 -4.624418e+000 -9.258181e+001 -5.426169e+001 -1.767601e+002 -5.305021e+001 1.762137e+002 -3.927093e+000 1.249570e+001
13111881250 -4.601112e+000 -9.330381e+001 -5.420231e+001 -1.779326e+002 -5.307832e+001 1.754748e+002 -3.940436e+000 1.170899e+001
13130625000 -4.576613e+000 -9.399844e+001 -5.374632e+001 -1.780966e+002 -5.274435e+001 1.747425e+002 -3.948954e+000 1.090785e+001
13149368750 -4.555170e+000 -9.470617e+001 -5.350257e+001 -1.786255e+002 -5.259541e+001 1.729872e+002 -3.958696e+000 1.012348e+001
13168112500 -4.534647e+000 -9.542149e+001 -5.328233e+001 -1.794090e+002 -5.243390e+001 1.720092e+002 -3.969694e+000 9.336920e+000
13186856250 -4.510417e+000 -9.611859e+001 -5.318264e+001 1.784851e+002 -5.208753e+001 1.721797e+002 -3.977715e+000 8.541659e+000
13205600000 -4.489816e+000 -9.685025e+001 -5.310047e+001 1.796552e+002 -5.200480e+001 1.714581e+002 -3.987044e+000 7.788433e+000
13224343750 -4.466868e+000 -9.755138e+001 -5.284832e+001 1.790758e+002 -5.198443e+001 1.711975e+002 -4.000127e+000 7.017870e+000
13243087500 -4.443458e+000 -9.823289e+001 -5.277592e+001 1.789906e+002 -5.193395e+001 1.708111e+002 -4.006883e+000 6.221180e+000
13261831250 -4.426214e+000 -9.892920e+001 -5.276109e+001 1.771630e+002 -5.179387e+001 1.703788e+002 -4.016997e+000 5.451325e+000
13280575000 -4.403059e+000 -9.962919e+001 -5.273799e+001 1.766794e+002 -5.158941e+001 1.702335e+002 -4.026510e+000 4.675776e+000
13299318750 -4.381384e+000 -1.003311e+002 -5.253392e+001 1.757795e+002 -5.150415e+001 1.694394e+002 -4.033394e+000 3.893741e+000
13318062500 -4.361719e+000 -1.010252e+002 -5.234767e+001 1.741393e+002 -5.126891e+001 1.684414e+002 -4.043090e+000 3.156692e+000
13336806250 -4.337010e+000 -1.017175e+002 -5.211511e+001 1.744966e+002 -5.132309e+001 1.688443e+002 -4.053319e+000 2.392859e+000
13355550000 -4.315851e+000 -1.023756e+002 -5.202607e+001 1.730348e+002 -5.101799e+001 1.681333e+002 -4.062773e+000 1.615538e+000
13374293750 -4.297267e+000 -1.030556e+002 -5.179463e+001 1.718999e+002 -5.114137e+001 1.676204e+002 -4.073457e+000 8.735278e-001
13393037500 -4.274377e+000 -1.037585e+002 -5.165421e+001 1.711848e+002 -5.115684e+001 1.676812e+002 -4.083898e+000 9.479879e-002
13411781250 -4.255689e+000 -1.044362e+002 -5.152948e+001 1.700849e+002 -5.086108e+001 1.662345e+002 -4.091244e+000 -6.677633e-001
13430525000 -4.237101e+000 -1.051173e+002 -5.130948e+001 1.685277e+002 -5.060920e+001 1.647537e+002 -4.100770e+000 -1.404955e+000
13449268750 -4.211953e+000 -1.057980e+002 -5.117382e+001 1.665030e+002 -5.048911e+001 1.645209e+002 -4.110512e+000 -2.182283e+000
13468012500 -4.192089e+000 -1.064474e+002 -5.101144e+001 1.647105e+002 -5.046124e+001 1.632954e+002 -4.117387e+000 -2.943750e+000
13486756250 -4.173258e+000 -1.071164e+002 -5.073773e+001 1.641857e+002 -5.040540e+001 1.626083e+002 -4.126094e+000 -3.679003e+000
13505500000 -4.151264e+000 -1.078109e+002 -5.056194e+001 1.631193e+002 -5.027306e+001 1.612139e+002 -4.133481e+000 -4.434497e+000
13524243750 -4.130916e+000 -1.084955e+002 -5.044738e+001 1.615326e+002 -5.031601e+001 1.599933e+002 -4.141926e+000 -5.170022e+000
13542987500 -4.109356e+000 -1.091868e+002 -5.038763e+001 1.609012e+002 -5.016844e+001 1.588122e+002 -4.151536e+000 -5.909069e+000
13561731250 -4.085191e+000 -1.098615e+002 -5.031765e+001 1.599456e+002 -5.018806e+001 1.579779e+002 -4.162452e+000 -6.667976e+000
13580475000 -4.065224e+000 -1.105113e+002 -5.014432e+001 1.589843e+002 -5.014048e+001 1.572564e+002 -4.171336e+000 -7.402868e+000
13599218750 -4.043260e+000 -1.111975e+002 -5.009784e+001 1.575915e+002 -4.995467e+001 1.560019e+002 -4.181501e+000 -8.151443e+000
13617962500 -4.023234e+000 -1.118783e+002 -4.983546e+001 1.568107e+002 -4.990981e+001 1.545719e+002 -4.189266e+000 -8.906117e+000
13636706250 -4.004086e+000 -1.125336e+002 -4.969623e+001 1.553003e+002 -4.979832e+001 1.529157e+002 -4.197895e+000 -9.623038e+000
13655450000 -3.980524e+000 -1.132121e+002 -4.976378e+001 1.537256e+002 -4.979691e+001 1.516370e+002 -4.207102e+000 -1.035000e+001
13674193750 -3.958498e+000 -1.138826e+002 -4.960842e+001 1.517618e+002 -4.977808e+001 1.505592e+002 -4.217839e+000 -1.108390e+001
13692937500 -3.938929e+000 -1.145274e+002 -4.955524e+001 1.510998e+002 -4.984628e+001 1.489451e+002 -4.228367e+000 -1.180198e+001
13711681250 -3.920933e+000 -1.152012e+002 -4.939135e+001 1.493847e+002 -4.976604e+001 1.476641e+002 -4.240241e+000 -1.253326e+001
13730425000 -3.901033e+000 -1.158690e+002 -4.956466e+001 1.471711e+002 -4.971808e+001 1.463669e+002 -4.249554e+000 -1.327524e+001
13749168750 -3.884170e+000 -1.165344e+002 -4.953991e+001 1.464743e+002 -4.981725e+001 1.452263e+002 -4.259124e+000 -1.399368e+001
13767912500 -3.864007e+000 -1.172214e+002 -4.963078e+001 1.456538e+002 -4.971224e+001 1.444701e+002 -4.268598e+000 -1.471639e+001
13786656250 -3.843412e+000 -1.178793e+002 -4.961812e+001 1.446829e+002 -4.970194e+001 1.428852e+002 -4.276397e+000 -1.543672e+001
13805400000 -3.827840e+000 -1.185448e+002 -4.970388e+001 1.436192e+002 -4.958976e+001 1.412607e+002 -4.284127e+000 -1.614635e+001
13824143750 -3.809378e+000 -1.192215e+002 -4.970151e+001 1.429399e+002 -4.946891e+001 1.406567e+002 -4.293970e+000 -1.686456e+001
13842887500 -3.788314e+000 -1.198831e+002 -4.975708e+001 1.414243e+002 -4.964672e+001 1.391910e+002 -4.301196e+000 -1.756846e+001
13861631250 -3.772285e+000 -1.205737e+002 -4.991843e+001 1.404623e+002 -4.969722e+001 1.386832e+002 -4.308150e+000 -1.827262e+001
13880375000 -3.750193e+000 -1.212664e+002 -4.999003e+001 1.395601e+002 -4.966277e+001 1.371818e+002 -4.315997e+000 -1.897458e+001
13899118750 -3.728508e+000 -1.219447e+002 -5.009668e+001 1.390157e+002 -4.952166e+001 1.357806e+002 -4.325075e+000 -1.967466e+001
13917862500 -3.714866e+000 -1.225982e+002 -5.017212e+001 1.373510e+002 -4.945950e+001 1.347204e+002 -4.331992e+000 -2.036741e+001
13936606250 -3.697372e+000 -1.232885e+002 -5.019803e+001 1.363603e+002 -4.950605e+001 1.337967e+002 -4.341889e+000 -2.108787e+001
13955350000 -3.680032e+000 -1.239460e+002 -5.022678e+001 1.364918e+002 -4.947291e+001 1.339426e+002 -4.348048e+000 -2.180807e+001
13974093750 -3.666234e+000 -1.246232e+002 -5.028190e+001 1.356991e+002 -4.948384e+001 1.332052e+002 -4.351529e+000 -2.250546e+001
13992837500 -3.647397e+000 -1.253296e+002 -5.034734e+001 1.346784e+002 -4.945775e+001 1.322480e+002 -4.358192e+000 -2.319529e+001
14011581250 -3.628169e+000 -1.259961e+002 -5.043822e+001 1.343139e+002 -4.944457e+001 1.323704e+002 -4.363619e+000 -2.388022e+001
14030325000 -3.617671e+000 -1.266790e+002 -5.050247e+001 1.337162e+002 -4.948917e+001 1.326527e+002 -4.369002e+000 -2.456952e+001
14049068750 -3.600679e+000 -1.273868e+002 -5.057103e+001 1.332155e+002 -4.966478e+001 1.319264e+002 -4.376609e+000 -2.526705e+001
14067812500 -3.586443e+000 -1.280701e+002 -5.053335e+001 1.329456e+002 -4.973884e+001 1.319466e+002 -4.381200e+000 -2.598245e+001
14086556250 -3.575557e+000 -1.287821e+002 -5.049925e+001 1.333876e+002 -4.965074e+001 1.315256e+002 -4.384475e+000 -2.669175e+001
14105300000 -3.559289e+000 -1.295056e+002 -5.054846e+001 1.334087e+002 -4.968147e+001 1.315096e+002 -4.389805e+000 -2.739928e+001
14124043750 -3.545195e+000 -1.301707e+002 -5.050774e+001 1.325366e+002 -4.962928e+001 1.311994e+002 -4.392413e+000 -2.808841e+001
14142787500 -3.534463e+000 -1.308737e+002 -5.046176e+001 1.321639e+002 -4.974564e+001 1.310730e+002 -4.394079e+000 -2.878949e+001
14161531250 -3.522496e+000 -1.315973e+002 -5.026957e+001 1.324424e+002 -4.983750e+001 1.306946e+002 -4.400012e+000 -2.948270e+001
14180275000 -3.512034e+000 -1.322751e+002 -5.022533e+001 1.317169e+002 -4.965195e+001 1.308149e+002 -4.401813e+000 -3.018741e+001
14199018750 -3.506249e+000 -1.330004e+002 -5.021885e+001 1.312466e+002 -4.963996e+001 1.303192e+002 -4.403255e+000 -3.089622e+001
14217762500 -3.494718e+000 -1.337021e+002 -5.013782e+001 1.310472e+002 -4.958846e+001 1.303926e+002 -4.407959e+000 -3.159581e+001
14236506250 -3.486901e+000 -1.343589e+002 -5.000530e+001 1.315558e+002 -4.949955e+001 1.301347e+002 -4.411791e+000 -3.231185e+001
14255250000 -3.482596e+000 -1.350655e+002 -4.992812e+001 1.316409e+002 -4.949263e+001 1.290366e+002 -4.416002e+000 -3.302542e+001
14273993750 -3.476208e+000 -1.357749e+002 -4.980462e+001 1.317545e+002 -4.932909e+001 1.295863e+002 -4.421516e+000 -3.374772e+001
14292737500 -3.473409e+000 -1.364412e+002 -4.960518e+001 1.312691e+002 -4.934890e+001 1.292589e+002 -4.424794e+000 -3.446822e+001
14311481250 -3.471213e+000 -1.371573e+002 -4.939977e+001 1.304945e+002 -4.934801e+001 1.290496e+002 -4.426762e+000 -3.518187e+001
14330225000 -3.467159e+000 -1.378318e+002 -4.921595e+001 1.303977e+002 -4.938171e+001 1.289475e+002 -4.431986e+000 -3.590570e+001
14348968750 -3.466231e+000 -1.384983e+002 -4.910312e+001 1.300796e+002 -4.932178e+001 1.293582e+002 -4.436025e+000 -3.664155e+001
14367712500 -3.466844e+000 -1.391959e+002 -4.900911e+001 1.302516e+002 -4.924078e+001 1.291542e+002 -4.440073e+000 -3.736241e+001
14386456250 -3.466046e+000 -1.398615e+002 -4.889237e+001 1.295839e+002 -4.920391e+001 1.285179e+002 -4.445014e+000 -3.808845e+001
14405200000 -3.468632e+000 -1.405287e+002 -4.875686e+001 1.287570e+002 -4.900293e+001 1.283519e+002 -4.449658e+000 -3.883251e+001
14423943750 -3.473040e+000 -1.412161e+002 -4.859102e+001 1.283236e+002 -4.890168e+001 1.283213e+002 -4.455590e+000 -3.957662e+001
14442687500 -3.475150e+000 -1.418607e+002 -4.841813e+001 1.274749e+002 -4.873241e+001 1.273505e+002 -4.463828e+000 -4.031393e+001
14461431250 -3.479579e+000 -1.424916e+002 -4.817703e+001 1.270968e+002 -4.857998e+001 1.263003e+002 -4.468787e+000 -4.107541e+001
14480175000 -3.486265e+000 -1.431532e+002 -4.801952e+001 1.266863e+002 -4.834958e+001 1.268781e+002 -4.476402e+000 -4.182243e+001
14498918750 -3.490028e+000 -1.437709e+002 -4.790075e+001 1.257001e+002 -4.821612e+001 1.259953e+002 -4.482490e+000 -4.258744e+001
14517662500 -3.496571e+000 -1.443970e+002 -4.777113e+001 1.243135e+002 -4.800405e+001 1.249251e+002 -4.487121e+000 -4.335234e+001
14536406250 -3.502211e+000 -1.450363e+002 -4.762975e+001 1.236114e+002 -4.783436e+001 1.239779e+002 -4.494669e+000 -4.410814e+001
14555150000 -3.506034e+000 -1.456352e+002 -4.744987e+001 1.232292e+002 -4.765990e+001 1.231238e+002 -4.503415e+000 -4.487733e+001
14573893750 -3.512251e+000 -1.462338e+002 -4.740611e+001 1.224182e+002 -4.752015e+001 1.217499e+002 -4.509206e+000 -4.564071e+001
14592637500 -3.519640e+000 -1.468303e+002 -4.729270e+001 1.219697e+002 -4.734824e+001 1.210993e+002 -4.518250e+000 -4.639677e+001
14611381250 -3.523925e+000 -1.474045e+002 -4.711627e+001 1.213789e+002 -4.733865e+001 1.197773e+002 -4.527118e+000 -4.718747e+001
14630125000 -3.530539e+000 -1.479956e+002 -4.687370e+001 1.203851e+002 -4.721502e+001 1.186523e+002 -4.533350e+000 -4.796589e+001
14648868750 -3.535041e+000 -1.486012e+002 -4.675368e+001 1.194972e+002 -4.710440e+001 1.174120e+002 -4.542139e+000 -4.872662e+001
14667612500 -3.538018e+000 -1.491646e+002 -4.660629e+001 1.182742e+002 -4.697098e+001 1.162037e+002 -4.552066e+000 -4.950840e+001
14686356250 -3.545133e+000 -1.497413e+002 -4.648703e+001 1.168441e+002 -4.689233e+001 1.154947e+002 -4.560349e+000 -5.028978e+001
14705100000 -3.551177e+000 -1.503030e+002 -4.631236e+001 1.160486e+002 -4.674785e+001 1.137284e+002 -4.573085e+000 -5.106084e+001
14723843750 -3.556306e+000 -1.508420e+002 -4.619547e+001 1.154479e+002 -4.655935e+001 1.126784e+002 -4.583256e+000 -5.187314e+001
14742587500 -3.563208e+000 -1.514121e+002 -4.609999e+001 1.147171e+002 -4.639707e+001 1.114925e+002 -4.594060e+000 -5.267550e+001
14761331250 -3.564341e+000 -1.519721e+002 -4.601334e+001 1.133174e+002 -4.625262e+001 1.105822e+002 -4.604190e+000 -5.345168e+001
14780075000 -3.566557e+000 -1.525143e+002 -4.585639e+001 1.119947e+002 -4.612393e+001 1.086867e+002 -4.617724e+000 -5.425370e+001
14798818750 -3.570262e+000 -1.530635e+002 -4.577396e+001 1.100150e+002 -4.594156e+001 1.073313e+002 -4.628845e+000 -5.504549e+001
14817562500 -3.572732e+000 -1.536061e+002 -4.564322e+001 1.086289e+002 -4.579660e+001 1.058815e+002 -4.644031e+000 -5.584845e+001
14836306250 -3.576797e+000 -1.541306e+002 -4.554719e+001 1.073065e+002 -4.570929e+001 1.039856e+002 -4.656692e+000 -5.666206e+001
14855050000 -3.578448e+000 -1.546841e+002 -4.545790e+001 1.056002e+002 -4.556005e+001 1.023921e+002 -4.668150e+000 -5.745089e+001
14873793750 -3.576931e+000 -1.552282e+002 -4.539497e+001 1.044118e+002 -4.549177e+001 1.013315e+002 -4.680519e+000 -5.825910e+001
14892537500 -3.576962e+000 -1.557425e+002 -4.535275e+001 1.028441e+002 -4.544743e+001 9.959019e+001 -4.695436e+000 -5.905409e+001
14911281250 -3.577694e+000 -1.562879e+002 -4.530114e+001 1.009310e+002 -4.537745e+001 9.754560e+001 -4.707664e+000 -5.984697e+001
14930025000 -3.577301e+000 -1.568194e+002 -4.518789e+001 9.989107e+001 -4.533354e+001 9.611457e+001 -4.726399e+000 -6.065304e+001
14948768750 -3.578795e+000 -1.573416e+002 -4.512776e+001 9.823907e+001 -4.533636e+001 9.498091e+001 -4.741993e+000 -6.146551e+001
14967512500 -3.578005e+000 -1.578987e+002 -4.505097e+001 9.680991e+001 -4.530474e+001 9.330196e+001 -4.754822e+000 -6.225396e+001
14986256250 -3.575414e+000 -1.584709e+002 -4.500959e+001 9.522324e+001 -4.525144e+001 9.200426e+001 -4.765992e+000 -6.304541e+001
15005000000 -3.573719e+000 -1.589677e+002 -4.492546e+001 9.354193e+001 -4.520185e+001 9.049690e+001 -4.786621e+000 -6.385556e+001
15023743750 -3.576291e+000 -1.594897e+002 -4.490568e+001 9.178321e+001 -4.512421e+001 8.860963e+001 -4.798836e+000 -6.467181e+001
15042487500 -3.573739e+000 -1.600458e+002 -4.492186e+001 9.016318e+001 -4.510297e+001 8.740519e+001 -4.815204e+000 -6.545642e+001
15061231250 -3.571007e+000 -1.605363e+002 -4.491031e+001 8.842921e+001 -4.505930e+001 8.586136e+001 -4.836570e+000 -6.627413e+001
15079975000 -3.575536e+000 -1.610912e+002 -4.486827e+001 8.655666e+001 -4.505622e+001 8.426534e+001 -4.846229e+000 -6.709251e+001
15098718750 -3.567550e+000 -1.616277e+002 -4.485855e+001 8.493641e+001 -4.505674e+001 8.266512e+001 -4.864734e+000 -6.787423e+001
15117462500 -3.569689e+000 -1.621140e+002 -4.480507e+001 8.311302e+001 -4.504779e+001 8.096436e+001 -4.882713e+000 -6.871066e+001
15136206250 -3.570848e+000 -1.626624e+002 -4.475723e+001 8.115182e+001 -4.508218e+001 7.961193e+001 -4.892655e+000 -6.951238e+001
15154950000 -3.561980e+000 -1.631844e+002 -4.478185e+001 7.939774e+001 -4.505531e+001 7.822411e+001 -4.913038e+000 -7.028716e+001
15173693750 -3.566576e+000 -1.636691e+002 -4.479266e+001 7.776028e+001 -4.504981e+001 7.712227e+001 -4.933180e+000 -7.113496e+001
15192437500 -3.566423e+000 -1.642303e+002 -4.479554e+001 7.664732e+001 -4.514763e+001 7.533802e+001 -4.942607e+000 -7.192875e+001
15211181250 -3.558035e+000 -1.647381e+002 -4.480832e+001 7.519770e+001 -4.528800e+001 7.369882e+001 -4.963302e+000 -7.271513e+001
15229925000 -3.563288e+000 -1.652458e+002 -4.482218e+001 7.381483e+001 -4.539643e+001 7.203280e+001 -4.979620e+000 -7.354850e+001
15248668750 -3.561434e+000 -1.657879e+002 -4.485554e+001 7.275222e+001 -4.543751e+001 7.069812e+001 -4.988537e+000 -7.432196e+001
15267412500 -3.552992e+000 -1.662822e+002 -4.497935e+001 7.184077e+001 -4.559609e+001 6.927867e+001 -5.014465e+000 -7.511097e+001
15286156250 -3.558809e+000 -1.667850e+002 -4.501725e+001 7.077745e+001 -4.567935e+001 6.799839e+001 -5.029229e+000 -7.596178e+001
15304900000 -3.554696e+000 -1.673381e+002 -4.504701e+001 6.917223e+001 -4.576606e+001 6.637303e+001 -5.037920e+000 -7.673794e+001
15323643750 -3.549100e+000 -1.678275e+002 -4.512566e+001 6.774414e+001 -4.587833e+001 6.512851e+001 -5.057439e+000 -7.752470e+001
15342387500 -3.554167e+000 -1.683254e+002 -4.520750e+001 6.678356e+001 -4.607228e+001 6.434515e+001 -5.071694e+000 -7.834245e+001
15361131250 -3.545666e+000 -1.688720e+002 -4.530635e+001 6.544080e+001 -4.617602e+001 6.239846e+001 -5.080579e+000 -7.910860e+001
15379875000 -3.541595e+000 -1.693483e+002 -4.548772e+001 6.450780e+001 -4.627638e+001 6.145976e+001 -5.103091e+000 -7.990018e+001
15398618750 -3.547348e+000 -1.698549e+002 -4.555687e+001 6.354273e+001 -4.641232e+001 6.001044e+001 -5.114841e+000 -8.073566e+001
15417362500 -3.538153e+000 -1.703644e+002 -4.568242e+001 6.246408e+001 -4.658179e+001 5.888004e+001 -5.128651e+000 -8.151962e+001
15436106250 -3.536083e+000 -1.708634e+002 -4.579336e+001 6.134785e+001 -4.666513e+001 5.851558e+001 -5.145377e+000 -8.232224e+001
15454850000 -3.534689e+000 -1.714144e+002 -4.584460e+001 6.095643e+001 -4.681515e+001 5.736877e+001 -5.156801e+000 -8.312163e+001
15473593750 -3.525615e+000 -1.719268e+002 -4.599755e+001 5.958311e+001 -4.695164e+001 5.629641e+001 -5.170430e+000 -8.389952e+001
15492337500 -3.524749e+000 -1.724276e+002 -4.612572e+001 5.902738e+001 -4.712344e+001 5.515041e+001 -5.186275e+000 -8.470148e+001
15511081250 -3.522856e+000 -1.729509e+002 -4.625036e+001 5.854562e+001 -4.732320e+001 5.404346e+001 -5.200202e+000 -8.551232e+001
15529825000 -3.516169e+000 -1.734831e+002 -4.640519e+001 5.850977e+001 -4.743598e+001 5.393431e+001 -5.210101e+000 -8.629409e+001
15548568750 -3.512610e+000 -1.740034e+002 -4.663420e+001 5.786159e+001 -4.760537e+001 5.298052e+001 -5.227413e+000 -8.706561e+001
15567312500 -3.509527e+000 -1.745353e+002 -4.679952e+001 5.785703e+001 -4.770281e+001 5.207209e+001 -5.240364e+000 -8.787708e+001
15586056250 -3.503196e+000 -1.750698e+002 -4.696397e+001 5.760324e+001 -4.790506e+001 5.138467e+001 -5.253055e+000 -8.866573e+001
15604800000 -3.497626e+000 -1.755938e+002 -4.712095e+001 5.668753e+001 -4.805744e+001 5.044881e+001 -5.266917e+000 -8.944978e+001
15623543750 -3.494750e+000 -1.761257e+002 -4.725810e+001 5.646117e+001 -4.813503e+001 5.063778e+001 -5.279863e+000 -9.025879e+001
15642287500 -3.488561e+000 -1.766540e+002 -4.737392e+001 5.615932e+001 -4.822554e+001 5.039878e+001 -5.289815e+000 -9.103641e+001
15661031250 -3.484162e+000 -1.771628e+002 -4.750617e+001 5.558632e+001 -4.840231e+001 5.032578e+001 -5.304623e+000 -9.181538e+001
15679775000 -3.480607e+000 -1.777127e+002 -4.760908e+001 5.513451e+001 -4.854153e+001 4.988276e+001 -5.318718e+000 -9.260937e+001
15698518750 -3.475030e+000 -1.782499e+002 -4.764621e+001 5.553228e+001 -4.871338e+001 5.044149e+001 -5.330010e+000 -9.338091e+001
15717262500 -3.471598e+000 -1.787717e+002 -4.778599e+001 5.467485e+001 -4.887489e+001 5.086927e+001 -5.344188e+000 -9.415794e+001
15736006250 -3.468191e+000 -1.793136e+002 -4.796701e+001 5.463126e+001 -4.898785e+001 5.028986e+001 -5.359190e+000 -9.496138e+001
15754750000 -3.462376e+000 -1.798511e+002 -4.811016e+001 5.477062e+001 -4.919817e+001 5.094398e+001 -5.373458e+000 -9.572788e+001
15773493750 -3.460714e+000 1.796223e+002 -4.834480e+001 5.454152e+001 -4.924098e+001 5.145469e+001 -5.387191e+000 -9.651946e+001
15792237500 -3.463026e+000 1.790961e+002 -4.849902e+001 5.497265e+001 -4.940171e+001 5.255202e+001 -5.400715e+000 -9.730275e+001
15810981250 -3.457865e+000 1.785340e+002 -4.849367e+001 5.547151e+001 -4.951649e+001 5.244146e+001 -5.410509e+000 -9.805586e+001
15829725000 -3.451149e+000 1.780353e+002 -4.858787e+001 5.570324e+001 -4.956089e+001 5.327493e+001 -5.425836e+000 -9.881162e+001
15848468750 -3.453293e+000 1.774934e+002 -4.872491e+001 5.587217e+001 -4.972363e+001 5.370472e+001 -5.439612e+000 -9.958865e+001
15867212500 -3.444337e+000 1.769473e+002 -4.878891e+001 5.658140e+001 -4.986127e+001 5.395185e+001 -5.447276e+000 -1.003249e+002
15885956250 -3.443449e+000 1.764600e+002 -4.885296e+001 5.709420e+001 -4.990322e+001 5.555602e+001 -5.466461e+000 -1.010730e+002
15904700000 -3.443851e+000 1.758741e+002 -4.879583e+001 5.863187e+001 -4.984689e+001 5.659975e+001 -5.481172e+000 -1.018505e+002
15923443750 -3.437143e+000 1.753292e+002 -4.881884e+001 5.869032e+001 -4.986495e+001 5.840920e+001 -5.490203e+000 -1.025792e+002
15942187500 -3.434629e+000 1.748307e+002 -4.878227e+001 5.930578e+001 -4.982070e+001 5.979303e+001 -5.511149e+000 -1.033118e+002
15960931250 -3.435464e+000 1.742414e+002 -4.868679e+001 5.941745e+001 -4.979395e+001 6.011745e+001 -5.525566e+000 -1.040879e+002
15979675000 -3.424648e+000 1.737224e+002 -4.856860e+001 6.025626e+001 -4.971503e+001 6.094003e+001 -5.533645e+000 -1.048161e+002
15998418750 -3.426436e+000 1.732149e+002 -4.851879e+001 6.039663e+001 -4.976248e+001 6.216887e+001 -5.551326e+000 -1.055350e+002
16017162500 -3.427730e+000 1.726145e+002 -4.847385e+001 6.067307e+001 -4.963049e+001 6.292907e+001 -5.563236e+000 -1.062764e+002
16035906250 -3.418387e+000 1.720916e+002 -4.836179e+001 6.199917e+001 -4.962425e+001 6.379378e+001 -5.573485e+000 -1.069691e+002
16054650000 -3.418492e+000 1.715680e+002 -4.831540e+001 6.212763e+001 -4.949082e+001 6.396249e+001 -5.592845e+000 -1.077037e+002
16073393750 -3.417630e+000 1.709754e+002 -4.821874e+001 6.293002e+001 -4.942659e+001 6.480025e+001 -5.604296e+000 -1.084461e+002
16092137500 -3.407206e+000 1.704756e+002 -4.803968e+001 6.388353e+001 -4.925889e+001 6.556420e+001 -5.614367e+000 -1.091602e+002
16110881250 -3.410658e+000 1.699558e+002 -4.789051e+001 6.447993e+001 -4.912141e+001 6.658133e+001 -5.631976e+000 -1.098847e+002
16129625000 -3.409040e+000 1.693568e+002 -4.775763e+001 6.393476e+001 -4.887582e+001 6.697701e+001 -5.640192e+000 -1.106052e+002
16148368750 -3.398226e+000 1.688429e+002 -4.763113e+001 6.480025e+001 -4.867235e+001 6.733926e+001 -5.654068e+000 -1.112965e+002
16167112500 -3.400275e+000 1.683047e+002 -4.750111e+001 6.528706e+001 -4.850190e+001 6.842133e+001 -5.670640e+000 -1.120103e+002
16185856250 -3.395989e+000 1.677028e+002 -4.727533e+001 6.561681e+001 -4.822625e+001 6.835007e+001 -5.680021e+000 -1.127345e+002
16204600000 -3.385612e+000 1.672049e+002 -4.704976e+001 6.582660e+001 -4.801050e+001 6.830692e+001 -5.694370e+000 -1.134126e+002
16223343750 -3.386076e+000 1.666434e+002 -4.682004e+001 6.545748e+001 -4.773791e+001 6.850562e+001 -5.711087e+000 -1.141080e+002
16242087500 -3.380929e+000 1.660683e+002 -4.665997e+001 6.559811e+001 -4.754576e+001 6.837072e+001 -5.723309e+000 -1.148178e+002
16260831250 -3.378513e+000 1.655277e+002 -4.650978e+001 6.544135e+001 -4.734748e+001 6.838361e+001 -5.738770e+000 -1.154986e+002
16279575000 -3.377174e+000 1.649490e+002 -4.619602e+001 6.589165e+001 -4.699091e+001 6.825858e+001 -5.754496e+000 -1.161994e+002
16298318750 -3.374226e+000 1.643857e+002 -4.595002e+001 6.615256e+001 -4.672683e+001 6.749695e+001 -5.770789e+000 -1.168942e+002
16317062500 -3.368215e+000 1.638555e+002 -4.575330e+001 6.524532e+001 -4.650791e+001 6.656126e+001 -5.782595e+000 -1.175775e+002
16335806250 -3.370898e+000 1.633067e+002 -4.560727e+001 6.441576e+001 -4.633731e+001 6.584327e+001 -5.794203e+000 -1.182519e+002
16354550000 -3.366086e+000 1.627346e+002 -4.540321e+001 6.405136e+001 -4.609808e+001 6.501388e+001 -5.809923e+000 -1.189263e+002
16373293750 -3.361873e+000 1.621802e+002 -4.524189e+001 6.326514e+001 -4.584751e+001 6.389585e+001 -5.821630e+000 -1.196127e+002
16392037500 -3.360535e+000 1.616333e+002 -4.506998e+001 6.274161e+001 -4.566731e+001 6.294334e+001 -5.832254e+000 -1.202975e+002
16410781250 -3.355241e+000 1.610754e+002 -4.496531e+001 6.187585e+001 -4.544711e+001 6.234334e+001 -5.846529e+000 -1.209700e+002
16429525000 -3.350057e+000 1.605473e+002 -4.481185e+001 6.117085e+001 -4.524160e+001 6.102444e+001 -5.858653e+000 -1.216498e+002
16448268750 -3.350621e+000 1.600151e+002 -4.462384e+001 6.022289e+001 -4.507441e+001 6.000495e+001 -5.868720e+000 -1.223201e+002
16467012500 -3.347419e+000 1.594451e+002 -4.447495e+001 5.883770e+001 -4.483782e+001 5.898347e+001 -5.882580e+000 -1.229765e+002
16485756250 -3.346187e+000 1.588937e+002 -4.432940e+001 5.744148e+001 -4.467755e+001 5.832001e+001 -5.895847e+000 -1.236333e+002
16504500000 -3.342571e+000 1.583307e+002 -4.418607e+001 5.651141e+001 -4.446102e+001 5.709945e+001 -5.907164e+000 -1.243034e+002
16523243750 -3.337251e+000 1.577574e+002 -4.408886e+001 5.517071e+001 -4.432707e+001 5.578768e+001 -5.920666e+000 -1.249494e+002
16541987500 -3.332483e+000 1.572172e+002 -4.401074e+001 5.375798e+001 -4.419451e+001 5.452219e+001 -5.931930e+000 -1.256312e+002
16560731250 -3.332877e+000 1.566526e+002 -4.390941e+001 5.322274e+001 -4.408906e+001 5.308709e+001 -5.940078e+000 -1.263081e+002
16579475000 -3.329823e+000 1.560722e+002 -4.380141e+001 5.192431e+001 -4.400019e+001 5.172915e+001 -5.950841e+000 -1.269632e+002
16598218750 -3.328517e+000 1.555005e+002 -4.363013e+001 5.059962e+001 -4.387395e+001 5.026308e+001 -5.961071e+000 -1.276305e+002
16616962500 -3.325488e+000 1.549330e+002 -4.356718e+001 4.922348e+001 -4.372575e+001 4.921070e+001 -5.970776e+000 -1.282975e+002
16635706250 -3.318902e+000 1.543620e+002 -4.339316e+001 4.763507e+001 -4.362511e+001 4.736610e+001 -5.982980e+000 -1.289591e+002
16654450000 -3.315933e+000 1.538052e+002 -4.337078e+001 4.615151e+001 -4.353984e+001 4.603614e+001 -5.993092e+000 -1.296426e+002
16673193750 -3.314437e+000 1.532327e+002 -4.327650e+001 4.436539e+001 -4.341627e+001 4.503504e+001 -6.002720e+000 -1.303255e+002
16691937500 -3.309948e+000 1.526354e+002 -4.320073e+001 4.285954e+001 -4.334600e+001 4.345672e+001 -6.012526e+000 -1.310017e+002
16710681250 -3.308512e+000 1.520695e+002 -4.315794e+001 4.106438e+001 -4.332422e+001 4.161584e+001 -6.022143e+000 -1.317003e+002
16729425000 -3.306002e+000 1.514745e+002 -4.313897e+001 3.905548e+001 -4.334079e+001 4.038756e+001 -6.029654e+000 -1.323853e+002
16748168750 -3.298103e+000 1.508888e+002 -4.309439e+001 3.740420e+001 -4.327103e+001 3.904799e+001 -6.041291e+000 -1.330825e+002
16766912500 -3.296506e+000 1.503459e+002 -4.309587e+001 3.556947e+001 -4.325138e+001 3.711630e+001 -6.053083e+000 -1.338049e+002
16785656250 -3.298281e+000 1.497303e+002 -4.313736e+001 3.429015e+001 -4.328576e+001 3.527228e+001 -6.060940e+000 -1.345069e+002
16804400000 -3.294677e+000 1.491373e+002 -4.311942e+001 3.276842e+001 -4.329811e+001 3.393333e+001 -6.072849e+000 -1.352087e+002
16823143750 -3.292870e+000 1.485579e+002 -4.318755e+001 3.105834e+001 -4.336209e+001 3.272739e+001 -6.084675e+000 -1.359085e+002
16841887500 -3.288386e+000 1.479306e+002 -4.317323e+001 2.971075e+001 -4.338876e+001 3.131921e+001 -6.095839e+000 -1.366284e+002
16860631250 -3.282051e+000 1.473522e+002 -4.317275e+001 2.805803e+001 -4.342979e+001 2.971383e+001 -6.110550e+000 -1.373469e+002
16879375000 -3.280609e+000 1.467824e+002 -4.316050e+001 2.657757e+001 -4.348620e+001 2.811737e+001 -6.122204e+000 -1.381036e+002
16898118750 -3.279884e+000 1.461745e+002 -4.319306e+001 2.539928e+001 -4.358411e+001 2.693241e+001 -6.133533e+000 -1.388329e+002
16916862500 -3.276593e+000 1.455741e+002 -4.322407e+001 2.417500e+001 -4.366700e+001 2.539752e+001 -6.145783e+000 -1.395629e+002
16935606250 -3.278404e+000 1.449841e+002 -4.328519e+001 2.272485e+001 -4.375298e+001 2.414110e+001 -6.157920e+000 -1.403034e+002
16954350000 -3.275459e+000 1.443746e+002 -4.333862e+001 2.156451e+001 -4.381430e+001 2.293199e+001 -6.172300e+000 -1.410208e+002
16973093750 -3.272153e+000 1.437887e+002 -4.340390e+001 1.996089e+001 -4.391703e+001 2.167296e+001 -6.188782e+000 -1.417580e+002
16991837500 -3.272301e+000 1.432263e+002 -4.345519e+001 1.793906e+001 -4.398497e+001 2.038259e+001 -6.202496e+000 -1.425166e+002
17010581250 -3.274831e+000 1.426237e+002 -4.351209e+001 1.678262e+001 -4.404911e+001 1.871910e+001 -6.215793e+000 -1.432472e+002
17029325000 -3.272306e+000 1.420275e+002 -4.360654e+001 1.515179e+001 -4.416341e+001 1.755048e+001 -6.231694e+000 -1.440023e+002
17048068750 -3.274047e+000 1.414173e+002 -4.373426e+001 1.429249e+001 -4.432787e+001 1.625684e+001 -6.243965e+000 -1.447610e+002
17066812500 -3.273650e+000 1.407835e+002 -4.391438e+001 1.336394e+001 -4.443670e+001 1.516431e+001 -6.258402e+000 -1.454963e+002
17085556250 -3.272193e+000 1.402172e+002 -4.397837e+001 1.243507e+001 -4.457552e+001 1.398166e+001 -6.275180e+000 -1.462591e+002
17104300000 -3.274554e+000 1.396364e+002 -4.409110e+001 1.099221e+001 -4.470367e+001 1.250002e+001 -6.289814e+000 -1.470322e+002
17123043750 -3.277026e+000 1.390275e+002 -4.420502e+001 9.673063e+000 -4.486195e+001 1.164776e+001 -6.300959e+000 -1.477738e+002
17141787500 -3.276739e+000 1.384260e+002 -4.447157e+001 8.377339e+000 -4.505478e+001 1.107606e+001 -6.316354e+000 -1.485287e+002
17160531250 -3.278014e+000 1.378060e+002 -4.463906e+001 7.366327e+000 -4.513732e+001 1.064659e+001 -6.331151e+000 -1.492912e+002
17179275000 -3.277948e+000 1.371703e+002 -4.482028e+001 6.931540e+000 -4.542122e+001 9.927025e+000 -6.343791e+000 -1.500305e+002
17198018750 -3.275988e+000 1.365900e+002 -4.498256e+001 6.343479e+000 -4.564961e+001 9.559767e+000 -6.360562e+000 -1.508042e+002
17216762500 -3.278045e+000 1.360143e+002 -4.509546e+001 5.684196e+000 -4.574706e+001 9.659156e+000 -6.372053e+000 -1.516040e+002
17235506250 -3.279341e+000 1.354009e+002 -4.535328e+001 5.073122e+000 -4.595029e+001 9.396432e+000 -6.382771e+000 -1.523575e+002
17254250000 -3.283162e+000 1.347889e+002 -4.555425e+001 4.585353e+000 -4.618579e+001 9.303746e+000 -6.395972e+000 -1.531463e+002
17272993750 -3.289107e+000 1.341687e+002 -4.583763e+001 4.726178e+000 -4.654387e+001 8.928272e+000 -6.405816e+000 -1.539039e+002
17291737500 -3.286869e+000 1.335334e+002 -4.601245e+001 5.625951e+000 -4.665083e+001 1.012707e+001 -6.415653e+000 -1.546635e+002
17310481250 -3.287906e+000 1.329474e+002 -4.627434e+001 5.810953e+000 -4.694746e+001 1.113200e+001 -6.430305e+000 -1.554442e+002
17329225000 -3.294118e+000 1.323351e+002 -4.642627e+001 6.302652e+000 -4.713705e+001 1.059791e+001 -6.436726e+000 -1.562427e+002
17347968750 -3.296410e+000 1.317238e+002 -4.658442e+001 7.006321e+000 -4.729700e+001 1.137024e+001 -6.444631e+000 -1.570259e+002
17366712500 -3.298037e+000 1.311167e+002 -4.676718e+001 7.295441e+000 -4.745371e+001 1.243621e+001 -6.453414e+000 -1.578379e+002
17385456250 -3.303046e+000 1.304651e+002 -4.685478e+001 7.915677e+000 -4.759058e+001 1.310530e+001 -6.458867e+000 -1.586416e+002
17404200000 -3.299306e+000 1.298408e+002 -4.694619e+001 9.293105e+000 -4.771260e+001 1.356305e+001 -6.466148e+000 -1.594373e+002
17422943750 -3.299825e+000 1.292509e+002 -4.695219e+001 1.080822e+001 -4.793092e+001 1.484467e+001 -6.476824e+000 -1.602453e+002
17441687500 -3.302370e+000 1.286354e+002 -4.705604e+001 1.170426e+001 -4.798038e+001 1.582720e+001 -6.479595e+000 -1.610702e+002
17460431250 -3.305195e+000 1.280155e+002 -4.720762e+001 1.284038e+001 -4.807050e+001 1.710491e+001 -6.486169e+000 -1.618669e+002
17479175000 -3.307747e+000 1.274155e+002 -4.714935e+001 1.383757e+001 -4.804699e+001 1.833642e+001 -6.492652e+000 -1.627137e+002
17497918750 -3.311566e+000 1.267866e+002 -4.709410e+001 1.475501e+001 -4.811132e+001 1.998344e+001 -6.495699e+000 -1.635340e+002
17516662500 -3.309057e+000 1.261409e+002 -4.709670e+001 1.576979e+001 -4.809490e+001 2.050230e+001 -6.502480e+000 -1.643522e+002
17535406250 -3.311131e+000 1.255479e+002 -4.706549e+001 1.793418e+001 -4.807926e+001 2.162834e+001 -6.509558e+000 -1.652092e+002
17554150000 -3.316385e+000 1.249455e+002 -4.708450e+001 1.950539e+001 -4.804157e+001 2.288045e+001 -6.511942e+000 -1.660764e+002
17572893750 -3.321264e+000 1.243252e+002 -4.697133e+001 2.122174e+001 -4.799179e+001 2.432525e+001 -6.517460e+000 -1.669227e+002
17591637500 -3.326974e+000 1.237005e+002 -4.688594e+001 2.257858e+001 -4.792859e+001 2.525146e+001 -6.519681e+000 -1.678059e+002
17610381250 -3.330877e+000 1.230584e+002 -4.677683e+001 2.350396e+001 -4.770527e+001 2.620494e+001 -6.520378e+000 -1.686670e+002
17629125000 -3.330041e+000 1.224308e+002 -4.666846e+001 2.436268e+001 -4.753472e+001 2.742942e+001 -6.523167e+000 -1.695153e+002
17647868750 -3.329906e+000 1.218362e+002 -4.647605e+001 2.515139e+001 -4.744541e+001 2.800805e+001 -6.527322e+000 -1.704132e+002
17666612500 -3.336628e+000 1.212167e+002 -4.625728e+001 2.635580e+001 -4.717156e+001 2.870082e+001 -6.526725e+000 -1.713034e+002
17685356250 -3.341256e+000 1.206235e+002 -4.605095e+001 2.746900e+001 -4.690397e+001 2.875068e+001 -6.530526e+000 -1.721770e+002
17704100000 -3.345847e+000 1.199940e+002 -4.566772e+001 2.722803e+001 -4.651818e+001 2.997456e+001 -6.530674e+000 -1.731031e+002
17722843750 -3.353202e+000 1.193465e+002 -4.545916e+001 2.723363e+001 -4.631683e+001 2.952570e+001 -6.528958e+000 -1.739944e+002
17741587500 -3.352306e+000 1.187275e+002 -4.520859e+001 2.759176e+001 -4.596970e+001 2.944551e+001 -6.529405e+000 -1.748967e+002
17760331250 -3.354504e+000 1.181376e+002 -4.499493e+001 2.716912e+001 -4.564805e+001 3.043654e+001 -6.530980e+000 -1.758374e+002
17779075000 -3.360048e+000 1.175462e+002 -4.469833e+001 2.697619e+001 -4.544362e+001 3.009243e+001 -6.525663e+000 -1.767369e+002
17797818750 -3.366003e+000 1.169157e+002 -4.442577e+001 2.691771e+001 -4.516814e+001 2.985623e+001 -6.528671e+000 -1.776396e+002
17816562500 -3.373330e+000 1.162797e+002 -4.426195e+001 2.720702e+001 -4.492731e+001 2.926004e+001 -6.525678e+000 -1.785862e+002
17835306250 -3.380886e+000 1.156238e+002 -4.403804e+001 2.652504e+001 -4.467898e+001 2.898993e+001 -6.522960e+000 -1.794936e+002
17854050000 -3.381338e+000 1.149841e+002 -4.392461e+001 2.559701e+001 -4.430004e+001 2.797014e+001 -6.527294e+000 1.795658e+002
17872793750 -3.387237e+000 1.143832e+002 -4.369847e+001 2.519691e+001 -4.413632e+001 2.748514e+001 -6.527487e+000 1.785902e+002
17891537500 -3.393794e+000 1.137755e+002 -4.337578e+001 2.460006e+001 -4.389754e+001 2.666126e+001 -6.520648e+000 1.776485e+002
17910281250 -3.400564e+000 1.131439e+002 -4.326933e+001 2.369729e+001 -4.377847e+001 2.589232e+001 -6.521391e+000 1.766990e+002
17929025000 -3.409734e+000 1.125165e+002 -4.311289e+001 2.307749e+001 -4.354638e+001 2.499794e+001 -6.513254e+000 1.757020e+002
17947768750 -3.412731e+000 1.118633e+002 -4.296957e+001 2.222522e+001 -4.333819e+001 2.493169e+001 -6.505513e+000 1.747376e+002
17966512500 -3.412707e+000 1.112207e+002 -4.283577e+001 2.072445e+001 -4.325492e+001 2.423645e+001 -6.503360e+000 1.737670e+002
17985256250 -3.415293e+000 1.106188e+002 -4.261792e+001 1.973707e+001 -4.304382e+001 2.334296e+001 -6.499410e+000 1.727551e+002
18004000000 -3.419487e+000 1.100161e+002 -4.246246e+001 1.855254e+001 -4.282011e+001 2.258299e+001 -6.495090e+000 1.717756e+002
18022743750 -3.424720e+000 1.094021e+002 -4.233389e+001 1.737291e+001 -4.266215e+001 2.150313e+001 -6.495739e+000 1.707721e+002
18041487500 -3.433035e+000 1.087721e+002 -4.222384e+001 1.641870e+001 -4.248605e+001 2.047245e+001 -6.490850e+000 1.697317e+002
18060231250 -3.438000e+000 1.081120e+002 -4.210598e+001 1.560666e+001 -4.238017e+001 1.944570e+001 -6.486027e+000 1.687119e+002
18078975000 -3.440480e+000 1.074731e+002 -4.208592e+001 1.452654e+001 -4.224355e+001 1.826934e+001 -6.485041e+000 1.677087e+002
18097718750 -3.444204e+000 1.068868e+002 -4.198691e+001 1.308138e+001 -4.217591e+001 1.725697e+001 -6.480393e+000 1.666669e+002
18116462500 -3.449085e+000 1.062590e+002 -4.191206e+001 1.192085e+001 -4.207779e+001 1.640836e+001 -6.475682e+000 1.656416e+002
18135206250 -3.456823e+000 1.056467e+002 -4.189766e+001 1.085325e+001 -4.199665e+001 1.520316e+001 -6.476136e+000 1.645868e+002
18153950000 -3.463916e+000 1.050194e+002 -4.186639e+001 9.546837e+000 -4.189568e+001 1.428859e+001 -6.471514e+000 1.635123e+002
18172693750 -3.468353e+000 1.043500e+002 -4.176364e+001 8.445220e+000 -4.183603e+001 1.284073e+001 -6.471108e+000 1.624567e+002
18191437500 -3.469789e+000 1.037080e+002 -4.171690e+001 7.609769e+000 -4.177635e+001 1.180706e+001 -6.470633e+000 1.613846e+002
18210181250 -3.473857e+000 1.030839e+002 -4.168121e+001 6.720009e+000 -4.167028e+001 1.109973e+001 -6.469774e+000 1.602895e+002
18228925000 -3.482635e+000 1.024651e+002 -4.163169e+001 5.891704e+000 -4.161077e+001 1.005795e+001 -6.468397e+000 1.592210e+002
18247668750 -3.487835e+000 1.018548e+002 -4.158416e+001 4.361308e+000 -4.153605e+001 9.185551e+000 -6.470846e+000 1.581193e+002
18266412500 -3.494373e+000 1.012082e+002 -4.157519e+001 3.648124e+000 -4.148235e+001 8.370982e+000 -6.467933e+000 1.570017e+002
18285156250 -3.500844e+000 1.005503e+002 -4.155324e+001 3.150323e+000 -4.146071e+001 7.520932e+000 -6.461310e+000 1.559268e+002
18303900000 -3.503083e+000 9.991138e+001 -4.152798e+001 2.226925e+000 -4.142153e+001 6.738700e+000 -6.463623e+000 1.548152e+002
18322643750 -3.508919e+000 9.929798e+001 -4.150887e+001 1.724570e+000 -4.134740e+001 5.893007e+000 -6.465260e+000 1.536929e+002
18341387500 -3.516999e+000 9.864230e+001 -4.144068e+001 1.206899e+000 -4.122679e+001 4.820271e+000 -6.467297e+000 1.525862e+002
18360131250 -3.522614e+000 9.799018e+001 -4.137883e+001 7.177097e-002 -4.114659e+001 3.622496e+000 -6.474352e+000 1.514592e+002
18378875000 -3.533066e+000 9.733949e+001 -4.129724e+001 -7.142887e-001 -4.111107e+001 2.522476e+000 -6.476010e+000 1.503259e+002
18397618750 -3.540392e+000 9.665056e+001 -4.125560e+001 -1.503403e+000 -4.101638e+001 1.828594e+000 -6.477641e+000 1.492199e+002
18416362500 -3.545412e+000 9.601277e+001 -4.125653e+001 -2.445633e+000 -4.097908e+001 5.865989e-001 -6.482727e+000 1.480987e+002
18435106250 -3.554126e+000 9.536990e+001 -4.120094e+001 -2.978518e+000 -4.093670e+001 -6.513225e-001 -6.484030e+000 1.469487e+002
18453850000 -3.565304e+000 9.470433e+001 -4.112349e+001 -3.536381e+000 -4.086179e+001 -1.473534e+000 -6.485287e+000 1.458270e+002
18472593750 -3.575182e+000 9.404881e+001 -4.106990e+001 -4.505148e+000 -4.083817e+001 -2.191717e+000 -6.491577e+000 1.446800e+002
18491337500 -3.584701e+000 9.336051e+001 -4.097853e+001 -5.169297e+000 -4.073153e+001 -3.141031e+000 -6.493794e+000 1.435273e+002
18510081250 -3.588284e+000 9.266982e+001 -4.091561e+001 -5.783316e+000 -4.067832e+001 -4.235826e+000 -6.498886e+000 1.423924e+002
18528825000 -3.592751e+000 9.200907e+001 -4.085876e+001 -6.259909e+000 -4.064553e+001 -5.343358e+000 -6.506813e+000 1.412198e+002
18547568750 -3.599823e+000 9.134604e+001 -4.076776e+001 -7.320778e+000 -4.055498e+001 -5.652362e+000 -6.512475e+000 1.400568e+002
18566312500 -3.607180e+000 9.067912e+001 -4.072786e+001 -7.829234e+000 -4.050740e+001 -7.039639e+000 -6.516128e+000 1.389230e+002
18585056250 -3.615963e+000 9.001157e+001 -4.066180e+001 -8.677821e+000 -4.044135e+001 -8.142358e+000 -6.524024e+000 1.377329e+002
18603800000 -3.627012e+000 8.930185e+001 -4.059915e+001 -9.540148e+000 -4.039619e+001 -8.653135e+000 -6.524104e+000 1.365655e+002
18622543750 -3.631781e+000 8.861214e+001 -4.057253e+001 -1.009727e+001 -4.032588e+001 -9.755936e+000 -6.529474e+000 1.354196e+002
18641287500 -3.637035e+000 8.793463e+001 -4.054664e+001 -1.083722e+001 -4.028170e+001 -1.067346e+001 -6.535545e+000 1.342195e+002
18660031250 -3.644887e+000 8.727090e+001 -4.054277e+001 -1.178905e+001 -4.023998e+001 -1.168768e+001 -6.535662e+000 1.330278e+002
18678775000 -3.654328e+000 8.658520e+001 -4.050219e+001 -1.266518e+001 -4.019391e+001 -1.242368e+001 -6.541224e+000 1.318438e+002
18697518750 -3.667482e+000 8.592737e+001 -4.044904e+001 -1.365776e+001 -4.014057e+001 -1.357881e+001 -6.546747e+000 1.306269e+002
18716262500 -3.679550e+000 8.522239e+001 -4.037514e+001 -1.482512e+001 -4.007455e+001 -1.434846e+001 -6.549629e+000 1.293854e+002
18735006250 -3.684135e+000 8.451800e+001 -4.031835e+001 -1.599110e+001 -4.003504e+001 -1.529520e+001 -6.554933e+000 1.281873e+002
18753750000 -3.691318e+000 8.384331e+001 -4.023328e+001 -1.702916e+001 -3.998716e+001 -1.617061e+001 -6.558722e+000 1.269258e+002
18772493750 -3.701740e+000 8.318123e+001 -4.025338e+001 -1.818093e+001 -3.996454e+001 -1.684009e+001 -6.557963e+000 1.256894e+002
18791237500 -3.711197e+000 8.251215e+001 -4.024319e+001 -1.869525e+001 -3.993505e+001 -1.764292e+001 -6.560200e+000 1.244361e+002
18809981250 -3.724773e+000 8.182728e+001 -4.023450e+001 -1.956315e+001 -3.986421e+001 -1.880364e+001 -6.563614e+000 1.231484e+002
18828725000 -3.735891e+000 8.113134e+001 -4.015915e+001 -2.033865e+001 -3.984828e+001 -1.982381e+001 -6.561482e+000 1.218878e+002
18847468750 -3.742104e+000 8.041782e+001 -4.008298e+001 -2.101721e+001 -3.981052e+001 -2.055732e+001 -6.567194e+000 1.206099e+002
18866212500 -3.749837e+000 7.974482e+001 -4.005037e+001 -2.218032e+001 -3.975681e+001 -2.151329e+001 -6.568461e+000 1.192921e+002
18884956250 -3.757756e+000 7.907036e+001 -4.001408e+001 -2.329480e+001 -3.973145e+001 -2.245621e+001 -6.568082e+000 1.179926e+002
18903700000 -3.766052e+000 7.841914e+001 -3.996850e+001 -2.402863e+001 -3.972406e+001 -2.346578e+001 -6.571187e+000 1.166642e+002
18922443750 -3.780498e+000 7.775941e+001 -3.990356e+001 -2.481704e+001 -3.968228e+001 -2.447207e+001 -6.569398e+000 1.153207e+002
18941187500 -3.794458e+000 7.704511e+001 -3.985497e+001 -2.563504e+001 -3.962190e+001 -2.535765e+001 -6.562940e+000 1.140020e+002
18959931250 -3.801823e+000 7.633401e+001 -3.981612e+001 -2.685398e+001 -3.955279e+001 -2.596962e+001 -6.566436e+000 1.126656e+002
18978675000 -3.811837e+000 7.565081e+001 -3.974060e+001 -2.752181e+001 -3.954747e+001 -2.724427e+001 -6.562973e+000 1.112673e+002
18997418750 -3.821519e+000 7.496073e+001 -3.968687e+001 -2.837172e+001 -3.950301e+001 -2.799938e+001 -6.560840e+000 1.099027e+002
19016162500 -3.831678e+000 7.428508e+001 -3.963518e+001 -2.948658e+001 -3.952108e+001 -2.896500e+001 -6.565380e+000 1.085193e+002
19034906250 -3.847908e+000 7.360654e+001 -3.963351e+001 -3.037571e+001 -3.946975e+001 -3.008489e+001 -6.565481e+000 1.071079e+002
19053650000 -3.860574e+000 7.287698e+001 -3.959668e+001 -3.144804e+001 -3.947268e+001 -3.084780e+001 -6.563029e+000 1.057066e+002
19072393750 -3.868532e+000 7.217822e+001 -3.954213e+001 -3.251949e+001 -3.944302e+001 -3.203234e+001 -6.570557e+000 1.042914e+002
19091137500 -3.879842e+000 7.147425e+001 -3.948904e+001 -3.349518e+001 -3.938818e+001 -3.282334e+001 -6.569699e+000 1.028313e+002
19109881250 -3.887605e+000 7.077936e+001 -3.946733e+001 -3.443254e+001 -3.933971e+001 -3.371917e+001 -6.569066e+000 1.013963e+002
19128625000 -3.900203e+000 7.008432e+001 -3.941806e+001 -3.549543e+001 -3.931010e+001 -3.435587e+001 -6.574632e+000 9.994221e+001
19147368750 -3.916753e+000 6.937117e+001 -3.936864e+001 -3.620029e+001 -3.928666e+001 -3.521443e+001 -6.577276e+000 9.849843e+001
19166112500 -3.926238e+000 6.862525e+001 -3.930644e+001 -3.702384e+001 -3.924414e+001 -3.604099e+001 -6.577305e+000 9.707577e+001
19184856250 -3.933761e+000 6.791442e+001 -3.931441e+001 -3.812115e+001 -3.922334e+001 -3.708471e+001 -6.586201e+000 9.562592e+001
19203600000 -3.945675e+000 6.722350e+001 -3.922284e+001 -3.909276e+001 -3.917482e+001 -3.869589e+001 -6.589272e+000 9.413985e+001
19222343750 -3.954267e+000 6.650529e+001 -3.918116e+001 -4.040815e+001 -3.914702e+001 -3.988351e+001 -6.592557e+000 9.270680e+001
19241087500 -3.964043e+000 6.582153e+001 -3.916094e+001 -4.157279e+001 -3.912284e+001 -4.068371e+001 -6.597847e+000 9.123151e+001
19259831250 -3.979229e+000 6.510996e+001 -3.917771e+001 -4.252491e+001 -3.905859e+001 -4.167321e+001 -6.599281e+000 8.974443e+001
19278575000 -3.984174e+000 6.436284e+001 -3.919495e+001 -4.346606e+001 -3.904757e+001 -4.274445e+001 -6.600396e+000 8.829536e+001
19297318750 -3.992111e+000 6.366057e+001 -3.916955e+001 -4.454143e+001 -3.902386e+001 -4.373329e+001 -6.605336e+000 8.681252e+001
19316062500 -4.003942e+000 6.295324e+001 -3.915735e+001 -4.552743e+001 -3.899596e+001 -4.495188e+001 -6.605569e+000 8.533514e+001
19334806250 -4.011716e+000 6.222692e+001 -3.918963e+001 -4.672155e+001 -3.900591e+001 -4.619608e+001 -6.606958e+000 8.390651e+001
19353550000 -4.022355e+000 6.152837e+001 -3.924355e+001 -4.795995e+001 -3.901410e+001 -4.716865e+001 -6.608853e+000 8.242618e+001
19372293750 -4.039056e+000 6.079261e+001 -3.925559e+001 -4.892721e+001 -3.901670e+001 -4.796747e+001 -6.606461e+000 8.098515e+001
19391037500 -4.044369e+000 6.005186e+001 -3.928362e+001 -4.976434e+001 -3.902184e+001 -4.912708e+001 -6.603708e+000 7.954305e+001
19409781250 -4.054255e+000 5.933750e+001 -3.931843e+001 -5.103829e+001 -3.901660e+001 -5.026222e+001 -6.605469e+000 7.807463e+001
19428525000 -4.065688e+000 5.862244e+001 -3.929754e+001 -5.214408e+001 -3.903355e+001 -5.123853e+001 -6.597316e+000 7.660822e+001
19447268750 -4.073807e+000 5.791043e+001 -3.935803e+001 -5.275183e+001 -3.901777e+001 -5.229176e+001 -6.590121e+000 7.516198e+001
19466012500 -4.087044e+000 5.721175e+001 -3.936230e+001 -5.341671e+001 -3.905347e+001 -5.350275e+001 -6.584111e+000 7.370132e+001
19484756250 -4.100299e+000 5.646453e+001 -3.934890e+001 -5.420973e+001 -3.906130e+001 -5.454457e+001 -6.567925e+000 7.226250e+001
19503500000 -4.108560e+000 5.572280e+001 -3.939983e+001 -5.541568e+001 -3.906347e+001 -5.528398e+001 -6.553866e+000 7.085540e+001
19522243750 -4.116110e+000 5.503316e+001 -3.942560e+001 -5.622547e+001 -3.910173e+001 -5.619883e+001 -6.544717e+000 6.939806e+001
19540987500 -4.129853e+000 5.431673e+001 -3.940426e+001 -5.718324e+001 -3.913095e+001 -5.718665e+001 -6.518890e+000 6.795692e+001
19559731250 -4.135792e+000 5.361699e+001 -3.944437e+001 -5.831039e+001 -3.910154e+001 -5.805933e+001 -6.497368e+000 6.652365e+001
19578475000 -4.149663e+000 5.291706e+001 -3.954765e+001 -5.938906e+001 -3.912220e+001 -5.898340e+001 -6.471849e+000 6.504299e+001
19597218750 -4.164513e+000 5.214547e+001 -3.958648e+001 -5.990590e+001 -3.912228e+001 -5.998910e+001 -6.439168e+000 6.356457e+001
19615962500 -4.170775e+000 5.138374e+001 -3.956759e+001 -6.078041e+001 -3.910872e+001 -6.082983e+001 -6.408460e+000 6.208492e+001
19634706250 -4.180891e+000 5.064988e+001 -3.959874e+001 -6.165254e+001 -3.919007e+001 -6.138692e+001 -6.377402e+000 6.060120e+001
19653450000 -4.191122e+000 4.992255e+001 -3.958631e+001 -6.218775e+001 -3.918584e+001 -6.197800e+001 -6.339437e+000 5.909480e+001
19672193750 -4.202111e+000 4.921432e+001 -3.957480e+001 -6.287606e+001 -3.920018e+001 -6.242916e+001 -6.307118e+000 5.761392e+001
19690937500 -4.219969e+000 4.849263e+001 -3.953852e+001 -6.391023e+001 -3.923896e+001 -6.325880e+001 -6.268448e+000 5.608529e+001
19709681250 -4.237359e+000 4.770342e+001 -3.948167e+001 -6.480822e+001 -3.920508e+001 -6.412819e+001 -6.225783e+000 5.457991e+001
19728425000 -4.242143e+000 4.694835e+001 -3.948904e+001 -6.545310e+001 -3.922185e+001 -6.502271e+001 -6.188693e+000 5.305876e+001
19747168750 -4.254186e+000 4.620897e+001 -3.950574e+001 -6.628153e+001 -3.926514e+001 -6.542921e+001 -6.146148e+000 5.147973e+001
19765912500 -4.264214e+000 4.545980e+001 -3.948941e+001 -6.696732e+001 -3.921227e+001 -6.590455e+001 -6.099528e+000 4.992717e+001
19784656250 -4.276043e+000 4.475091e+001 -3.950618e+001 -6.771729e+001 -3.924138e+001 -6.671561e+001 -6.058024e+000 4.836034e+001
19803400000 -4.287019e+000 4.404353e+001 -3.950159e+001 -6.892568e+001 -3.931484e+001 -6.783098e+001 -6.015563e+000 4.673641e+001
19822143750 -4.306179e+000 4.324185e+001 -3.946274e+001 -6.973045e+001 -3.936347e+001 -6.850938e+001 -5.968717e+000 4.511135e+001
19840887500 -4.313026e+000 4.246824e+001 -3.949679e+001 -7.063263e+001 -3.939235e+001 -6.933095e+001 -5.917354e+000 4.354525e+001
19859631250 -4.324582e+000 4.173999e+001 -3.954027e+001 -7.144687e+001 -3.945555e+001 -7.017850e+001 -5.879309e+000 4.191925e+001
19878375000 -4.333921e+000 4.099742e+001 -3.948497e+001 -7.216772e+001 -3.940530e+001 -7.069111e+001 -5.827850e+000 4.030532e+001
19897118750 -4.345919e+000 4.025730e+001 -3.952710e+001 -7.307603e+001 -3.936419e+001 -7.126334e+001 -5.785204e+000 3.868324e+001
19915862500 -4.360672e+000 3.950049e+001 -3.959113e+001 -7.432427e+001 -3.933533e+001 -7.286320e+001 -5.739122e+000 3.697144e+001
19934606250 -4.372330e+000 3.870275e+001 -3.954998e+001 -7.484035e+001 -3.936774e+001 -7.405527e+001 -5.692755e+000 3.532399e+001
19953350000 -4.384394e+000 3.792010e+001 -3.955517e+001 -7.523600e+001 -3.925909e+001 -7.534557e+001 -5.653150e+000 3.366015e+001
19972093750 -4.390586e+000 3.713850e+001 -3.956682e+001 -7.577388e+001 -3.919682e+001 -7.631570e+001 -5.609941e+000 3.191693e+001
19990837500 -4.397452e+000 3.638101e+001 -3.953335e+001 -7.618362e+001 -3.917401e+001 -7.718967e+001 -5.564586e+000 3.025670e+001
20009581250 -4.407191e+000 3.563972e+001 -3.939177e+001 -7.694637e+001 -3.921085e+001 -7.816287e+001 -5.527835e+000 2.858701e+001
20028325000 -4.419863e+000 3.487831e+001 -3.937165e+001 -7.813513e+001 -3.921090e+001 -7.917549e+001 -5.487700e+000 2.686114e+001
20047068750 -4.430003e+000 3.410943e+001 -3.935910e+001 -7.883785e+001 -3.923554e+001 -8.004514e+001 -5.448844e+000 2.520219e+001
20065812500 -4.436885e+000 3.333725e+001 -3.924089e+001 -7.970087e+001 -3.918935e+001 -8.112579e+001 -5.414808e+000 2.352259e+001
20084556250 -4.443938e+000 3.256917e+001 -3.924638e+001 -8.075378e+001 -3.919603e+001 -8.215355e+001 -5.374433e+000 2.179626e+001
20103300000 -4.452937e+000 3.182636e+001 -3.930443e+001 -8.139713e+001 -3.921406e+001 -8.370737e+001 -5.331913e+000 2.009140e+001
20122043750 -4.468306e+000 3.110262e+001 -3.941196e+001 -8.171815e+001 -3.918714e+001 -8.482770e+001 -5.298079e+000 1.841273e+001
20140787500 -4.478136e+000 3.034465e+001 -3.940950e+001 -8.245418e+001 -3.919354e+001 -8.571694e+001 -5.258364e+000 1.669377e+001
20159531250 -4.493503e+000 2.953905e+001 -3.939431e+001 -8.379774e+001 -3.924181e+001 -8.677757e+001 -5.223536e+000 1.504001e+001
20178275000 -4.498634e+000 2.873601e+001 -3.933486e+001 -8.470582e+001 -3.926173e+001 -8.807596e+001 -5.195724e+000 1.333955e+001
20197018750 -4.504484e+000 2.795814e+001 -3.934721e+001 -8.512098e+001 -3.926742e+001 -8.976564e+001 -5.161971e+000 1.161237e+001
20215762500 -4.514214e+000 2.721776e+001 -3.931596e+001 -8.623629e+001 -3.921340e+001 -9.087627e+001 -5.130658e+000 9.968420e+000
20234506250 -4.533700e+000 2.644666e+001 -3.927339e+001 -8.684241e+001 -3.916500e+001 -9.187418e+001 -5.102649e+000 8.287849e+000
20253250000 -4.541191e+000 2.566223e+001 -3.928480e+001 -8.807099e+001 -3.916292e+001 -9.339361e+001 -5.071467e+000 6.640339e+000
20271993750 -4.550861e+000 2.489176e+001 -3.926318e+001 -8.871938e+001 -3.917300e+001 -9.425587e+001 -5.050921e+000 4.968586e+000
20290737500 -4.556614e+000 2.408367e+001 -3.927309e+001 -8.923917e+001 -3.913031e+001 -9.496648e+001 -5.022376e+000 3.275267e+000
20309481250 -4.562019e+000 2.328520e+001 -3.925640e+001 -9.052493e+001 -3.911423e+001 -9.662755e+001 -4.997490e+000 1.588569e+000
20328225000 -4.569555e+000 2.258226e+001 -3.914524e+001 -9.199833e+001 -3.913698e+001 -9.797038e+001 -4.970366e+000 -6.654818e-002
20346968750 -4.586081e+000 2.184873e+001 -3.911699e+001 -9.270249e+001 -3.913515e+001 -9.815839e+001 -4.960588e+000 -1.697856e+000
20365712500 -4.599060e+000 2.106333e+001 -3.921726e+001 -9.410468e+001 -3.906887e+001 -1.001365e+002 -4.939051e+000 -3.380771e+000
20384456250 -4.606306e+000 2.027803e+001 -3.916129e+001 -9.524095e+001 -3.917499e+001 -1.006685e+002 -4.916542e+000 -5.006106e+000
20403200000 -4.618200e+000 1.949343e+001 -3.928307e+001 -9.669717e+001 -3.929381e+001 -1.016327e+002 -4.907382e+000 -6.602985e+000
20421943750 -4.623257e+000 1.869524e+001 -3.932067e+001 -9.818909e+001 -3.931782e+001 -1.029132e+002 -4.890477e+000 -8.269256e+000
20440687500 -4.633358e+000 1.797478e+001 -3.935917e+001 -9.957478e+001 -3.940729e+001 -1.039974e+002 -4.874446e+000 -9.856744e+000
20459431250 -4.650159e+000 1.722675e+001 -3.940575e+001 -1.003222e+002 -3.949644e+001 -1.052977e+002 -4.869596e+000 -1.145123e+001
20478175000 -4.665045e+000 1.642155e+001 -3.943933e+001 -1.014623e+002 -3.961362e+001 -1.068538e+002 -4.856760e+000 -1.308565e+001
20496918750 -4.672873e+000 1.562733e+001 -3.952054e+001 -1.026313e+002 -3.963962e+001 -1.075198e+002 -4.843709e+000 -1.469405e+001
20515662500 -4.681981e+000 1.482118e+001 -3.955096e+001 -1.036127e+002 -3.971713e+001 -1.087534e+002 -4.841497e+000 -1.630784e+001
20534406250 -4.683197e+000 1.404672e+001 -3.959652e+001 -1.048276e+002 -3.983847e+001 -1.099645e+002 -4.833220e+000 -1.791227e+001
20553150000 -4.683388e+000 1.329393e+001 -3.960152e+001 -1.067701e+002 -3.990691e+001 -1.110714e+002 -4.830828e+000 -1.947203e+001
20571893750 -4.701699e+000 1.251782e+001 -3.972127e+001 -1.079641e+002 -3.999563e+001 -1.127587e+002 -4.836863e+000 -2.104984e+001
20590637500 -4.714326e+000 1.171483e+001 -3.978730e+001 -1.085952e+002 -4.009367e+001 -1.141069e+002 -4.832114e+000 -2.263380e+001
20609381250 -4.722078e+000 1.092474e+001 -3.985648e+001 -1.095465e+002 -4.017023e+001 -1.155045e+002 -4.831719e+000 -2.416581e+001
20628125000 -4.729704e+000 1.009602e+001 -3.996777e+001 -1.117478e+002 -4.042376e+001 -1.161672e+002 -4.834889e+000 -2.570349e+001
20646868750 -4.725918e+000 9.299162e+000 -4.010247e+001 -1.128225e+002 -4.049323e+001 -1.169748e+002 -4.835668e+000 -2.722977e+001
20665612500 -4.732979e+000 8.578767e+000 -4.019886e+001 -1.142047e+002 -4.054181e+001 -1.173497e+002 -4.840354e+000 -2.872364e+001
20684356250 -4.748070e+000 7.797888e+000 -4.039089e+001 -1.152560e+002 -4.062986e+001 -1.179118e+002 -4.848168e+000 -3.023614e+001
20703100000 -4.759758e+000 6.986013e+000 -4.048206e+001 -1.164208e+002 -4.082038e+001 -1.185400e+002 -4.850694e+000 -3.171541e+001
20721843750 -4.769575e+000 6.155082e+000 -4.074834e+001 -1.176661e+002 -4.102997e+001 -1.193634e+002 -4.858777e+000 -3.316160e+001
20740587500 -4.775621e+000 5.333651e+000 -4.091004e+001 -1.188623e+002 -4.131897e+001 -1.196678e+002 -4.867768e+000 -3.458694e+001
20759331250 -4.774573e+000 4.532891e+000 -4.110818e+001 -1.192154e+002 -4.150798e+001 -1.191286e+002 -4.866505e+000 -3.597519e+001
20778075000 -4.779801e+000 3.796881e+000 -4.113138e+001 -1.197393e+002 -4.163624e+001 -1.196859e+002 -4.865729e+000 -3.734827e+001
20796818750 -4.790376e+000 2.994934e+000 -4.129395e+001 -1.198736e+002 -4.188749e+001 -1.193427e+002 -4.864804e+000 -3.872137e+001
20815562500 -4.798292e+000 2.174766e+000 -4.144504e+001 -1.201374e+002 -4.208464e+001 -1.195541e+002 -4.860209e+000 -4.006626e+001
20834306250 -4.804502e+000 1.357314e+000 -4.137448e+001 -1.202260e+002 -4.227936e+001 -1.204652e+002 -4.859029e+000 -4.142495e+001
20853050000 -4.810428e+000 5.420293e-001 -4.153787e+001 -1.208933e+002 -4.240247e+001 -1.214787e+002 -4.852274e+000 -4.277529e+001
20871793750 -4.811070e+000 -2.558157e-001 -4.168004e+001 -1.208931e+002 -4.241317e+001 -1.213202e+002 -4.842712e+000 -4.410610e+001
20890537500 -4.817936e+000 -1.005555e+000 -4.177386e+001 -1.215305e+002 -4.252757e+001 -1.219466e+002 -4.837988e+000 -4.545052e+001
20909281250 -4.827812e+000 -1.806481e+000 -4.200620e+001 -1.223841e+002 -4.252580e+001 -1.219929e+002 -4.826287e+000 -4.677273e+001
20928025000 -4.838571e+000 -2.608955e+000 -4.226053e+001 -1.226041e+002 -4.266092e+001 -1.226688e+002 -4.812317e+000 -4.804928e+001
20946768750 -4.848508e+000 -3.431444e+000 -4.242176e+001 -1.225730e+002 -4.276787e+001 -1.231160e+002 -4.803131e+000 -4.933438e+001
20965512500 -4.852665e+000 -4.273839e+000 -4.242710e+001 -1.229154e+002 -4.287163e+001 -1.230489e+002 -4.785829e+000 -5.062195e+001
20984256250 -4.856349e+000 -5.047097e+000 -4.265059e+001 -1.230471e+002 -4.299717e+001 -1.231170e+002 -4.768100e+000 -5.191703e+001
21003000000 -4.863595e+000 -5.807241e+000 -4.273292e+001 -1.233436e+002 -4.317841e+001 -1.231299e+002 -4.752428e+000 -5.324407e+001
21021743750 -4.869709e+000 -6.622162e+000 -4.282735e+001 -1.238579e+002 -4.317014e+001 -1.231247e+002 -4.729638e+000 -5.456234e+001
21040487500 -4.883588e+000 -7.410575e+000 -4.295016e+001 -1.239761e+002 -4.324334e+001 -1.224707e+002 -4.709294e+000 -5.584830e+001
21059231250 -4.892439e+000 -8.220706e+000 -4.288353e+001 -1.233796e+002 -4.319717e+001 -1.223148e+002 -4.692816e+000 -5.719358e+001
21077975000 -4.898181e+000 -9.052190e+000 -4.284560e+001 -1.236582e+002 -4.327617e+001 -1.224668e+002 -4.671188e+000 -5.854333e+001
21096718750 -4.898365e+000 -9.845953e+000 -4.293907e+001 -1.230976e+002 -4.335053e+001 -1.233801e+002 -4.649029e+000 -5.986820e+001
21115462500 -4.906857e+000 -1.058943e+001 -4.283558e+001 -1.231459e+002 -4.344025e+001 -1.228038e+002 -4.630587e+000 -6.122153e+001
21134206250 -4.916706e+000 -1.138262e+001 -4.290543e+001 -1.228804e+002 -4.339772e+001 -1.230174e+002 -4.608845e+000 -6.257287e+001
21152950000 -4.923740e+000 -1.217823e+001 -4.274906e+001 -1.238233e+002 -4.331115e+001 -1.238347e+002 -4.587706e+000 -6.393195e+001
21171693750 -4.929050e+000 -1.300671e+001 -4.287648e+001 -1.225779e+002 -4.315945e+001 -1.233156e+002 -4.566783e+000 -6.532732e+001
21190437500 -4.932662e+000 -1.383724e+001 -4.286531e+001 -1.223749e+002 -4.310624e+001 -1.249242e+002 -4.554029e+000 -6.672269e+001
21209181250 -4.935322e+000 -1.462111e+001 -4.291581e+001 -1.231196e+002 -4.314400e+001 -1.250154e+002 -4.547245e+000 -6.809930e+001
21227925000 -4.944650e+000 -1.537719e+001 -4.281510e+001 -1.235491e+002 -4.304796e+001 -1.249298e+002 -4.545672e+000 -6.955501e+001
21246668750 -4.953033e+000 -1.616982e+001 -4.279290e+001 -1.245731e+002 -4.296703e+001 -1.260054e+002 -4.543402e+000 -7.096294e+001
21265412500 -4.960934e+000 -1.697620e+001 -4.281346e+001 -1.244020e+002 -4.287646e+001 -1.255043e+002 -4.543315e+000 -7.237006e+001
21284156250 -4.966389e+000 -1.782095e+001 -4.281177e+001 -1.246413e+002 -4.287848e+001 -1.251356e+002 -4.549494e+000 -7.377051e+001
21302900000 -4.964072e+000 -1.863622e+001 -4.275077e+001 -1.252963e+002 -4.285338e+001 -1.253281e+002 -4.559519e+000 -7.515545e+001
21321643750 -4.967739e+000 -1.940439e+001 -4.279071e+001 -1.256662e+002 -4.278046e+001 -1.250139e+002 -4.569386e+000 -7.650732e+001
21340387500 -4.973575e+000 -2.017392e+001 -4.273441e+001 -1.246624e+002 -4.284185e+001 -1.248491e+002 -4.584155e+000 -7.787772e+001
21359131250 -4.976826e+000 -2.098052e+001 -4.262310e+001 -1.251123e+002 -4.274869e+001 -1.250682e+002 -4.605268e+000 -7.921951e+001
21377875000 -4.982435e+000 -2.180235e+001 -4.252591e+001 -1.258428e+002 -4.276942e+001 -1.250806e+002 -4.629936e+000 -8.053331e+001
21396618750 -4.987946e+000 -2.264696e+001 -4.258145e+001 -1.262686e+002 -4.266821e+001 -1.254038e+002 -4.654291e+000 -8.184435e+001
21415362500 -4.988477e+000 -2.346231e+001 -4.240428e+001 -1.267932e+002 -4.256473e+001 -1.259665e+002 -4.682446e+000 -8.309016e+001
21434106250 -4.988651e+000 -2.422261e+001 -4.234497e+001 -1.267898e+002 -4.248585e+001 -1.248275e+002 -4.712409e+000 -8.430489e+001
21452850000 -4.993758e+000 -2.497197e+001 -4.230996e+001 -1.270853e+002 -4.240355e+001 -1.256508e+002 -4.746020e+000 -8.552393e+001
21471593750 -4.997007e+000 -2.579339e+001 -4.223816e+001 -1.277109e+002 -4.231350e+001 -1.261840e+002 -4.780781e+000 -8.669324e+001
21490337500 -5.005733e+000 -2.661477e+001 -4.233766e+001 -1.279143e+002 -4.241515e+001 -1.264026e+002 -4.815734e+000 -8.781819e+001
21509081250 -5.007176e+000 -2.746687e+001 -4.235957e+001 -1.287963e+002 -4.241451e+001 -1.266169e+002 -4.844234e+000 -8.893557e+001
21527825000 -5.004023e+000 -2.828761e+001 -4.238036e+001 -1.299021e+002 -4.246371e+001 -1.267171e+002 -4.877705e+000 -9.003220e+001
21546568750 -5.002458e+000 -2.907998e+001 -4.244012e+001 -1.302885e+002 -4.244956e+001 -1.276340e+002 -4.910828e+000 -9.109574e+001
21565312500 -5.006065e+000 -2.985533e+001 -4.247793e+001 -1.308408e+002 -4.241990e+001 -1.280458e+002 -4.940597e+000 -9.215116e+001
21584056250 -5.014401e+000 -3.066296e+001 -4.250483e+001 -1.308201e+002 -4.234340e+001 -1.279016e+002 -4.975253e+000 -9.313031e+001
21602800000 -5.022556e+000 -3.148175e+001 -4.242826e+001 -1.316223e+002 -4.245184e+001 -1.293016e+002 -5.008839e+000 -9.412850e+001
21621543750 -5.016718e+000 -3.230610e+001 -4.236017e+001 -1.320998e+002 -4.246579e+001 -1.290634e+002 -5.038367e+000 -9.510537e+001
21640287500 -5.010757e+000 -3.312748e+001 -4.240966e+001 -1.323217e+002 -4.246649e+001 -1.296734e+002 -5.063616e+000 -9.602515e+001
21659031250 -5.015263e+000 -3.393162e+001 -4.229673e+001 -1.331882e+002 -4.246465e+001 -1.306354e+002 -5.084207e+000 -9.693250e+001
21677775000 -5.018602e+000 -3.472268e+001 -4.236931e+001 -1.339482e+002 -4.245295e+001 -1.313357e+002 -5.103237e+000 -9.787490e+001
21696518750 -5.023066e+000 -3.552750e+001 -4.238914e+001 -1.357362e+002 -4.246385e+001 -1.319757e+002 -5.122799e+000 -9.873388e+001
21715262500 -5.028687e+000 -3.636125e+001 -4.235871e+001 -1.361599e+002 -4.244305e+001 -1.324986e+002 -5.141577e+000 -9.959039e+001
21734006250 -5.025468e+000 -3.720879e+001 -4.237048e+001 -1.371064e+002 -4.247377e+001 -1.329682e+002 -5.152964e+000 -1.004727e+002
21752750000 -5.017654e+000 -3.801383e+001 -4.230128e+001 -1.377655e+002 -4.246850e+001 -1.340190e+002 -5.164409e+000 -1.013233e+002
21771493750 -5.018468e+000 -3.879258e+001 -4.224248e+001 -1.400889e+002 -4.247979e+001 -1.346711e+002 -5.176099e+000 -1.021560e+002
21790237500 -5.024743e+000 -3.957803e+001 -4.219793e+001 -1.411519e+002 -4.242578e+001 -1.351360e+002 -5.182129e+000 -1.030196e+002
21808981250 -5.032692e+000 -4.036823e+001 -4.223375e+001 -1.413902e+002 -4.232807e+001 -1.349487e+002 -5.182132e+000 -1.038637e+002
21827725000 -5.034132e+000 -4.122885e+001 -4.231115e+001 -1.414169e+002 -4.236091e+001 -1.351843e+002 -5.183990e+000 -1.046908e+002
21846468750 -5.025310e+000 -4.209223e+001 -4.232362e+001 -1.415640e+002 -4.235174e+001 -1.354186e+002 -5.181040e+000 -1.055597e+002
21865212500 -5.019183e+000 -4.289099e+001 -4.236361e+001 -1.423197e+002 -4.226474e+001 -1.367973e+002 -5.179298e+000 -1.063975e+002
21883956250 -5.019914e+000 -4.368071e+001 -4.224895e+001 -1.435401e+002 -4.234925e+001 -1.357049e+002 -5.177319e+000 -1.072550e+002
21902700000 -5.018821e+000 -4.446472e+001 -4.229940e+001 -1.439726e+002 -4.250394e+001 -1.362171e+002 -5.163289e+000 -1.081353e+002
21921443750 -5.023544e+000 -4.527103e+001 -4.219575e+001 -1.450217e+002 -4.221008e+001 -1.369733e+002 -5.151603e+000 -1.090013e+002
21940187500 -5.028243e+000 -4.610349e+001 -4.218645e+001 -1.449342e+002 -4.221561e+001 -1.375775e+002 -5.143774e+000 -1.098587e+002
21958931250 -5.024276e+000 -4.695449e+001 -4.204947e+001 -1.450717e+002 -4.210584e+001 -1.384356e+002 -5.132388e+000 -1.107179e+002
21977675000 -5.022177e+000 -4.772957e+001 -4.191212e+001 -1.457227e+002 -4.209236e+001 -1.396023e+002 -5.122170e+000 -1.116071e+002
21996418750 -5.020122e+000 -4.852776e+001 -4.183963e+001 -1.461800e+002 -4.202174e+001 -1.409183e+002 -5.116825e+000 -1.125114e+002
22015162500 -5.021268e+000 -4.930214e+001 -4.191383e+001 -1.463997e+002 -4.197113e+001 -1.418485e+002 -5.097344e+000 -1.134151e+002
22033906250 -5.028065e+000 -5.010497e+001 -4.206174e+001 -1.484398e+002 -4.183718e+001 -1.424520e+002 -5.083544e+000 -1.142768e+002
22052650000 -5.035723e+000 -5.096777e+001 -4.203932e+001 -1.502201e+002 -4.162633e+001 -1.436745e+002 -5.071041e+000 -1.152160e+002
22071393750 -5.030412e+000 -5.179675e+001 -4.194513e+001 -1.512456e+002 -4.168356e+001 -1.449003e+002 -5.055636e+000 -1.161606e+002
22090137500 -5.021333e+000 -5.255307e+001 -4.197058e+001 -1.513387e+002 -4.159454e+001 -1.447823e+002 -5.046225e+000 -1.170785e+002
22108881250 -5.016160e+000 -5.333337e+001 -4.183515e+001 -1.520783e+002 -4.145869e+001 -1.454287e+002 -5.034184e+000 -1.180185e+002
22127625000 -5.020936e+000 -5.411731e+001 -4.186737e+001 -1.521413e+002 -4.137246e+001 -1.466436e+002 -5.016772e+000 -1.189795e+002
22146368750 -5.023921e+000 -5.492034e+001 -4.177025e+001 -1.529062e+002 -4.147509e+001 -1.477905e+002 -5.004227e+000 -1.199382e+002
22165112500 -5.024151e+000 -5.577325e+001 -4.181796e+001 -1.530709e+002 -4.132243e+001 -1.496181e+002 -4.989845e+000 -1.209136e+002
22183856250 -5.019786e+000 -5.657607e+001 -4.183437e+001 -1.546308e+002 -4.137218e+001 -1.501904e+002 -4.975259e+000 -1.218653e+002
22202600000 -5.016016e+000 -5.735716e+001 -4.176893e+001 -1.550227e+002 -4.131702e+001 -1.506122e+002 -4.962332e+000 -1.228766e+002
22221343750 -5.010493e+000 -5.812964e+001 -4.173120e+001 -1.553079e+002 -4.141688e+001 -1.519782e+002 -4.945860e+000 -1.239150e+002
22240087500 -5.007894e+000 -5.889125e+001 -4.161211e+001 -1.562026e+002 -4.144181e+001 -1.539602e+002 -4.927156e+000 -1.249158e+002
22258831250 -5.013921e+000 -5.964756e+001 -4.142896e+001 -1.578846e+002 -4.141007e+001 -1.552394e+002 -4.918577e+000 -1.259373e+002
22277575000 -5.015720e+000 -6.049012e+001 -4.140448e+001 -1.592412e+002 -4.160192e+001 -1.570149e+002 -4.903631e+000 -1.269761e+002
22296318750 -5.011341e+000 -6.130031e+001 -4.134015e+001 -1.605863e+002 -4.147199e+001 -1.576931e+002 -4.889922e+000 -1.280089e+002
22315062500 -5.004570e+000 -6.207242e+001 -4.140211e+001 -1.609606e+002 -4.145751e+001 -1.594271e+002 -4.876898e+000 -1.290617e+002
22333806250 -5.003693e+000 -6.283197e+001 -4.146247e+001 -1.621282e+002 -4.123202e+001 -1.606676e+002 -4.868630e+000 -1.301359e+002
22352550000 -4.998065e+000 -6.356383e+001 -4.144934e+001 -1.635885e+002 -4.128220e+001 -1.615750e+002 -4.859173e+000 -1.311647e+002
22371293750 -5.000024e+000 -6.436458e+001 -4.144143e+001 -1.652266e+002 -4.124968e+001 -1.633199e+002 -4.853937e+000 -1.322468e+002
22390037500 -4.997365e+000 -6.518462e+001 -4.154332e+001 -1.668296e+002 -4.127286e+001 -1.644894e+002 -4.846993e+000 -1.333567e+002
22408781250 -4.984482e+000 -6.599823e+001 -4.154743e+001 -1.684895e+002 -4.114458e+001 -1.652242e+002 -4.838464e+000 -1.344164e+002
22427525000 -4.977201e+000 -6.676645e+001 -4.147046e+001 -1.695997e+002 -4.119500e+001 -1.666101e+002 -4.829449e+000 -1.355178e+002
22446268750 -4.969144e+000 -6.748947e+001 -4.132091e+001 -1.709015e+002 -4.128552e+001 -1.676442e+002 -4.825256e+000 -1.366485e+002
22465012500 -4.963952e+000 -6.822980e+001 -4.109108e+001 -1.721191e+002 -4.134923e+001 -1.684051e+002 -4.821003e+000 -1.377794e+002
22483756250 -4.962365e+000 -6.900973e+001 -4.110591e+001 -1.734422e+002 -4.144226e+001 -1.701411e+002 -4.818479e+000 -1.388860e+002
22502500000 -4.957375e+000 -6.983196e+001 -4.125314e+001 -1.748877e+002 -4.139746e+001 -1.713504e+002 -4.811706e+000 -1.400092e+002
22521243750 -4.945650e+000 -7.062672e+001 -4.120404e+001 -1.764574e+002 -4.143759e+001 -1.735396e+002 -4.806712e+000 -1.411366e+002
22539987500 -4.939409e+000 -7.137864e+001 -4.138643e+001 -1.768928e+002 -4.156522e+001 -1.749717e+002 -4.805948e+000 -1.422593e+002
22558731250 -4.929406e+000 -7.208594e+001 -4.148041e+001 -1.789118e+002 -4.155600e+001 -1.765475e+002 -4.805738e+000 -1.433641e+002
22577475000 -4.923589e+000 -7.279771e+001 -4.151360e+001 1.796696e+002 -4.145686e+001 -1.784205e+002 -4.804314e+000 -1.444811e+002
22596218750 -4.925240e+000 -7.354958e+001 -4.150395e+001 1.776080e+002 -4.147448e+001 1.799697e+002 -4.810517e+000 -1.455894e+002
22614962500 -4.921203e+000 -7.434561e+001 -4.150043e+001 1.768748e+002 -4.137405e+001 1.784894e+002 -4.814922e+000 -1.467765e+002
22633706250 -4.911298e+000 -7.514665e+001 -4.157690e+001 1.756199e+002 -4.137556e+001 1.764907e+002 -4.815196e+000 -1.478958e+002
22652450000 -4.899118e+000 -7.586968e+001 -4.167315e+001 1.749465e+002 -4.137547e+001 1.750778e+002 -4.826389e+000 -1.489922e+002
22671193750 -4.893128e+000 -7.656358e+001 -4.175076e+001 1.728886e+002 -4.132423e+001 1.731690e+002 -4.835465e+000 -1.501757e+002
22689937500 -4.888573e+000 -7.733366e+001 -4.177172e+001 1.708102e+002 -4.138097e+001 1.713220e+002 -4.838887e+000 -1.512860e+002
22708681250 -4.883326e+000 -7.805563e+001 -4.171326e+001 1.696057e+002 -4.122153e+001 1.696405e+002 -4.861566e+000 -1.524246e+002
22727425000 -4.879244e+000 -7.883909e+001 -4.186837e+001 1.675915e+002 -4.146074e+001 1.679975e+002 -4.869209e+000 -1.535962e+002
22746168750 -4.867315e+000 -7.962525e+001 -4.191581e+001 1.657892e+002 -4.142521e+001 1.665597e+002 -4.883482e+000 -1.547025e+002
22764912500 -4.850671e+000 -8.033896e+001 -4.186695e+001 1.643683e+002 -4.151254e+001 1.655030e+002 -4.908314e+000 -1.558374e+002
22783656250 -4.849078e+000 -8.105974e+001 -4.194547e+001 1.626618e+002 -4.162634e+001 1.628804e+002 -4.921373e+000 -1.570486e+002
22802400000 -4.841941e+000 -8.181458e+001 -4.206500e+001 1.619135e+002 -4.173692e+001 1.619065e+002 -4.938580e+000 -1.581665e+002
22821143750 -4.835637e+000 -8.252048e+001 -4.217409e+001 1.608531e+002 -4.176250e+001 1.601713e+002 -4.962869e+000 -1.593391e+002
22839887500 -4.836224e+000 -8.328636e+001 -4.236404e+001 1.600360e+002 -4.187598e+001 1.586674e+002 -4.978346e+000 -1.605251e+002
22858631250 -4.817597e+000 -8.407661e+001 -4.247024e+001 1.587555e+002 -4.182435e+001 1.582331e+002 -5.003670e+000 -1.616335e+002
22877375000 -4.804464e+000 -8.480502e+001 -4.254447e+001 1.565605e+002 -4.181730e+001 1.559246e+002 -5.035205e+000 -1.628100e+002
22896118750 -4.799374e+000 -8.551741e+001 -4.263438e+001 1.551508e+002 -4.185275e+001 1.542551e+002 -5.053714e+000 -1.639874e+002
22914862500 -4.794257e+000 -8.628082e+001 -4.273399e+001 1.541787e+002 -4.203419e+001 1.523947e+002 -5.083579e+000 -1.650976e+002
22933606250 -4.792789e+000 -8.700141e+001 -4.275667e+001 1.537254e+002 -4.211343e+001 1.511164e+002 -5.120675e+000 -1.662876e+002
22952350000 -4.790327e+000 -8.780811e+001 -4.296720e+001 1.534376e+002 -4.215154e+001 1.506169e+002 -5.149323e+000 -1.674640e+002
22971093750 -4.778280e+000 -8.859652e+001 -4.284290e+001 1.517385e+002 -4.223370e+001 1.497654e+002 -5.188093e+000 -1.686004e+002
22989837500 -4.764633e+000 -8.929959e+001 -4.292768e+001 1.507823e+002 -4.228691e+001 1.484795e+002 -5.225776e+000 -1.698427e+002
23008581250 -4.762291e+000 -9.002376e+001 -4.317191e+001 1.495763e+002 -4.238869e+001 1.481584e+002 -5.262090e+000 -1.710335e+002
23027325000 -4.752070e+000 -9.075872e+001 -4.334799e+001 1.487004e+002 -4.253613e+001 1.478079e+002 -5.305937e+000 -1.722090e+002
23046068750 -4.740119e+000 -9.150313e+001 -4.338306e+001 1.471404e+002 -4.253234e+001 1.475004e+002 -5.350326e+000 -1.733952e+002
23064812500 -4.735860e+000 -9.226205e+001 -4.345954e+001 1.469080e+002 -4.268411e+001 1.463757e+002 -5.396532e+000 -1.745581e+002
23083556250 -4.721393e+000 -9.305200e+001 -4.352575e+001 1.441400e+002 -4.272139e+001 1.447301e+002 -5.440595e+000 -1.757428e+002
23102300000 -4.706548e+000 -9.376637e+001 -4.365697e+001 1.424424e+002 -4.291454e+001 1.437971e+002 -5.488974e+000 -1.769120e+002
23121043750 -4.700097e+000 -9.446057e+001 -4.384408e+001 1.422484e+002 -4.283744e+001 1.426267e+002 -5.539472e+000 -1.781151e+002
23139787500 -4.693666e+000 -9.519393e+001 -4.398954e+001 1.400961e+002 -4.297791e+001 1.421557e+002 -5.587938e+000 -1.792766e+002
23158531250 -4.688776e+000 -9.592019e+001 -4.401605e+001 1.389597e+002 -4.309342e+001 1.409157e+002 -5.648391e+000 1.795225e+002
23177275000 -4.686357e+000 -9.668698e+001 -4.421544e+001 1.383064e+002 -4.324456e+001 1.394589e+002 -5.704182e+000 1.783373e+002
23196018750 -4.673581e+000 -9.742880e+001 -4.431997e+001 1.370635e+002 -4.324079e+001 1.384889e+002 -5.757280e+000 1.771477e+002
23214762500 -4.658217e+000 -9.810935e+001 -4.431544e+001 1.361531e+002 -4.321268e+001 1.379152e+002 -5.820121e+000 1.759787e+002
23233506250 -4.654316e+000 -9.879642e+001 -4.452334e+001 1.351173e+002 -4.329288e+001 1.366213e+002 -5.882936e+000 1.747640e+002
23252250000 -4.645653e+000 -9.951678e+001 -4.454110e+001 1.341713e+002 -4.336470e+001 1.368049e+002 -5.948205e+000 1.735763e+002
23270993750 -4.639762e+000 -1.002406e+002 -4.447771e+001 1.336962e+002 -4.352211e+001 1.350997e+002 -6.021407e+000 1.723941e+002
23289737500 -4.638190e+000 -1.009761e+002 -4.456209e+001 1.321647e+002 -4.361936e+001 1.336966e+002 -6.088326e+000 1.711793e+002
23308481250 -4.623280e+000 -1.017040e+002 -4.486796e+001 1.311084e+002 -4.399487e+001 1.316665e+002 -6.155590e+000 1.700025e+002
23327225000 -4.611900e+000 -1.023880e+002 -4.495436e+001 1.305381e+002 -4.411880e+001 1.305341e+002 -6.233318e+000 1.688143e+002
23345968750 -4.602381e+000 -1.030389e+002 -4.493464e+001 1.296474e+002 -4.407138e+001 1.303290e+002 -6.307220e+000 1.675919e+002
23364712500 -4.599035e+000 -1.037028e+002 -4.511197e+001 1.287168e+002 -4.400901e+001 1.280699e+002 -6.382704e+000 1.664021e+002
23383456250 -4.594764e+000 -1.043985e+002 -4.518239e+001 1.265439e+002 -4.418406e+001 1.274584e+002 -6.467934e+000 1.652123e+002
23402200000 -4.586015e+000 -1.051267e+002 -4.528352e+001 1.252725e+002 -4.420776e+001 1.257780e+002 -6.553557e+000 1.639723e+002
23420943750 -4.576073e+000 -1.058501e+002 -4.546256e+001 1.231458e+002 -4.442466e+001 1.259105e+002 -6.639918e+000 1.628069e+002
23439687500 -4.566720e+000 -1.065053e+002 -4.566363e+001 1.215001e+002 -4.450254e+001 1.249762e+002 -6.731314e+000 1.616055e+002
23458431250 -4.559118e+000 -1.071998e+002 -4.571245e+001 1.199494e+002 -4.460007e+001 1.237233e+002 -6.819698e+000 1.603523e+002
23477175000 -4.557521e+000 -1.078789e+002 -4.600364e+001 1.190356e+002 -4.482281e+001 1.215530e+002 -6.909571e+000 1.591697e+002
23495918750 -4.549256e+000 -1.085658e+002 -4.594720e+001 1.172911e+002 -4.479251e+001 1.214331e+002 -7.009737e+000 1.579440e+002
23514662500 -4.539944e+000 -1.092810e+002 -4.598387e+001 1.163598e+002 -4.491088e+001 1.210901e+002 -7.111626e+000 1.566770e+002
23533406250 -4.530007e+000 -1.099688e+002 -4.602305e+001 1.167123e+002 -4.492588e+001 1.198680e+002 -7.217819e+000 1.554791e+002
23552150000 -4.521746e+000 -1.106379e+002 -4.596853e+001 1.161443e+002 -4.513169e+001 1.199849e+002 -7.330821e+000 1.542382e+002
23570893750 -4.517074e+000 -1.113148e+002 -4.595148e+001 1.154403e+002 -4.530085e+001 1.187708e+002 -7.438642e+000 1.529546e+002
23589637500 -4.509849e+000 -1.119891e+002 -4.609170e+001 1.154607e+002 -4.523326e+001 1.162082e+002 -7.552990e+000 1.517650e+002
23608381250 -4.501709e+000 -1.126811e+002 -4.602802e+001 1.139907e+002 -4.515564e+001 1.159141e+002 -7.675723e+000 1.505128e+002
23627125000 -4.492694e+000 -1.133900e+002 -4.621974e+001 1.133312e+002 -4.521572e+001 1.132402e+002 -7.798847e+000 1.492346e+002
23645868750 -4.481991e+000 -1.140884e+002 -4.620350e+001 1.132851e+002 -4.572947e+001 1.125836e+002 -7.926626e+000 1.480011e+002
23664612500 -4.470661e+000 -1.147335e+002 -4.622241e+001 1.125189e+002 -4.577583e+001 1.117518e+002 -8.059669e+000 1.467468e+002
23683356250 -4.466958e+000 -1.154040e+002 -4.635215e+001 1.128883e+002 -4.592922e+001 1.111563e+002 -8.185587e+000 1.454295e+002
23702100000 -4.459523e+000 -1.160663e+002 -4.645899e+001 1.101781e+002 -4.584523e+001 1.102235e+002 -8.320971e+000 1.441735e+002
23720843750 -4.453625e+000 -1.167393e+002 -4.649199e+001 1.091267e+002 -4.597039e+001 1.088924e+002 -8.472297e+000 1.428399e+002
23739587500 -4.444594e+000 -1.174276e+002 -4.629097e+001 1.084461e+002 -4.585121e+001 1.102407e+002 -8.617404e+000 1.415229e+002
23758331250 -4.432106e+000 -1.181127e+002 -4.620871e+001 1.077116e+002 -4.609964e+001 1.083698e+002 -8.776636e+000 1.402779e+002
23777075000 -4.426479e+000 -1.187800e+002 -4.636102e+001 1.063207e+002 -4.633255e+001 1.063095e+002 -8.942521e+000 1.389119e+002
23795818750 -4.411281e+000 -1.194850e+002 -4.629519e+001 1.036835e+002 -4.640862e+001 1.068806e+002 -9.096256e+000 1.375636e+002
23814562500 -4.406477e+000 -1.201189e+002 -4.628160e+001 1.014452e+002 -4.636433e+001 1.041148e+002 -9.268187e+000 1.362415e+002
23833306250 -4.397689e+000 -1.207831e+002 -4.637679e+001 9.923091e+001 -4.647161e+001 1.036010e+002 -9.441407e+000 1.348457e+002
23852050000 -4.387321e+000 -1.214684e+002 -4.613656e+001 9.803323e+001 -4.644855e+001 1.024639e+002 -9.610170e+000 1.334715e+002
23870793750 -4.375731e+000 -1.221335e+002 -4.598402e+001 9.688806e+001 -4.632585e+001 1.007240e+002 -9.791723e+000 1.321313e+002
23889537500 -4.368132e+000 -1.227908e+002 -4.610589e+001 9.513922e+001 -4.642790e+001 9.850589e+001 -9.981203e+000 1.307525e+002
23908281250 -4.365616e+000 -1.234530e+002 -4.602719e+001 9.343520e+001 -4.645977e+001 9.740459e+001 -1.018306e+001 1.293576e+002
23927025000 -4.359301e+000 -1.241433e+002 -4.628978e+001 9.194330e+001 -4.641180e+001 9.502569e+001 -1.038869e+001 1.279773e+002
23945768750 -4.356917e+000 -1.248222e+002 -4.647492e+001 9.097667e+001 -4.658102e+001 9.417741e+001 -1.060718e+001 1.265112e+002
23964512500 -4.344496e+000 -1.255285e+002 -4.653689e+001 8.904659e+001 -4.671838e+001 9.316481e+001 -1.080934e+001 1.250895e+002
23983256250 -4.332918e+000 -1.261715e+002 -4.667693e+001 8.766060e+001 -4.678771e+001 8.985921e+001 -1.104102e+001 1.236683e+002
24002000000 -4.322712e+000 -1.268235e+002 -4.675414e+001 8.759861e+001 -4.667512e+001 8.795962e+001 -1.127395e+001 1.221677e+002
24020743750 -4.314105e+000 -1.274861e+002 -4.670597e+001 8.559133e+001 -4.680381e+001 8.793619e+001 -1.151258e+001 1.206863e+002
24039487500 -4.309793e+000 -1.281367e+002 -4.675005e+001 8.354729e+001 -4.687216e+001 8.600552e+001 -1.176632e+001 1.191398e+002
24058231250 -4.304058e+000 -1.288291e+002 -4.658945e+001 8.189341e+001 -4.711959e+001 8.651891e+001 -1.202501e+001 1.175159e+002
24076975000 -4.292473e+000 -1.295016e+002 -4.682642e+001 8.019837e+001 -4.679060e+001 8.460682e+001 -1.228230e+001 1.160025e+002
24095718750 -4.281004e+000 -1.301355e+002 -4.678246e+001 7.760458e+001 -4.685300e+001 8.296698e+001 -1.257950e+001 1.144753e+002
24114462500 -4.273223e+000 -1.307994e+002 -4.661626e+001 7.434282e+001 -4.671575e+001 8.041147e+001 -1.288075e+001 1.128758e+002
24133206250 -4.264473e+000 -1.314380e+002 -4.690097e+001 7.461081e+001 -4.672818e+001 7.965153e+001 -1.318509e+001 1.112278e+002
24151950000 -4.261790e+000 -1.321136e+002 -4.696637e+001 7.261742e+001 -4.691992e+001 7.829684e+001 -1.352109e+001 1.095349e+002
24170693750 -4.253389e+000 -1.328137e+002 -4.705138e+001 7.077367e+001 -4.690770e+001 7.726725e+001 -1.385420e+001 1.076371e+002
24189437500 -4.244459e+000 -1.334687e+002 -4.722752e+001 6.913155e+001 -4.664475e+001 7.635101e+001 -1.420051e+001 1.058307e+002
24208181250 -4.232738e+000 -1.341070e+002 -4.720163e+001 6.800045e+001 -4.651130e+001 7.627488e+001 -1.457842e+001 1.039996e+002
24226925000 -4.225552e+000 -1.347288e+002 -4.721586e+001 6.750529e+001 -4.666010e+001 7.427718e+001 -1.496033e+001 1.019864e+002
24245668750 -4.218074e+000 -1.353649e+002 -4.718650e+001 6.704144e+001 -4.671526e+001 7.311938e+001 -1.537169e+001 9.997607e+001
24264412500 -4.214038e+000 -1.360338e+002 -4.732376e+001 6.613984e+001 -4.664476e+001 7.042959e+001 -1.580414e+001 9.768337e+001
24283156250 -4.202347e+000 -1.367135e+002 -4.775737e+001 6.743680e+001 -4.671679e+001 6.827011e+001 -1.622568e+001 9.531208e+001
24301900000 -4.188414e+000 -1.373674e+002 -4.764557e+001 6.776170e+001 -4.699524e+001 6.685709e+001 -1.668291e+001 9.302816e+001
24320643750 -4.176751e+000 -1.379919e+002 -4.754176e+001 6.740948e+001 -4.699081e+001 6.736800e+001 -1.716270e+001 9.023341e+001
24339387500 -4.164572e+000 -1.385978e+002 -4.745258e+001 6.632833e+001 -4.702797e+001 6.534679e+001 -1.766645e+001 8.734269e+001
24358131250 -4.158303e+000 -1.392121e+002 -4.719553e+001 6.429616e+001 -4.714931e+001 6.397676e+001 -1.817982e+001 8.424103e+001
24376875000 -4.155296e+000 -1.398793e+002 -4.726335e+001 6.204549e+001 -4.694876e+001 6.182575e+001 -1.866791e+001 8.075462e+001
24395618750 -4.143712e+000 -1.405487e+002 -4.724018e+001 5.975193e+001 -4.707439e+001 6.004070e+001 -1.918159e+001 7.726610e+001
24414362500 -4.132776e+000 -1.411803e+002 -4.717597e+001 5.804971e+001 -4.698016e+001 5.820929e+001 -1.972495e+001 7.327279e+001
24433106250 -4.123068e+000 -1.417892e+002 -4.719799e+001 5.493128e+001 -4.696883e+001 5.688745e+001 -2.023181e+001 6.867490e+001
24451850000 -4.112565e+000 -1.423962e+002 -4.725986e+001 5.305658e+001 -4.689214e+001 5.561797e+001 -2.070572e+001 6.397792e+001
24470593750 -4.106896e+000 -1.429927e+002 -4.743702e+001 5.169917e+001 -4.722045e+001 5.377855e+001 -2.115297e+001 5.858061e+001
24489337500 -4.101680e+000 -1.436546e+002 -4.751182e+001 5.076482e+001 -4.706768e+001 5.135289e+001 -2.152592e+001 5.329381e+001
24508081250 -4.089509e+000 -1.443075e+002 -4.738015e+001 4.811972e+001 -4.728695e+001 5.044715e+001 -2.193250e+001 4.764575e+001
24526825000 -4.079461e+000 -1.449507e+002 -4.720190e+001 4.616808e+001 -4.727197e+001 4.935675e+001 -2.225434e+001 4.163811e+001
24545568750 -4.067304e+000 -1.455654e+002 -4.732502e+001 4.325486e+001 -4.762503e+001 4.834824e+001 -2.252157e+001 3.556070e+001
24564312500 -4.056456e+000 -1.461595e+002 -4.718642e+001 4.246782e+001 -4.781303e+001 4.635707e+001 -2.276089e+001 2.923730e+001
24583056250 -4.050740e+000 -1.467694e+002 -4.719053e+001 4.087193e+001 -4.770124e+001 4.542330e+001 -2.291652e+001 2.286442e+001
24601800000 -4.047705e+000 -1.474140e+002 -4.729945e+001 3.945461e+001 -4.781768e+001 4.121668e+001 -2.303825e+001 1.676360e+001
24620543750 -4.035618e+000 -1.480597e+002 -4.718121e+001 3.767923e+001 -4.788929e+001 4.000942e+001 -2.311551e+001 1.022416e+001
24639287500 -4.026698e+000 -1.486879e+002 -4.733788e+001 3.777668e+001 -4.827036e+001 3.608735e+001 -2.312414e+001 3.680707e+000
24658031250 -4.015321e+000 -1.493163e+002 -4.749695e+001 3.713886e+001 -4.823547e+001 3.316235e+001 -2.310638e+001 -2.659769e+000
24676775000 -4.003771e+000 -1.499166e+002 -4.769205e+001 3.538229e+001 -4.847131e+001 3.099254e+001 -2.301935e+001 -9.082433e+000
24695518750 -4.002084e+000 -1.505389e+002 -4.762793e+001 3.500116e+001 -4.869505e+001 3.201598e+001 -2.287234e+001 -1.522543e+001
24714262500 -3.996455e+000 -1.512029e+002 -4.725958e+001 3.075623e+001 -4.912760e+001 2.737238e+001 -2.273867e+001 -2.136293e+001
24733006250 -3.986813e+000 -1.518415e+002 -4.721775e+001 2.668497e+001 -4.905938e+001 2.489506e+001 -2.252576e+001 -2.765675e+001
24751750000 -3.981246e+000 -1.524578e+002 -4.712148e+001 2.468021e+001 -4.902748e+001 2.285200e+001 -2.225462e+001 -3.348312e+001
24770493750 -3.968126e+000 -1.530973e+002 -4.737498e+001 2.312104e+001 -4.902621e+001 2.158388e+001 -2.191044e+001 -3.923983e+001
24789237500 -3.960455e+000 -1.536795e+002 -4.773663e+001 2.246202e+001 -4.896005e+001 1.849092e+001 -2.153020e+001 -4.486578e+001
24807981250 -3.954028e+000 -1.542686e+002 -4.756754e+001 2.147554e+001 -4.912798e+001 1.698168e+001 -2.114221e+001 -4.988916e+001
24826725000 -3.949176e+000 -1.549116e+002 -4.762932e+001 2.023500e+001 -4.895993e+001 1.478584e+001 -2.073211e+001 -5.498206e+001
24845468750 -3.939841e+000 -1.555319e+002 -4.774914e+001 1.757563e+001 -4.912001e+001 1.426738e+001 -2.025096e+001 -5.969223e+001
24864212500 -3.931563e+000 -1.561746e+002 -4.781391e+001 1.663251e+001 -4.958123e+001 1.457830e+001 -1.977258e+001 -6.370923e+001
24882956250 -3.920605e+000 -1.567623e+002 -4.790768e+001 1.408922e+001 -4.991701e+001 1.128148e+001 -1.928884e+001 -6.775086e+001
24901700000 -3.911746e+000 -1.573416e+002 -4.783011e+001 1.304867e+001 -4.972289e+001 1.096386e+001 -1.880111e+001 -7.094092e+001
24920443750 -3.911612e+000 -1.579436e+002 -4.793127e+001 1.039517e+001 -5.010704e+001 1.132059e+001 -1.836365e+001 -7.413070e+001
24939187500 -3.901117e+000 -1.585726e+002 -4.839833e+001 1.190592e+001 -5.046384e+001 8.579522e+000 -1.788003e+001 -7.712142e+001
24957931250 -3.895848e+000 -1.592140e+002 -4.833255e+001 1.130975e+001 -5.092949e+001 7.459604e+000 -1.742433e+001 -7.975834e+001
24976675000 -3.886039e+000 -1.598146e+002 -4.821383e+001 1.114940e+001 -5.088358e+001 4.998554e+000 -1.700433e+001 -8.219695e+001
24995418750 -3.872897e+000 -1.604153e+002 -4.809916e+001 7.826504e+000 -5.087357e+001 2.497891e+000 -1.657511e+001 -8.440463e+001
25014162500 -3.865771e+000 -1.609465e+002 -4.829111e+001 4.882934e+000 -5.085792e+001 -2.483210e-001 -1.617765e+001 -8.641034e+001
25032906250 -3.863791e+000 -1.615590e+002 -4.820668e+001 1.496400e+000 -5.068992e+001 -1.132569e+000 -1.580829e+001 -8.855087e+001
25051650000 -3.855989e+000 -1.621584e+002 -4.819503e+001 3.363127e-001 -5.097220e+001 -3.167311e+000 -1.544884e+001 -9.037830e+001
25070393750 -3.845042e+000 -1.627533e+002 -4.823837e+001 -3.587475e+000 -5.094218e+001 -2.168531e+000 -1.510534e+001 -9.213643e+001
25089137500 -3.835964e+000 -1.633727e+002 -4.802108e+001 -6.324130e+000 -5.095865e+001 -1.830855e+000 -1.477293e+001 -9.397199e+001
25107881250 -3.823980e+000 -1.639417e+002 -4.815145e+001 -9.296385e+000 -5.104997e+001 -4.019025e+000 -1.443809e+001 -9.568452e+001
25126625000 -3.817240e+000 -1.644565e+002 -4.812778e+001 -1.146563e+001 -5.116388e+001 -8.318803e+000 -1.413437e+001 -9.728323e+001
25145368750 -3.817452e+000 -1.650445e+002 -4.823656e+001 -1.203893e+001 -5.078870e+001 -7.853453e+000 -1.382683e+001 -9.884646e+001
25164112500 -3.809104e+000 -1.656378e+002 -4.875222e+001 -1.378224e+001 -5.084960e+001 -8.825477e+000 -1.353460e+001 -1.003647e+002
25182856250 -3.801958e+000 -1.662169e+002 -4.898541e+001 -1.538846e+001 -5.119921e+001 -9.838462e+000 -1.326335e+001 -1.018152e+002
25201600000 -3.790430e+000 -1.668235e+002 -4.905192e+001 -1.722273e+001 -5.144079e+001 -1.401289e+001 -1.300308e+001 -1.033169e+002
25220343750 -3.777119e+000 -1.673829e+002 -4.891352e+001 -2.078623e+001 -5.158868e+001 -1.427014e+001 -1.274159e+001 -1.046468e+002
25239087500 -3.775435e+000 -1.679242e+002 -4.906423e+001 -2.363879e+001 -5.156495e+001 -1.853655e+001 -1.250315e+001 -1.060655e+002
25257831250 -3.770183e+000 -1.685065e+002 -4.921864e+001 -2.646327e+001 -5.177393e+001 -1.951845e+001 -1.225695e+001 -1.074716e+002
25276575000 -3.761405e+000 -1.690982e+002 -4.916663e+001 -2.797149e+001 -5.182606e+001 -2.313834e+001 -1.202200e+001 -1.087195e+002
25295318750 -3.754240e+000 -1.696792e+002 -4.932004e+001 -2.944445e+001 -5.156996e+001 -2.429798e+001 -1.180758e+001 -1.100442e+002
25314062500 -3.744855e+000 -1.702885e+002 -4.976675e+001 -2.908104e+001 -5.139145e+001 -2.611038e+001 -1.159152e+001 -1.112968e+002
25332806250 -3.729983e+000 -1.708439e+002 -5.016681e+001 -3.141330e+001 -5.187038e+001 -2.983721e+001 -1.137765e+001 -1.125500e+002
25351550000 -3.724798e+000 -1.713750e+002 -5.053973e+001 -3.414776e+001 -5.157945e+001 -3.413112e+001 -1.117459e+001 -1.137873e+002
25370293750 -3.726787e+000 -1.719612e+002 -5.063272e+001 -3.869755e+001 -5.128608e+001 -3.546194e+001 -1.097071e+001 -1.149766e+002
25389037500 -3.717861e+000 -1.725177e+002 -5.132985e+001 -4.207909e+001 -5.115944e+001 -3.753275e+001 -1.077391e+001 -1.161413e+002
25407781250 -3.711852e+000 -1.730845e+002 -5.153579e+001 -4.495471e+001 -5.115461e+001 -4.067031e+001 -1.059282e+001 -1.173300e+002
25426525000 -3.708923e+000 -1.736553e+002 -5.174988e+001 -4.623174e+001 -5.131736e+001 -4.129668e+001 -1.041081e+001 -1.184869e+002
25445268750 -3.694753e+000 -1.742394e+002 -5.200485e+001 -4.410035e+001 -5.132964e+001 -4.246658e+001 -1.023137e+001 -1.196174e+002
25464012500 -3.687856e+000 -1.747456e+002 -5.251976e+001 -4.337754e+001 -5.161440e+001 -4.222482e+001 -1.005453e+001 -1.207007e+002
25482756250 -3.689341e+000 -1.753508e+002 -5.280346e+001 -4.712837e+001 -5.126575e+001 -4.371309e+001 -9.887333e+000 -1.218155e+002
25501500000 -3.683634e+000 -1.759331e+002 -5.289490e+001 -4.698663e+001 -5.140124e+001 -4.233379e+001 -9.722071e+000 -1.228787e+002
25520243750 -3.676210e+000 -1.764793e+002 -5.313400e+001 -4.366985e+001 -5.137783e+001 -4.278295e+001 -9.559863e+000 -1.238636e+002
25538987500 -3.670614e+000 -1.770780e+002 -5.292321e+001 -4.328706e+001 -5.110738e+001 -4.251482e+001 -9.414641e+000 -1.249026e+002
25557731250 -3.656578e+000 -1.776413e+002 -5.297662e+001 -4.390963e+001 -5.113388e+001 -4.163928e+001 -9.256894e+000 -1.259265e+002
25576475000 -3.646005e+000 -1.781473e+002 -5.300946e+001 -4.473942e+001 -5.148627e+001 -4.166826e+001 -9.106451e+000 -1.268951e+002
25595218750 -3.643156e+000 -1.787369e+002 -5.269252e+001 -4.381993e+001 -5.177791e+001 -4.260452e+001 -8.959460e+000 -1.278670e+002
25613962500 -3.633240e+000 -1.793085e+002 -5.264207e+001 -4.314256e+001 -5.188779e+001 -4.305564e+001 -8.812307e+000 -1.288475e+002
25632706250 -3.626969e+000 -1.798625e+002 -5.265859e+001 -4.111228e+001 -5.184420e+001 -4.038997e+001 -8.679864e+000 -1.297078e+002
25651450000 -3.616780e+000 1.795725e+002 -5.268537e+001 -3.757254e+001 -5.244240e+001 -3.542131e+001 -8.557021e+000 -1.306608e+002
25670193750 -3.602232e+000 1.790387e+002 -5.259863e+001 -3.811788e+001 -5.249733e+001 -3.503214e+001 -8.418083e+000 -1.315908e+002
25688937500 -3.600006e+000 1.785273e+002 -5.257414e+001 -3.517764e+001 -5.234235e+001 -3.362207e+001 -8.296549e+000 -1.324941e+002
25707681250 -3.593568e+000 1.779236e+002 -5.258649e+001 -3.706089e+001 -5.215614e+001 -3.100448e+001 -8.168965e+000 -1.334341e+002
25726425000 -3.586141e+000 1.773974e+002 -5.244661e+001 -3.601141e+001 -5.196718e+001 -3.279777e+001 -8.037660e+000 -1.342842e+002
25745168750 -3.578387e+000 1.768408e+002 -5.195604e+001 -3.802112e+001 -5.211462e+001 -3.093737e+001 -7.925654e+000 -1.351260e+002
25763912500 -3.570063e+000 1.762618e+002 -5.133998e+001 -3.735895e+001 -5.171441e+001 -3.052904e+001 -7.814211e+000 -1.359998e+002
25782656250 -3.557197e+000 1.757541e+002 -5.098928e+001 -3.603332e+001 -5.179984e+001 -3.139393e+001 -7.696127e+000 -1.368275e+002
25801400000 -3.553773e+000 1.752334e+002 -5.065696e+001 -3.891414e+001 -5.184585e+001 -2.842335e+001 -7.589491e+000 -1.376739e+002
25820143750 -3.547735e+000 1.746731e+002 -5.090566e+001 -3.646603e+001 -5.153816e+001 -2.902424e+001 -7.485275e+000 -1.385183e+002
25838887500 -3.540094e+000 1.741035e+002 -5.079489e+001 -3.284650e+001 -5.149397e+001 -2.826298e+001 -7.368178e+000 -1.393326e+002
25857631250 -3.533200e+000 1.735331e+002 -5.058179e+001 -3.477264e+001 -5.170599e+001 -3.216895e+001 -7.272166e+000 -1.401380e+002
25876375000 -3.526756e+000 1.729966e+002 -5.028922e+001 -3.709319e+001 -5.174099e+001 -3.329556e+001 -7.171041e+000 -1.409971e+002
25895118750 -3.520172e+000 1.724754e+002 -4.991528e+001 -3.857543e+001 -5.173244e+001 -3.527343e+001 -7.073663e+000 -1.417950e+002
25913862500 -3.515407e+000 1.719602e+002 -4.985227e+001 -3.898907e+001 -5.196562e+001 -3.711274e+001 -6.975701e+000 -1.425679e+002
25932606250 -3.509772e+000 1.713894e+002 -5.011543e+001 -4.171019e+001 -5.149886e+001 -4.221337e+001 -6.879797e+000 -1.433367e+002
25951350000 -3.507367e+000 1.708407e+002 -5.024001e+001 -4.305863e+001 -5.166443e+001 -4.547388e+001 -6.789258e+000 -1.441114e+002
25970093750 -3.496850e+000 1.703028e+002 -5.071379e+001 -4.371998e+001 -5.191438e+001 -4.745578e+001 -6.699635e+000 -1.448594e+002
25988837500 -3.490086e+000 1.697517e+002 -5.091538e+001 -4.638032e+001 -5.155998e+001 -5.095941e+001 -6.613060e+000 -1.456301e+002
26007581250 -3.486393e+000 1.692128e+002 -5.090249e+001 -4.731169e+001 -5.127698e+001 -5.085025e+001 -6.524390e+000 -1.464018e+002
26026325000 -3.483302e+000 1.686828e+002 -5.137701e+001 -4.794938e+001 -5.100548e+001 -5.275065e+001 -6.445597e+000 -1.471806e+002
26045068750 -3.476079e+000 1.681309e+002 -5.159176e+001 -4.752191e+001 -5.058617e+001 -5.664406e+001 -6.363724e+000 -1.479100e+002
26063812500 -3.475187e+000 1.676010e+002 -5.136678e+001 -5.296070e+001 -5.057300e+001 -5.772401e+001 -6.280100e+000 -1.486725e+002
26082556250 -3.469236e+000 1.670287e+002 -5.155650e+001 -5.108196e+001 -4.990257e+001 -6.514983e+001 -6.202544e+000 -1.493856e+002
26101300000 -3.461934e+000 1.664879e+002 -5.194157e+001 -3.896067e+001 -4.988167e+001 -6.291145e+001 -6.127493e+000 -1.501081e+002
26120043750 -3.456646e+000 1.659623e+002 -5.205701e+001 -2.777705e+001 -4.989809e+001 -6.728358e+001 -6.047747e+000 -1.508148e+002
26138787500 -3.454042e+000 1.654367e+002 -5.239781e+001 -1.393696e+001 -4.990035e+001 -7.132941e+001 -5.973817e+000 -1.515204e+002
26157531250 -3.447018e+000 1.648844e+002 -5.246736e+001 -5.808482e-001 -5.003551e+001 -7.484373e+001 -5.898187e+000 -1.522373e+002
26176275000 -3.445475e+000 1.643500e+002 -5.237658e+001 1.455553e+001 -4.989643e+001 -7.680308e+001 -5.824913e+000 -1.529112e+002
26195018750 -3.441379e+000 1.638083e+002 -5.274165e+001 3.129527e+001 -5.006713e+001 -7.799504e+001 -5.753265e+000 -1.535824e+002
26213762500 -3.432594e+000 1.632713e+002 -5.260943e+001 4.414133e+001 -5.012423e+001 -8.113643e+001 -5.687360e+000 -1.542800e+002
26232506250 -3.428783e+000 1.627576e+002 -5.268117e+001 6.273481e+001 -5.008347e+001 -8.772387e+001 -5.621171e+000 -1.549413e+002
26251250000 -3.423298e+000 1.622212e+002 -5.208303e+001 7.426207e+001 -5.032061e+001 -8.869403e+001 -5.557040e+000 -1.556011e+002
26269993750 -3.419392e+000 1.616980e+002 -5.251341e+001 8.387621e+001 -5.026204e+001 -9.051908e+001 -5.499906e+000 -1.562729e+002
26288737500 -3.412117e+000 1.611630e+002 -5.296539e+001 9.791872e+001 -5.009589e+001 -8.888081e+001 -5.435555e+000 -1.569461e+002
26307481250 -3.403925e+000 1.606163e+002 -5.273608e+001 1.129206e+002 -5.007649e+001 -9.113310e+001 -5.377688e+000 -1.575830e+002
26326225000 -3.395435e+000 1.600968e+002 -5.293435e+001 1.284900e+002 -4.991943e+001 -9.164289e+001 -5.315753e+000 -1.582322e+002
26344968750 -3.389669e+000 1.595834e+002 -5.297000e+001 1.425204e+002 -5.015365e+001 -8.811436e+001 -5.252631e+000 -1.588703e+002
26363712500 -3.381792e+000 1.590793e+002 -5.266260e+001 1.594790e+002 -5.038158e+001 -8.664012e+001 -5.199093e+000 -1.595116e+002
26382456250 -3.375661e+000 1.585748e+002 -5.305229e+001 1.711837e+002 -5.028558e+001 -8.632338e+001 -5.146113e+000 -1.601755e+002
26401200000 -3.372695e+000 1.580406e+002 -5.254554e+001 -1.744354e+002 -5.006714e+001 -8.654426e+001 -5.087689e+000 -1.608338e+002
26419943750 -3.366934e+000 1.575198e+002 -5.244143e+001 -1.563546e+002 -5.036870e+001 -8.606006e+001 -5.036069e+000 -1.614553e+002
26438687500 -3.362459e+000 1.570417e+002 -5.233840e+001 -1.455855e+002 -5.060320e+001 -8.955067e+001 -4.984036e+000 -1.620800e+002
26457431250 -3.360304e+000 1.565324e+002 -5.209444e+001 -1.339379e+002 -5.064380e+001 -9.003104e+001 -4.930798e+000 -1.626570e+002
26476175000 -3.356693e+000 1.560144e+002 -5.222295e+001 -1.223636e+002 -5.067762e+001 -9.084084e+001 -4.884835e+000 -1.632733e+002
26494918750 -3.349998e+000 1.554894e+002 -5.223088e+001 -1.067960e+002 -5.070426e+001 -9.288316e+001 -4.840491e+000 -1.638888e+002
26513662500 -3.346466e+000 1.549865e+002 -5.212624e+001 -9.766143e+001 -5.105496e+001 -9.543564e+001 -4.792800e+000 -1.645096e+002
26532406250 -3.343111e+000 1.544848e+002 -5.181890e+001 -9.633351e+001 -5.126912e+001 -9.898354e+001 -4.750061e+000 -1.651460e+002
26551150000 -3.339681e+000 1.539721e+002 -5.158084e+001 -9.609098e+001 -5.129644e+001 -9.994920e+001 -4.703818e+000 -1.657873e+002
26569893750 -3.335653e+000 1.534562e+002 -5.141351e+001 -9.532230e+001 -5.145979e+001 -9.877504e+001 -4.660622e+000 -1.663826e+002
26588637500 -3.331716e+000 1.529292e+002 -5.133739e+001 -9.783016e+001 -5.184920e+001 -1.028001e+002 -4.625739e+000 -1.669828e+002
26607381250 -3.325636e+000 1.524171e+002 -5.150965e+001 -9.604500e+001 -5.197665e+001 -1.096656e+002 -4.586169e+000 -1.676454e+002
26626125000 -3.318981e+000 1.519065e+002 -5.160854e+001 -1.018181e+002 -5.216101e+001 -1.131834e+002 -4.549819e+000 -1.682651e+002
26644868750 -3.315678e+000 1.513905e+002 -5.192031e+001 -1.008828e+002 -5.204420e+001 -1.120099e+002 -4.511877e+000 -1.689119e+002
26663612500 -3.311181e+000 1.508764e+002 -5.177465e+001 -1.045166e+002 -5.185854e+001 -1.117573e+002 -4.469627e+000 -1.695452e+002
26682356250 -3.309019e+000 1.503606e+002 -5.171772e+001 -1.048553e+002 -5.186046e+001 -1.120071e+002 -4.430887e+000 -1.701608e+002
26701100000 -3.303266e+000 1.498535e+002 -5.156424e+001 -1.050173e+002 -5.197618e+001 -1.141845e+002 -4.393596e+000 -1.707768e+002
26719843750 -3.299166e+000 1.493343e+002 -5.130937e+001 -1.045986e+002 -5.244059e+001 -1.239152e+002 -4.358199e+000 -1.714207e+002
26738587500 -3.296631e+000 1.488368e+002 -5.158149e+001 -1.066190e+002 -5.314377e+001 -1.307372e+002 -4.324840e+000 -1.720380e+002
26757331250 -3.294075e+000 1.483324e+002 -5.132414e+001 -1.097472e+002 -5.327620e+001 -1.461117e+002 -4.295091e+000 -1.727104e+002
26776075000 -3.289311e+000 1.478318e+002 -5.160625e+001 -1.116211e+002 -5.310908e+001 -1.673125e+002 -4.262273e+000 -1.733369e+002
26794818750 -3.288095e+000 1.473211e+002 -5.174427e+001 -1.158663e+002 -5.306169e+001 1.744872e+002 -4.226327e+000 -1.739495e+002
26813562500 -3.284144e+000 1.468174e+002 -5.127666e+001 -1.166971e+002 -5.336833e+001 1.542723e+002 -4.196450e+000 -1.745675e+002
26832306250 -3.279126e+000 1.463224e+002 -5.168681e+001 -1.179565e+002 -5.336554e+001 1.344115e+002 -4.168342e+000 -1.752050e+002
26851050000 -3.274387e+000 1.458304e+002 -5.166336e+001 -1.268801e+002 -5.319074e+001 1.164846e+002 -4.138363e+000 -1.758369e+002
26869793750 -3.271017e+000 1.453179e+002 -5.211832e+001 -1.281487e+002 -5.334003e+001 9.931373e+001 -4.110261e+000 -1.764941e+002
26888537500 -3.268484e+000 1.448399e+002 -5.193773e+001 -1.312018e+002 -5.325663e+001 7.810838e+001 -4.078307e+000 -1.771562e+002
26907281250 -3.265571e+000 1.443410e+002 -5.171468e+001 -1.345085e+002 -5.328888e+001 5.937740e+001 -4.048520e+000 -1.777839e+002
26926025000 -3.259983e+000 1.438601e+002 -5.177766e+001 -1.362886e+002 -5.332279e+001 4.288739e+001 -4.019450e+000 -1.784265e+002
26944768750 -3.256191e+000 1.433742e+002 -5.185757e+001 -1.384903e+002 -5.324185e+001 3.073755e+001 -3.992844e+000 -1.790734e+002
26963512500 -3.250512e+000 1.428825e+002 -5.231647e+001 -1.431482e+002 -5.323093e+001 1.535381e+001 -3.967000e+000 -1.796913e+002
26982256250 -3.245036e+000 1.424233e+002 -5.405279e+001 -1.458879e+002 -5.340844e+001 9.609271e-001 -3.941850e+000 1.796469e+002
27001000000 -3.246410e+000 1.419610e+002 -5.409650e+001 -1.443896e+002 -5.357011e+001 -1.219365e+001 -3.912295e+000 1.790189e+002
27019743750 -3.242346e+000 1.414671e+002 -5.456056e+001 -1.464510e+002 -5.310991e+001 -2.452565e+001 -3.884663e+000 1.783644e+002
27038487500 -3.235765e+000 1.409936e+002 -5.442902e+001 -1.470116e+002 -5.349424e+001 -3.709032e+001 -3.858902e+000 1.777362e+002
27057231250 -3.234785e+000 1.405134e+002 -5.444479e+001 -1.459826e+002 -5.343163e+001 -5.074083e+001 -3.830470e+000 1.770871e+002
27075975000 -3.230068e+000 1.400561e+002 -5.473541e+001 -1.555025e+002 -5.425766e+001 -5.824028e+001 -3.807533e+000 1.764668e+002
27094718750 -3.228998e+000 1.396157e+002 -5.524061e+001 -1.659428e+002 -5.457682e+001 -5.753598e+001 -3.783621e+000 1.757846e+002
27113462500 -3.227757e+000 1.391487e+002 -5.561243e+001 1.798044e+002 -5.451933e+001 -6.323658e+001 -3.757392e+000 1.751430e+002
27132206250 -3.226926e+000 1.386484e+002 -5.559490e+001 1.607818e+002 -5.472979e+001 -6.960692e+001 -3.737127e+000 1.745032e+002
27150950000 -3.218778e+000 1.381873e+002 -5.595076e+001 1.441429e+002 -5.451768e+001 -6.638195e+001 -3.718531e+000 1.738702e+002
27169693750 -3.214283e+000 1.377203e+002 -5.588961e+001 1.324286e+002 -5.391599e+001 -5.796856e+001 -3.694113e+000 1.732119e+002
27188437500 -3.211431e+000 1.372597e+002 -5.615406e+001 1.208594e+002 -5.404477e+001 -3.802029e+001 -3.673189e+000 1.725868e+002
27207181250 -3.208366e+000 1.368165e+002 -5.610909e+001 1.140714e+002 -5.465132e+001 -1.187222e+001 -3.649772e+000 1.719208e+002
27225925000 -3.211373e+000 1.363301e+002 -5.608267e+001 1.068016e+002 -5.470996e+001 1.805965e+001 -3.627784e+000 1.712686e+002
27244668750 -3.208018e+000 1.358218e+002 -5.643147e+001 9.173248e+001 -5.456508e+001 5.400603e+001 -3.605748e+000 1.705997e+002
27263412500 -3.203164e+000 1.353427e+002 -5.657534e+001 7.764106e+001 -5.449064e+001 9.055104e+001 -3.583363e+000 1.699478e+002
27282156250 -3.199015e+000 1.348851e+002 -5.678711e+001 6.994770e+001 -5.463272e+001 1.211452e+002 -3.567745e+000 1.692929e+002
27300900000 -3.193081e+000 1.344337e+002 -5.669585e+001 6.216360e+001 -5.404169e+001 1.538530e+002 -3.548393e+000 1.686324e+002
27319643750 -3.188043e+000 1.339854e+002 -5.651043e+001 5.026522e+001 -5.479343e+001 -1.730670e+002 -3.527688e+000 1.679652e+002
27338387500 -3.190709e+000 1.334843e+002 -5.673096e+001 4.416267e+001 -5.501888e+001 -1.398827e+002 -3.504710e+000 1.673180e+002
27357131250 -3.188234e+000 1.329637e+002 -5.683057e+001 4.295107e+001 -5.516382e+001 -1.081453e+002 -3.483426e+000 1.666629e+002
27375875000 -3.185055e+000 1.324922e+002 -5.667612e+001 4.499140e+001 -5.529943e+001 -7.373331e+001 -3.459564e+000 1.659868e+002
27394618750 -3.181062e+000 1.320169e+002 -5.646939e+001 4.841610e+001 -5.493084e+001 -4.435218e+001 -3.436813e+000 1.653328e+002
27413362500 -3.176420e+000 1.315401e+002 -5.494359e+001 5.154744e+001 -5.484713e+001 -1.276258e+001 -3.417380e+000 1.646979e+002
27432106250 -3.176946e+000 1.311111e+002 -5.485065e+001 5.125957e+001 -5.507718e+001 1.029671e+001 -3.394936e+000 1.640382e+002
27450850000 -3.184229e+000 1.306369e+002 -5.468892e+001 5.348758e+001 -5.548914e+001 3.927034e+001 -3.378682e+000 1.633906e+002
27469593750 -3.181514e+000 1.301179e+002 -5.481231e+001 4.922153e+001 -5.497443e+001 6.616418e+001 -3.365129e+000 1.627185e+002
27488337500 -3.176147e+000 1.296378e+002 -5.466098e+001 4.821461e+001 -5.517457e+001 9.548769e+001 -3.347270e+000 1.620250e+002
27507081250 -3.174814e+000 1.291593e+002 -5.426967e+001 5.804345e+001 -5.473789e+001 1.202099e+002 -3.330712e+000 1.613612e+002
27525825000 -3.166722e+000 1.287079e+002 -5.391051e+001 6.387971e+001 -5.488600e+001 1.342649e+002 -3.316329e+000 1.607088e+002
27544568750 -3.171158e+000 1.282955e+002 -5.366916e+001 7.945092e+001 -5.468553e+001 1.511810e+002 -3.296653e+000 1.600327e+002
27563312500 -3.173613e+000 1.278367e+002 -5.404970e+001 1.033771e+002 -5.443855e+001 1.799575e+002 -3.274630e+000 1.593865e+002
27582056250 -3.172310e+000 1.273320e+002 -5.390358e+001 1.235131e+002 -5.428011e+001 -1.576699e+002 -3.250452e+000 1.587530e+002
27600800000 -3.171256e+000 1.268827e+002 -5.397988e+001 1.338262e+002 -5.422857e+001 -1.416185e+002 -3.228004e+000 1.580906e+002
27619543750 -3.161751e+000 1.264025e+002 -5.375146e+001 1.477916e+002 -5.391960e+001 -1.279527e+002 -3.210016e+000 1.574608e+002
27638287500 -3.150934e+000 1.259616e+002 -5.357568e+001 1.571121e+002 -5.345562e+001 -1.192979e+002 -3.195066e+000 1.568100e+002
27657031250 -3.153214e+000 1.255585e+002 -5.386420e+001 1.596129e+002 -5.347608e+001 -1.166307e+002 -3.176869e+000 1.561481e+002
27675775000 -3.158842e+000 1.250611e+002 -5.346970e+001 1.711512e+002 -5.360977e+001 -1.204410e+002 -3.158482e+000 1.555080e+002
27694518750 -3.155607e+000 1.245791e+002 -5.346238e+001 -1.689413e+002 -5.382010e+001 -1.224597e+002 -3.140108e+000 1.548687e+002
27713262500 -3.153425e+000 1.241085e+002 -5.352059e+001 -1.537188e+002 -5.381077e+001 -1.203134e+002 -3.118466e+000 1.542260e+002
27732006250 -3.152161e+000 1.236440e+002 -5.360255e+001 -1.414923e+002 -5.415028e+001 -1.216835e+002 -3.097286e+000 1.535925e+002
27750750000 -3.146189e+000 1.231926e+002 -5.400021e+001 -1.232607e+002 -5.370528e+001 -1.158417e+002 -3.082525e+000 1.529465e+002
27769493750 -3.153039e+000 1.227909e+002 -5.361081e+001 -1.107936e+002 -5.413005e+001 -1.145184e+002 -3.065927e+000 1.522967e+002
27788237500 -3.156855e+000 1.223293e+002 -5.394736e+001 -1.075885e+002 -5.385284e+001 -1.154752e+002 -3.050635e+000 1.516617e+002
27806981250 -3.153680e+000 1.218416e+002 -5.408033e+001 -1.061022e+002 -5.374945e+001 -1.240486e+002 -3.039152e+000 1.510297e+002
27825725000 -3.151842e+000 1.213777e+002 -5.422364e+001 -9.586953e+001 -5.421612e+001 -1.199634e+002 -3.024616e+000 1.503844e+002
27844468750 -3.146183e+000 1.209099e+002 -5.433078e+001 -9.438746e+001 -5.453524e+001 -1.174890e+002 -3.010107e+000 1.497317e+002
27863212500 -3.137732e+000 1.204945e+002 -5.437391e+001 -9.448426e+001 -5.465487e+001 -1.087798e+002 -2.994737e+000 1.490852e+002
27881956250 -3.139158e+000 1.200792e+002 -5.400731e+001 -9.447010e+001 -5.428658e+001 -1.021447e+002 -2.974709e+000 1.484386e+002
27900700000 -3.142333e+000 1.195844e+002 -5.410812e+001 -9.237289e+001 -5.447311e+001 -9.446474e+001 -2.949970e+000 1.478409e+002
27919443750 -3.142716e+000 1.191256e+002 -5.463664e+001 -9.003247e+001 -5.421174e+001 -9.560166e+001 -2.933416e+000 1.472551e+002
27938187500 -3.138629e+000 1.186702e+002 -5.468979e+001 -8.869361e+001 -5.402520e+001 -1.072738e+002 -2.915258e+000 1.466286e+002
27956931250 -3.134104e+000 1.182166e+002 -5.463777e+001 -7.901345e+001 -5.378707e+001 -1.215279e+002 -2.895980e+000 1.460370e+002
27975675000 -3.124255e+000 1.178084e+002 -5.476254e+001 -7.921188e+001 -5.377872e+001 -1.350199e+002 -2.884204e+000 1.454560e+002
27994418750 -3.131129e+000 1.173736e+002 -5.444113e+001 -8.467357e+001 -5.406693e+001 -1.569993e+002 -2.867693e+000 1.448377e+002
28013162500 -3.133522e+000 1.168967e+002 -5.426610e+001 -8.514606e+001 -5.372692e+001 -1.719150e+002 -2.852287e+000 1.442380e+002
28031906250 -3.131650e+000 1.164236e+002 -5.449668e+001 -8.048937e+001 -5.386073e+001 1.712520e+002 -2.836087e+000 1.436671e+002
28050650000 -3.133197e+000 1.159459e+002 -5.469627e+001 -7.852417e+001 -5.405640e+001 1.511005e+002 -2.821837e+000 1.430746e+002
28069393750 -3.133708e+000 1.154649e+002 -5.448011e+001 -7.713378e+001 -5.398386e+001 1.321989e+002 -2.805171e+000 1.425014e+002
28088137500 -3.127652e+000 1.150657e+002 -5.388557e+001 -7.065790e+001 -5.420089e+001 1.168327e+002 -2.794544e+000 1.419428e+002
28106881250 -3.133775e+000 1.146402e+002 -5.399161e+001 -6.885361e+001 -5.386686e+001 1.034490e+002 -2.777389e+000 1.413563e+002
28125625000 -3.132822e+000 1.141522e+002 -5.384800e+001 -7.157851e+001 -5.406205e+001 8.785757e+001 -2.762641e+000 1.407974e+002
28144368750 -3.131729e+000 1.136813e+002 -5.373800e+001 -7.309564e+001 -5.377443e+001 7.231549e+001 -2.746532e+000 1.402223e+002
28163112500 -3.130407e+000 1.132106e+002 -5.365911e+001 -7.143049e+001 -5.441986e+001 5.270681e+001 -2.734787e+000 1.396642e+002
28181856250 -3.124044e+000 1.127628e+002 -5.365088e+001 -7.222504e+001 -5.421875e+001 3.562371e+001 -2.720447e+000 1.391580e+002
28200600000 -3.116969e+000 1.124005e+002 -5.357954e+001 -7.733454e+001 -5.371631e+001 1.908604e+001 -2.712543e+000 1.386193e+002
28219343750 -3.125110e+000 1.119633e+002 -5.335926e+001 -7.771106e+001 -5.401321e+001 -1.901951e-001 -2.697157e+000 1.380627e+002
28238087500 -3.124851e+000 1.115016e+002 -5.347435e+001 -8.159785e+001 -5.399847e+001 -1.352656e+001 -2.677839e+000 1.375331e+002
28256831250 -3.121937e+000 1.110598e+002 -5.298866e+001 -9.228374e+001 -5.394116e+001 -3.202952e+001 -2.662908e+000 1.370542e+002
28275575000 -3.122860e+000 1.106204e+002 -5.280994e+001 -9.362699e+001 -5.414576e+001 -4.729158e+001 -2.650295e+000 1.365533e+002
28294318750 -3.112884e+000 1.101767e+002 -5.309240e+001 -9.472594e+001 -5.377640e+001 -6.846286e+001 -2.642144e+000 1.360766e+002
28313062500 -3.111448e+000 1.097977e+002 -5.351424e+001 -9.480542e+001 -5.429904e+001 -8.795284e+001 -2.634620e+000 1.355607e+002
28331806250 -3.123513e+000 1.093970e+002 -5.338772e+001 -9.735068e+001 -5.503566e+001 -1.066895e+002 -2.620123e+000 1.350093e+002
28350550000 -3.120035e+000 1.089496e+002 -5.318887e+001 -1.060664e+002 -5.497676e+001 -1.243926e+002 -2.609330e+000 1.345090e+002
28369293750 -3.129202e+000 1.085057e+002 -5.322069e+001 -1.138724e+002 -5.543084e+001 -1.291909e+002 -2.597656e+000 1.339891e+002
28388037500 -3.126878e+000 1.080014e+002 -5.334047e+001 -1.213497e+002 -5.526237e+001 -1.334491e+002 -2.587383e+000 1.335192e+002
28406781250 -3.118916e+000 1.075519e+002 -5.334854e+001 -1.199295e+002 -5.531435e+001 -1.324308e+002 -2.581111e+000 1.330402e+002
28425525000 -3.114825e+000 1.072105e+002 -5.344154e+001 -1.152802e+002 -5.518870e+001 -1.273734e+002 -2.575045e+000 1.325088e+002
28444268750 -3.123007e+000 1.067982e+002 -5.368697e+001 -1.174390e+002 -5.542794e+001 -1.258577e+002 -2.565878e+000 1.319982e+002
28463012500 -3.124430e+000 1.063579e+002 -5.383184e+001 -1.181661e+002 -5.538896e+001 -1.213226e+002 -2.559668e+000 1.315042e+002
28481756250 -3.130399e+000 1.059442e+002 -5.380130e+001 -1.178415e+002 -5.517001e+001 -1.200513e+002 -2.546261e+000 1.309918e+002
28500500000 -3.129079e+000 1.054910e+002 -5.395451e+001 -1.183144e+002 -5.497006e+001 -1.185719e+002 -2.535285e+000 1.305493e+002
28519243750 -3.123977e+000 1.051060e+002 -5.434977e+001 -1.155385e+002 -5.491402e+001 -1.195781e+002 -2.527680e+000 1.300925e+002
28537987500 -3.123172e+000 1.047906e+002 -5.419436e+001 -1.177375e+002 -5.502581e+001 -1.176138e+002 -2.526128e+000 1.296147e+002
28556731250 -3.133243e+000 1.043939e+002 -5.393622e+001 -1.181640e+002 -5.484567e+001 -1.160570e+002 -2.518862e+000 1.291260e+002
28575475000 -3.131699e+000 1.039892e+002 -5.365292e+001 -1.188770e+002 -5.503530e+001 -1.148646e+002 -2.518131e+000 1.286405e+002
28594218750 -3.133109e+000 1.035448e+002 -5.342384e+001 -1.193660e+002 -5.414762e+001 -1.120961e+002 -2.508821e+000 1.281589e+002
28612962500 -3.131710e+000 1.030816e+002 -5.333442e+001 -1.211368e+002 -5.435054e+001 -1.128396e+002 -2.499588e+000 1.276859e+002
28631706250 -3.122638e+000 1.026988e+002 -5.369934e+001 -1.202742e+002 -5.492628e+001 -1.113487e+002 -2.495321e+000 1.272124e+002
28650450000 -3.124107e+000 1.023449e+002 -5.341844e+001 -1.196551e+002 -5.500027e+001 -1.065019e+002 -2.492749e+000 1.267222e+002
28669193750 -3.129536e+000 1.019386e+002 -5.320664e+001 -1.156230e+002 -5.500778e+001 -1.074919e+002 -2.486550e+000 1.262677e+002
28687937500 -3.131245e+000 1.015451e+002 -5.349304e+001 -1.116113e+002 -5.492530e+001 -1.059634e+002 -2.485031e+000 1.257529e+002
28706681250 -3.138500e+000 1.011027e+002 -5.384809e+001 -1.053185e+002 -5.469501e+001 -1.090564e+002 -2.472526e+000 1.252854e+002
28725425000 -3.136245e+000 1.006687e+002 -5.372718e+001 -1.030263e+002 -5.469956e+001 -1.037973e+002 -2.464658e+000 1.248368e+002
28744168750 -3.126602e+000 1.003017e+002 -5.367537e+001 -1.033672e+002 -5.474149e+001 -9.825259e+001 -2.464127e+000 1.243916e+002
28762912500 -3.126932e+000 9.995851e+001 -5.402735e+001 -1.004918e+002 -5.382567e+001 -9.465172e+001 -2.464501e+000 1.239094e+002
28781656250 -3.129221e+000 9.955053e+001 -5.374448e+001 -9.365128e+001 -5.358363e+001 -8.939027e+001 -2.457603e+000 1.234412e+002
28800400000 -3.126597e+000 9.914550e+001 -5.368887e+001 -8.892448e+001 -5.312822e+001 -8.924165e+001 -2.454383e+000 1.229765e+002
28819143750 -3.132221e+000 9.874019e+001 -5.425208e+001 -8.078678e+001 -5.330859e+001 -8.751334e+001 -2.445407e+000 1.224820e+002
28837887500 -3.128899e+000 9.830364e+001 -5.457418e+001 -8.192664e+001 -5.344021e+001 -8.941429e+001 -2.438550e+000 1.220574e+002
28856631250 -3.125335e+000 9.791283e+001 -5.434509e+001 -8.517707e+001 -5.318246e+001 -9.366930e+001 -2.443823e+000 1.216380e+002
28875375000 -3.129643e+000 9.755362e+001 -5.431023e+001 -8.542222e+001 -5.319577e+001 -9.400095e+001 -2.442070e+000 1.211531e+002
28894118750 -3.131257e+000 9.715119e+001 -5.387864e+001 -8.913681e+001 -5.322398e+001 -9.946329e+001 -2.443613e+000 1.206748e+002
28912862500 -3.131393e+000 9.674229e+001 -5.360032e+001 -9.223467e+001 -5.343708e+001 -9.845362e+001 -2.443681e+000 1.202070e+002
28931606250 -3.132666e+000 9.632559e+001 -5.361414e+001 -9.151168e+001 -5.380112e+001 -9.730646e+001 -2.440038e+000 1.196975e+002
28950350000 -3.124290e+000 9.587871e+001 -5.327633e+001 -9.534486e+001 -5.365731e+001 -9.844490e+001 -2.440744e+000 1.192727e+002
28969093750 -3.117650e+000 9.550010e+001 -5.387775e+001 -1.015870e+002 -5.399509e+001 -1.050246e+002 -2.445226e+000 1.188064e+002
28987837500 -3.117935e+000 9.513226e+001 -5.401968e+001 -1.052117e+002 -5.392946e+001 -1.074538e+002 -2.445541e+000 1.183346e+002
29006581250 -3.123779e+000 9.473463e+001 -5.415418e+001 -1.045025e+002 -5.423809e+001 -1.077746e+002 -2.447495e+000 1.179127e+002
29025325000 -3.128190e+000 9.433392e+001 -5.418615e+001 -1.046927e+002 -5.441560e+001 -1.036799e+002 -2.453872e+000 1.174058e+002
29044068750 -3.128944e+000 9.389568e+001 -5.431350e+001 -1.003902e+002 -5.437197e+001 -1.050643e+002 -2.450908e+000 1.169367e+002
29062812500 -3.122406e+000 9.342603e+001 -5.426271e+001 -9.932724e+001 -5.403851e+001 -1.047210e+002 -2.453509e+000 1.165225e+002
29081556250 -3.117529e+000 9.306937e+001 -5.447881e+001 -9.992302e+001 -5.380161e+001 -1.015720e+002 -2.462129e+000 1.160431e+002
29100300000 -3.119881e+000 9.268409e+001 -5.460356e+001 -1.026768e+002 -5.361388e+001 -1.002702e+002 -2.465190e+000 1.155603e+002
29119043750 -3.127791e+000 9.227615e+001 -5.455643e+001 -1.044620e+002 -5.334496e+001 -1.014923e+002 -2.469490e+000 1.150825e+002
29137787500 -3.132730e+000 9.184243e+001 -5.431946e+001 -1.087289e+002 -5.304988e+001 -1.024748e+002 -2.479077e+000 1.145574e+002
29156531250 -3.137645e+000 9.135178e+001 -5.400793e+001 -1.102583e+002 -5.278842e+001 -1.062079e+002 -2.477149e+000 1.140693e+002
29175275000 -3.132455e+000 9.089417e+001 -5.362271e+001 -1.073205e+002 -5.198816e+001 -1.116385e+002 -2.485781e+000 1.136275e+002
29194018750 -3.126532e+000 9.050848e+001 -5.339657e+001 -1.086857e+002 -5.200725e+001 -1.141488e+002 -2.500016e+000 1.131448e+002
29212762500 -3.132119e+000 9.010622e+001 -5.319547e+001 -1.079876e+002 -5.254104e+001 -1.138901e+002 -2.506047e+000 1.126242e+002
29231506250 -3.133539e+000 8.969509e+001 -5.315726e+001 -1.061520e+002 -5.242377e+001 -1.134118e+002 -2.519407e+000 1.121741e+002
29250250000 -3.141367e+000 8.927194e+001 -5.277519e+001 -1.134811e+002 -5.223281e+001 -1.110769e+002 -2.529235e+000 1.116171e+002
29268993750 -3.144480e+000 8.878374e+001 -5.225956e+001 -1.122143e+002 -5.203252e+001 -1.072241e+002 -2.528031e+000 1.111080e+002
29287737500 -3.138781e+000 8.834475e+001 -5.231090e+001 -1.135530e+002 -5.198818e+001 -1.063262e+002 -2.536733e+000 1.106674e+002
29306481250 -3.139089e+000 8.796330e+001 -5.197974e+001 -1.131871e+002 -5.206701e+001 -1.085849e+002 -2.547685e+000 1.101681e+002
29325225000 -3.142299e+000 8.755266e+001 -5.183202e+001 -1.118309e+002 -5.177835e+001 -1.085631e+002 -2.552264e+000 1.096931e+002
29343968750 -3.152449e+000 8.715727e+001 -5.172480e+001 -1.122198e+002 -5.160160e+001 -1.105936e+002 -2.568347e+000 1.091875e+002
29362712500 -3.165031e+000 8.671352e+001 -5.174645e+001 -1.129342e+002 -5.119616e+001 -1.115501e+002 -2.574563e+000 1.086421e+002
29381456250 -3.167304e+000 8.619778e+001 -5.174186e+001 -1.107799e+002 -5.117282e+001 -1.125935e+002 -2.577315e+000 1.081219e+002
29400200000 -3.165654e+000 8.576123e+001 -5.103983e+001 -1.022658e+002 -5.055580e+001 -1.087140e+002 -2.592810e+000 1.076455e+002
29418943750 -3.172421e+000 8.534492e+001 -5.084547e+001 -1.035548e+002 -5.032187e+001 -1.083885e+002 -2.598833e+000 1.071143e+002
29437687500 -3.180935e+000 8.494464e+001 -5.074963e+001 -1.042516e+002 -4.990365e+001 -1.097624e+002 -2.603817e+000 1.065959e+002
29456431250 -3.193952e+000 8.455739e+001 -5.053883e+001 -1.074428e+002 -4.964708e+001 -1.119675e+002 -2.619699e+000 1.061013e+002
29475175000 -3.214383e+000 8.409203e+001 -5.027398e+001 -1.136949e+002 -4.933688e+001 -1.120402e+002 -2.626566e+000 1.055476e+002
29493918750 -3.224938e+000 8.361462e+001 -4.992445e+001 -1.160146e+002 -4.895222e+001 -1.144030e+002 -2.632337e+000 1.050583e+002
29512662500 -3.229294e+000 8.320694e+001 -4.964440e+001 -1.181881e+002 -4.857856e+001 -1.184556e+002 -2.649428e+000 1.045557e+002
29531406250 -3.242109e+000 8.282709e+001 -4.934214e+001 -1.197644e+002 -4.843187e+001 -1.196257e+002 -2.658685e+000 1.039966e+002
29550150000 -3.251333e+000 8.246313e+001 -4.926606e+001 -1.223310e+002 -4.839707e+001 -1.212059e+002 -2.671623e+000 1.035085e+002
29568893750 -3.269325e+000 8.210519e+001 -4.901882e+001 -1.271803e+002 -4.811144e+001 -1.223061e+002 -2.690265e+000 1.029613e+002
29587637500 -3.289315e+000 8.167797e+001 -4.894831e+001 -1.308129e+002 -4.795990e+001 -1.240366e+002 -2.697649e+000 1.023886e+002
29606381250 -3.297180e+000 8.124752e+001 -4.907451e+001 -1.358422e+002 -4.810939e+001 -1.265106e+002 -2.703555e+000 1.018777e+002
29625125000 -3.310314e+000 8.088056e+001 -4.863176e+001 -1.372247e+002 -4.771407e+001 -1.292149e+002 -2.717421e+000 1.013373e+002
29643868750 -3.323931e+000 8.055442e+001 -4.845711e+001 -1.402165e+002 -4.706439e+001 -1.320688e+002 -2.726077e+000 1.008174e+002
29662612500 -3.337837e+000 8.023051e+001 -4.821025e+001 -1.455565e+002 -4.699965e+001 -1.370647e+002 -2.737287e+000 1.003057e+002
29681356250 -3.361701e+000 7.988063e+001 -4.771689e+001 -1.461852e+002 -4.682708e+001 -1.404930e+002 -2.757427e+000 9.976344e+001
29700100000 -3.388401e+000 7.948787e+001 -4.742245e+001 -1.516609e+002 -4.667137e+001 -1.452442e+002 -2.769424e+000 9.920517e+001
29718843750 -3.403227e+000 7.910301e+001 -4.702836e+001 -1.541537e+002 -4.651218e+001 -1.482630e+002 -2.780658e+000 9.866882e+001
29737587500 -3.414607e+000 7.880098e+001 -4.690743e+001 -1.598527e+002 -4.608451e+001 -1.526149e+002 -2.797465e+000 9.809966e+001
29756331250 -3.434711e+000 7.850998e+001 -4.675659e+001 -1.638446e+002 -4.605016e+001 -1.561293e+002 -2.808773e+000 9.755746e+001
29775075000 -3.447902e+000 7.825957e+001 -4.681150e+001 -1.679404e+002 -4.605293e+001 -1.607123e+002 -2.828059e+000 9.708060e+001
29793818750 -3.469398e+000 7.799053e+001 -4.669169e+001 -1.733855e+002 -4.574239e+001 -1.655820e+002 -2.849924e+000 9.659889e+001
29812562500 -3.505983e+000 7.773123e+001 -4.673112e+001 -1.793864e+002 -4.527859e+001 -1.681025e+002 -2.863750e+000 9.607484e+001
29831306250 -3.535321e+000 7.738383e+001 -4.673944e+001 1.759662e+002 -4.514285e+001 -1.713181e+002 -2.866284e+000 9.561794e+001
29850050000 -3.554330e+000 7.710943e+001 -4.672065e+001 1.735589e+002 -4.498973e+001 -1.747486e+002 -2.886634e+000 9.521221e+001
29868793750 -3.574390e+000 7.683554e+001 -4.674432e+001 1.686535e+002 -4.474978e+001 -1.786160e+002 -2.900286e+000 9.478347e+001
29887537500 -3.586575e+000 7.659845e+001 -4.685807e+001 1.653500e+002 -4.449767e+001 1.781264e+002 -2.906428e+000 9.440551e+001
29906281250 -3.603914e+000 7.647817e+001 -4.680782e+001 1.628320e+002 -4.423525e+001 1.752346e+002 -2.926446e+000 9.402785e+001
29925025000 -3.633375e+000 7.630296e+001 -4.693031e+001 1.597161e+002 -4.388739e+001 1.722321e+002 -2.934749e+000 9.361530e+001
29943768750 -3.653998e+000 7.605331e+001 -4.701064e+001 1.572324e+002 -4.373008e+001 1.687417e+002 -2.934049e+000 9.332376e+001
29962512500 -3.667594e+000 7.586602e+001 -4.714658e+001 1.541744e+002 -4.351148e+001 1.663448e+002 -2.950896e+000 9.306061e+001
29981256250 -3.682241e+000 7.565388e+001 -4.703146e+001 1.518733e+002 -4.331366e+001 1.639657e+002 -2.957797e+000 9.275955e+001
30000000000 -3.685989e+000 7.552387e+001 -4.707558e+001 1.485105e+002 -4.313102e+001 1.614349e+002 -2.961956e+000 9.255302e+001
