!Agilent Technologies,E8364B,MY43040894,A.07.50.67
!Agilent E8364B: A.07.50.67
!Date: Tuesday, May 12, 2020 09:52:05
!Correction: S11(Full 2 Port(1,2)) 
!S21(Full 2 Port(1,2)) 
!S12(Full 2 Port(1,2)) 
!S22(Full 2 Port(1,2)) 
!S2P File: Measurements: S11, S21, S12, S22:
# Hz S  dB   R 50
10000000 -2.812700e-001 -6.093848e+000 -5.057707e+001 3.701873e+001 -4.899762e+001 3.350767e+001 6.564685e-003 -1.411764e+000
28743750 -2.888644e-001 -6.926642e+000 -5.102378e+001 1.261944e+001 -5.004522e+001 2.428720e+001 3.400196e-003 -1.742477e+000
47487500 -2.979220e-001 -7.838850e+000 -5.163265e+001 -1.847642e+001 -5.079539e+001 7.352047e+000 -9.111307e-005 -2.103143e+000
66231250 -3.040483e-001 -8.816895e+000 -5.198476e+001 -4.317104e+001 -5.170177e+001 -1.164509e+001 -4.373873e-003 -2.489685e+000
84975000 -3.139933e-001 -9.861553e+000 -5.239046e+001 -6.867154e+001 -5.238522e+001 -3.496616e+001 -7.709922e-003 -2.909903e+000
103718750 -3.265405e-001 -1.098738e+001 -5.285387e+001 -9.551953e+001 -5.316649e+001 -5.584940e+001 -9.184079e-003 -3.342229e+000
122462500 -3.411229e-001 -1.215531e+001 -5.330909e+001 -1.204588e+002 -5.361733e+001 -7.701727e+001 -1.068204e-002 -3.794096e+000
141206250 -3.548882e-001 -1.340617e+001 -5.383265e+001 -1.475257e+002 -5.445550e+001 -9.452766e+001 -1.402172e-002 -4.274504e+000
159950000 -3.718204e-001 -1.471889e+001 -5.447803e+001 -1.736230e+002 -5.514797e+001 -1.120536e+002 -1.556630e-002 -4.770459e+000
178693750 -3.876030e-001 -1.610777e+001 -5.593308e+001 1.606743e+002 -5.554842e+001 -1.321609e+002 -1.801551e-002 -5.286930e+000
197437500 -4.037303e-001 -1.754143e+001 -5.716122e+001 1.373974e+002 -5.608526e+001 -1.553539e+002 -2.001354e-002 -5.845118e+000
216181250 -4.247753e-001 -1.904356e+001 -5.799943e+001 1.078244e+002 -5.667063e+001 -1.734479e+002 -1.982302e-002 -6.411721e+000
234925000 -4.430844e-001 -2.061935e+001 -5.865048e+001 8.528989e+001 -5.749670e+001 1.669527e+002 -2.011011e-002 -7.020744e+000
253668750 -4.649457e-001 -2.217979e+001 -5.841409e+001 6.267259e+001 -5.761950e+001 1.485998e+002 -1.754091e-002 -7.558120e+000
272412500 -4.884677e-001 -2.371332e+001 -5.871582e+001 3.811288e+001 -5.831981e+001 1.272715e+002 -1.337168e-002 -8.111335e+000
291156250 -5.119995e-001 -2.527138e+001 -5.883284e+001 1.640534e+001 -5.868570e+001 1.102812e+002 -1.151639e-002 -8.638007e+000
309900000 -5.348214e-001 -2.682647e+001 -5.952036e+001 -7.500624e+000 -5.932765e+001 9.848494e+001 -7.329216e-003 -9.178704e+000
328643750 -5.571645e-001 -2.835189e+001 -5.988636e+001 -1.904849e+001 -6.023309e+001 9.219783e+001 -1.217789e-003 -9.699593e+000
347387500 -5.815277e-001 -2.988227e+001 -5.981406e+001 -2.740566e+001 -6.141173e+001 8.103302e+001 4.635131e-003 -1.023964e+001
366131250 -6.051506e-001 -3.139249e+001 -5.957007e+001 -3.316250e+001 -6.166196e+001 6.173471e+001 9.373096e-003 -1.078662e+001
384875000 -6.307615e-001 -3.288459e+001 -5.987333e+001 -3.610045e+001 -6.179821e+001 4.601077e+001 1.185276e-002 -1.131921e+001
403618750 -6.581877e-001 -3.439456e+001 -6.005588e+001 -3.511366e+001 -6.225680e+001 3.251580e+001 1.572659e-002 -1.186221e+001
422362500 -6.814728e-001 -3.588187e+001 -6.017060e+001 -3.664771e+001 -6.215633e+001 1.985599e+001 2.137155e-002 -1.239940e+001
441106250 -7.059081e-001 -3.736313e+001 -6.113083e+001 -3.784675e+001 -6.235389e+001 1.208650e+000 2.674626e-002 -1.293432e+001
459850000 -7.309511e-001 -3.884958e+001 -6.136810e+001 -5.087527e+001 -6.236427e+001 -6.772103e+000 3.268783e-002 -1.348265e+001
478593750 -7.541007e-001 -4.032253e+001 -6.156859e+001 -6.095562e+001 -6.237536e+001 -1.075622e+001 3.810654e-002 -1.401674e+001
497337500 -7.809803e-001 -4.179264e+001 -6.179374e+001 -7.605709e+001 -6.219809e+001 -1.358749e+001 4.295496e-002 -1.455794e+001
516081250 -8.059058e-001 -4.324302e+001 -6.243735e+001 -9.051680e+001 -6.228295e+001 -1.147922e+001 4.617632e-002 -1.509178e+001
534825000 -8.290324e-001 -4.467905e+001 -6.261852e+001 -1.037040e+002 -6.255687e+001 -1.064541e+001 4.701492e-002 -1.562958e+001
553568750 -8.522586e-001 -4.612884e+001 -6.294279e+001 -1.231787e+002 -6.327269e+001 -1.071461e+001 4.886658e-002 -1.616921e+001
572312500 -8.744738e-001 -4.756794e+001 -6.361811e+001 -1.367865e+002 -6.307752e+001 -1.433406e+001 5.048047e-002 -1.671101e+001
591056250 -8.954198e-001 -4.900871e+001 -6.401396e+001 -1.500827e+002 -6.335972e+001 -1.951815e+001 5.057050e-002 -1.725544e+001
609800000 -9.188281e-001 -5.041938e+001 -6.423746e+001 -1.582436e+002 -6.360706e+001 -1.988770e+001 5.280111e-002 -1.781332e+001
628543750 -9.430958e-001 -5.184192e+001 -6.437598e+001 -1.723826e+002 -6.385628e+001 -1.745286e+001 5.541803e-002 -1.836523e+001
647287500 -9.636153e-001 -5.326941e+001 -6.428532e+001 1.744080e+002 -6.414219e+001 -2.022685e+001 5.614157e-002 -1.891870e+001
666031250 -9.860966e-001 -5.467873e+001 -6.431674e+001 1.566382e+002 -6.428974e+001 -2.691455e+001 5.525105e-002 -1.946380e+001
684775000 -1.011134e+000 -5.607406e+001 -6.460990e+001 1.390005e+002 -6.456369e+001 -2.674297e+001 5.244386e-002 -2.001660e+001
703518750 -1.033683e+000 -5.749681e+001 -6.634851e+001 1.158960e+002 -6.482506e+001 -2.411114e+001 5.076923e-002 -2.057352e+001
722262500 -1.054983e+000 -5.888327e+001 -6.623561e+001 9.884084e+001 -6.472520e+001 -1.947617e+001 5.014100e-002 -2.113292e+001
741006250 -1.076801e+000 -6.026847e+001 -6.622829e+001 8.186906e+001 -6.457403e+001 -2.581623e+001 4.819568e-002 -2.168903e+001
759750000 -1.099497e+000 -6.166225e+001 -6.643530e+001 6.371048e+001 -6.407270e+001 -3.634259e+001 4.480145e-002 -2.224754e+001
778493750 -1.119816e+000 -6.302539e+001 -6.679491e+001 4.700312e+001 -6.373572e+001 -3.496849e+001 4.117097e-002 -2.280866e+001
797237500 -1.141065e+000 -6.440248e+001 -6.688493e+001 2.755422e+001 -6.390190e+001 -3.166890e+001 3.733522e-002 -2.338486e+001
815981250 -1.161896e+000 -6.577909e+001 -6.701714e+001 1.069696e+001 -6.397105e+001 -3.109813e+001 3.366202e-002 -2.395608e+001
834725000 -1.180446e+000 -6.713873e+001 -6.701882e+001 -7.471820e+000 -6.376930e+001 -2.942657e+001 2.976550e-002 -2.451432e+001
853468750 -1.204174e+000 -6.850121e+001 -6.704430e+001 -2.492322e+001 -6.422368e+001 -3.249254e+001 2.483936e-002 -2.507598e+001
872212500 -1.225492e+000 -6.986261e+001 -6.636149e+001 -3.835152e+001 -6.446908e+001 -3.219674e+001 1.893588e-002 -2.564357e+001
890956250 -1.246315e+000 -7.121075e+001 -6.660417e+001 -4.448807e+001 -6.456657e+001 -2.779467e+001 1.239521e-002 -2.621604e+001
909700000 -1.267228e+000 -7.255367e+001 -6.655870e+001 -4.414462e+001 -6.452017e+001 -1.275536e+001 6.091458e-003 -2.680310e+001
928443750 -1.289148e+000 -7.388946e+001 -6.707716e+001 -4.451828e+001 -6.450549e+001 2.551243e+000 7.382040e-004 -2.736682e+001
947187500 -1.310114e+000 -7.522954e+001 -6.687585e+001 -4.345185e+001 -6.455653e+001 1.355146e+001 -3.523963e-003 -2.793011e+001
965931250 -1.331913e+000 -7.656720e+001 -6.691091e+001 -4.673174e+001 -6.447663e+001 2.953816e+001 -7.715345e-003 -2.849983e+001
984675000 -1.351155e+000 -7.790278e+001 -6.695173e+001 -4.544889e+001 -6.432679e+001 4.498056e+001 -1.490893e-002 -2.908113e+001
1003418750 -1.373822e+000 -7.921785e+001 -6.696375e+001 -4.808998e+001 -6.429543e+001 6.005615e+001 -1.924008e-002 -2.965078e+001
1022162500 -1.393172e+000 -8.052921e+001 -6.656537e+001 -4.879867e+001 -6.443973e+001 7.633870e+001 -2.477806e-002 -3.022949e+001
1040906250 -1.413200e+000 -8.183740e+001 -6.582188e+001 -5.948001e+001 -6.505022e+001 9.327602e+001 -3.176421e-002 -3.080391e+001
1059650000 -1.433261e+000 -8.315373e+001 -6.537881e+001 -6.669670e+001 -6.511027e+001 1.064092e+002 -4.008928e-002 -3.135270e+001
1078393750 -1.452400e+000 -8.445071e+001 -6.536895e+001 -6.772897e+001 -6.497720e+001 1.215806e+002 -4.911394e-002 -3.192307e+001
1097137500 -1.474023e+000 -8.574441e+001 -6.534821e+001 -7.010894e+001 -6.484863e+001 1.422763e+002 -5.509917e-002 -3.246893e+001
1115881250 -1.493566e+000 -8.703820e+001 -6.524229e+001 -6.435917e+001 -6.460393e+001 1.580873e+002 -5.865695e-002 -3.302756e+001
1134625000 -1.512764e+000 -8.832407e+001 -6.401236e+001 -5.932396e+001 -6.426990e+001 1.702394e+002 -6.307529e-002 -3.358759e+001
1153368750 -1.532465e+000 -8.960735e+001 -6.439067e+001 -5.803677e+001 -6.446474e+001 -1.779543e+002 -6.781415e-002 -3.416901e+001
1172112500 -1.553840e+000 -9.087675e+001 -6.441935e+001 -5.572246e+001 -6.492622e+001 -1.610726e+002 -7.597750e-002 -3.474022e+001
1190856250 -1.574168e+000 -9.214432e+001 -6.429444e+001 -5.930119e+001 -6.517030e+001 -1.471076e+002 -8.275455e-002 -3.531426e+001
1209600000 -1.593569e+000 -9.341132e+001 -6.419019e+001 -5.991618e+001 -6.508485e+001 -1.390587e+002 -8.887854e-002 -3.588183e+001
1228343750 -1.612886e+000 -9.468565e+001 -6.436034e+001 -5.794281e+001 -6.516330e+001 -1.294415e+002 -9.468000e-002 -3.642924e+001
1247087500 -1.631704e+000 -9.594902e+001 -6.468105e+001 -5.645023e+001 -6.546130e+001 -1.106368e+002 -9.750627e-002 -3.698542e+001
1265831250 -1.650559e+000 -9.721404e+001 -6.533083e+001 -5.885800e+001 -6.548927e+001 -9.382191e+001 -1.006498e-001 -3.754040e+001
1284575000 -1.668161e+000 -9.845270e+001 -6.553603e+001 -6.185093e+001 -6.592175e+001 -7.099552e+001 -1.048971e-001 -3.810364e+001
1303318750 -1.686002e+000 -9.970522e+001 -6.542681e+001 -5.982728e+001 -6.599858e+001 -5.808231e+001 -1.092002e-001 -3.865491e+001
1322062500 -1.703493e+000 -1.009508e+002 -6.514683e+001 -5.676211e+001 -6.575108e+001 -4.576665e+001 -1.133408e-001 -3.920093e+001
1340806250 -1.721047e+000 -1.021879e+002 -6.547706e+001 -5.792492e+001 -6.640309e+001 -4.145041e+001 -1.181812e-001 -3.974105e+001
1359550000 -1.738497e+000 -1.034363e+002 -6.525391e+001 -5.956949e+001 -6.629420e+001 -4.089734e+001 -1.212885e-001 -4.028717e+001
1378293750 -1.757349e+000 -1.047003e+002 -6.518783e+001 -6.369108e+001 -6.688908e+001 -4.038554e+001 -1.230681e-001 -4.084059e+001
1397037500 -1.776468e+000 -1.059293e+002 -6.572001e+001 -6.965800e+001 -6.684496e+001 -4.231855e+001 -1.248511e-001 -4.141674e+001
1415781250 -1.795598e+000 -1.071634e+002 -6.571003e+001 -8.242025e+001 -6.663517e+001 -4.142592e+001 -1.250454e-001 -4.196767e+001
1434525000 -1.813433e+000 -1.083713e+002 -6.563844e+001 -9.055565e+001 -6.670528e+001 -4.243742e+001 -1.269709e-001 -4.253050e+001
1453268750 -1.833385e+000 -1.095827e+002 -6.571487e+001 -9.528689e+001 -6.623418e+001 -3.999766e+001 -1.279885e-001 -4.307916e+001
1472012500 -1.850550e+000 -1.108066e+002 -6.623827e+001 -9.504644e+001 -6.599460e+001 -4.445549e+001 -1.270136e-001 -4.360451e+001
1490756250 -1.868362e+000 -1.120175e+002 -6.623007e+001 -9.360747e+001 -6.616618e+001 -4.185368e+001 -1.249496e-001 -4.414824e+001
1509500000 -1.887984e+000 -1.132402e+002 -6.631258e+001 -9.071543e+001 -6.607589e+001 -4.317719e+001 -1.220541e-001 -4.471269e+001
1528243750 -1.908572e+000 -1.144552e+002 -6.659833e+001 -9.025577e+001 -6.669001e+001 -3.926830e+001 -1.194328e-001 -4.528877e+001
1546987500 -1.926517e+000 -1.156443e+002 -6.664915e+001 -9.315704e+001 -6.677142e+001 -4.359150e+001 -1.205750e-001 -4.585776e+001
1565731250 -1.943138e+000 -1.168350e+002 -6.626109e+001 -9.409161e+001 -6.692161e+001 -4.731605e+001 -1.220243e-001 -4.642265e+001
1584475000 -1.958379e+000 -1.180223e+002 -6.610731e+001 -9.306902e+001 -6.742383e+001 -4.630671e+001 -1.222359e-001 -4.695079e+001
1603218750 -1.974265e+000 -1.192224e+002 -6.591672e+001 -8.372713e+001 -6.703432e+001 -4.295084e+001 -1.185334e-001 -4.748361e+001
1621962500 -1.991782e+000 -1.204220e+002 -6.617725e+001 -6.760197e+001 -6.708585e+001 -3.217757e+001 -1.162779e-001 -4.802333e+001
1640706250 -2.011226e+000 -1.216292e+002 -6.735599e+001 -4.822278e+001 -6.688141e+001 -2.464471e+001 -1.128744e-001 -4.857296e+001
1659450000 -2.029920e+000 -1.227985e+002 -6.732766e+001 -3.575587e+001 -6.645293e+001 -2.155597e+001 -1.100725e-001 -4.915019e+001
1678193750 -2.046700e+000 -1.239642e+002 -6.701672e+001 -1.886940e+001 -6.666896e+001 -2.915690e+001 -1.100553e-001 -4.970381e+001
1696937500 -2.061346e+000 -1.251229e+002 -6.627218e+001 -1.815065e+000 -6.648359e+001 -3.048482e+001 -1.089559e-001 -5.024800e+001
1715681250 -2.076637e+000 -1.263120e+002 -6.636406e+001 1.962480e+001 -6.586531e+001 -3.624796e+001 -1.059077e-001 -5.077509e+001
1734425000 -2.093794e+000 -1.274802e+002 -6.649741e+001 3.207241e+001 -6.568151e+001 -3.723896e+001 -1.028633e-001 -5.130650e+001
1753168750 -2.112213e+000 -1.286470e+002 -6.687016e+001 3.827022e+001 -6.581774e+001 -4.070581e+001 -9.947087e-002 -5.186724e+001
1771912500 -2.133805e+000 -1.298059e+002 -6.690699e+001 3.941915e+001 -6.528890e+001 -4.617073e+001 -9.505191e-002 -5.243121e+001
1790656250 -2.152875e+000 -1.309289e+002 -6.688105e+001 3.463888e+001 -6.522902e+001 -4.846209e+001 -9.441452e-002 -5.300052e+001
1809400000 -2.167557e+000 -1.320482e+002 -6.685116e+001 3.351919e+001 -6.441406e+001 -5.072068e+001 -9.509499e-002 -5.355313e+001
1828143750 -2.180314e+000 -1.331957e+002 -6.684962e+001 3.864911e+001 -6.474302e+001 -5.419907e+001 -9.386335e-002 -5.406338e+001
1846887500 -2.195056e+000 -1.343382e+002 -6.659680e+001 4.981652e+001 -6.472576e+001 -5.976907e+001 -9.148751e-002 -5.459243e+001
1865631250 -2.211139e+000 -1.355074e+002 -6.644536e+001 5.268742e+001 -6.501614e+001 -5.890212e+001 -8.753612e-002 -5.512751e+001
1884375000 -2.228609e+000 -1.366686e+002 -6.635889e+001 5.228959e+001 -6.500105e+001 -5.639255e+001 -8.497657e-002 -5.567933e+001
1903118750 -2.247799e+000 -1.377969e+002 -6.551503e+001 5.901335e+001 -6.497296e+001 -5.392744e+001 -8.525042e-002 -5.625069e+001
1921862500 -2.263551e+000 -1.389146e+002 -6.599574e+001 5.792751e+001 -6.448877e+001 -5.484949e+001 -8.648267e-002 -5.680632e+001
1940606250 -2.278195e+000 -1.400396e+002 -6.573265e+001 5.723681e+001 -6.455223e+001 -5.334567e+001 -8.807418e-002 -5.732580e+001
1959350000 -2.290788e+000 -1.411571e+002 -6.537215e+001 5.609716e+001 -6.425739e+001 -5.882792e+001 -8.821898e-002 -5.784890e+001
1978093750 -2.306137e+000 -1.423018e+002 -6.509100e+001 5.818779e+001 -6.433112e+001 -5.304746e+001 -8.638009e-002 -5.836870e+001
1996837500 -2.325805e+000 -1.434366e+002 -6.536823e+001 5.880409e+001 -6.395364e+001 -5.038015e+001 -8.333638e-002 -5.891538e+001
2015581250 -2.347296e+000 -1.445670e+002 -6.596598e+001 4.955447e+001 -6.336364e+001 -5.245514e+001 -8.537003e-002 -5.948014e+001
2034325000 -2.364849e+000 -1.456842e+002 -6.617259e+001 3.753711e+001 -6.339151e+001 -5.103447e+001 -8.857090e-002 -6.004971e+001
2053068750 -2.378844e+000 -1.467909e+002 -6.596912e+001 1.849380e+001 -6.324824e+001 -6.012475e+001 -9.157725e-002 -6.059310e+001
2071812500 -2.391235e+000 -1.478922e+002 -6.470751e+001 -2.578405e-001 -6.307954e+001 -6.480777e+001 -9.576748e-002 -6.112542e+001
2090556250 -2.404554e+000 -1.490142e+002 -6.458169e+001 -1.558316e+001 -6.315742e+001 -6.528352e+001 -9.574874e-002 -6.164233e+001
2109300000 -2.421903e+000 -1.501413e+002 -6.474797e+001 -3.603465e+001 -6.285552e+001 -5.593096e+001 -9.752273e-002 -6.218398e+001
2128043750 -2.441671e+000 -1.512553e+002 -6.466999e+001 -5.388762e+001 -6.281427e+001 -5.548706e+001 -1.010606e-001 -6.274660e+001
2146787500 -2.460695e+000 -1.523389e+002 -6.436320e+001 -7.007246e+001 -6.303683e+001 -5.091137e+001 -1.063667e-001 -6.332220e+001
2165531250 -2.475959e+000 -1.534271e+002 -6.460069e+001 -8.613158e+001 -6.345092e+001 -4.025129e+001 -1.120179e-001 -6.388561e+001
2184275000 -2.490461e+000 -1.545297e+002 -6.438065e+001 -9.464328e+001 -6.307922e+001 -2.634692e+001 -1.163913e-001 -6.441245e+001
2203018750 -2.501444e+000 -1.556280e+002 -6.406644e+001 -9.957101e+001 -6.303650e+001 -1.011343e+001 -1.192645e-001 -6.494627e+001
2221762500 -2.516108e+000 -1.567497e+002 -6.441828e+001 -1.049246e+002 -6.314072e+001 5.291065e+000 -1.183947e-001 -6.548402e+001
2240506250 -2.533736e+000 -1.578410e+002 -6.436105e+001 -1.163852e+002 -6.390768e+001 2.619180e+001 -1.195316e-001 -6.602861e+001
2259250000 -2.553880e+000 -1.589293e+002 -6.479314e+001 -1.294324e+002 -6.313102e+001 4.500423e+001 -1.244886e-001 -6.660662e+001
2277993750 -2.569114e+000 -1.600126e+002 -6.501230e+001 -1.466620e+002 -6.324017e+001 6.420255e+001 -1.303877e-001 -6.715788e+001
2296737500 -2.584657e+000 -1.610852e+002 -6.485662e+001 -1.581483e+002 -6.304049e+001 7.570654e+001 -1.373929e-001 -6.769448e+001
2315481250 -2.598618e+000 -1.621460e+002 -6.509018e+001 -1.732602e+002 -6.364629e+001 8.894887e+001 -1.398088e-001 -6.822321e+001
2334225000 -2.612020e+000 -1.632400e+002 -6.507587e+001 1.696175e+002 -6.407161e+001 1.076526e+002 -1.423859e-001 -6.875445e+001
2352968750 -2.627620e+000 -1.643291e+002 -6.443395e+001 1.653268e+002 -6.426077e+001 1.264770e+002 -1.447764e-001 -6.931698e+001
2371712500 -2.644171e+000 -1.653932e+002 -6.439264e+001 1.615909e+002 -6.435197e+001 1.441703e+002 -1.475471e-001 -6.988279e+001
2390456250 -2.659123e+000 -1.664529e+002 -6.459379e+001 1.626672e+002 -6.418361e+001 1.613433e+002 -1.554633e-001 -7.043620e+001
2409200000 -2.672439e+000 -1.675088e+002 -6.486960e+001 1.609497e+002 -6.398271e+001 1.735689e+002 -1.633528e-001 -7.098335e+001
2427943750 -2.682667e+000 -1.685649e+002 -6.481116e+001 1.665110e+002 -6.420646e+001 -1.651484e+002 -1.689227e-001 -7.150591e+001
2446687500 -2.694005e+000 -1.696204e+002 -6.416034e+001 -1.736612e+002 -6.439609e+001 -1.485965e+002 -1.690073e-001 -7.204993e+001
2465431250 -2.707013e+000 -1.706777e+002 -6.454662e+001 -1.639721e+002 -6.409000e+001 -1.351172e+002 -1.686146e-001 -7.258433e+001
2484175000 -2.722888e+000 -1.717328e+002 -6.450629e+001 -1.454281e+002 -6.392731e+001 -1.239153e+002 -1.718561e-001 -7.315030e+001
2502918750 -2.738916e+000 -1.727903e+002 -6.470127e+001 -1.332227e+002 -6.396457e+001 -1.103685e+002 -1.758808e-001 -7.370866e+001
2521662500 -2.755037e+000 -1.738203e+002 -6.487595e+001 -1.138323e+002 -6.387510e+001 -9.481313e+001 -1.828064e-001 -7.424500e+001
2540406250 -2.767964e+000 -1.748570e+002 -6.483231e+001 -9.700979e+001 -6.361416e+001 -9.182906e+001 -1.873576e-001 -7.477593e+001
2559150000 -2.779554e+000 -1.759061e+002 -6.501946e+001 -7.740430e+001 -6.404070e+001 -7.664281e+001 -1.893070e-001 -7.529920e+001
2577893750 -2.791691e+000 -1.769645e+002 -6.525971e+001 -6.463450e+001 -6.443765e+001 -5.985190e+001 -1.891023e-001 -7.582014e+001
2596637500 -2.806906e+000 -1.780198e+002 -6.489231e+001 -4.845524e+001 -6.400217e+001 -4.359313e+001 -1.897730e-001 -7.637483e+001
2615381250 -2.820950e+000 -1.790574e+002 -6.501373e+001 -3.540783e+001 -6.413770e+001 -3.338445e+001 -1.944536e-001 -7.693211e+001
2634125000 -2.835603e+000 1.798917e+002 -6.511883e+001 -2.146140e+001 -6.407599e+001 -2.165532e+001 -2.009896e-001 -7.746371e+001
2652868750 -2.847472e+000 1.788580e+002 -6.446010e+001 3.145469e+000 -6.470506e+001 -1.508113e+001 -2.084474e-001 -7.799687e+001
2671612500 -2.861131e+000 1.778226e+002 -6.466425e+001 3.054862e+001 -6.423472e+001 -1.652633e+001 -2.131355e-001 -7.852789e+001
2690356250 -2.872380e+000 1.767795e+002 -6.393312e+001 6.382956e+001 -6.459402e+001 -1.699539e+001 -2.134678e-001 -7.905066e+001
2709100000 -2.886398e+000 1.757392e+002 -6.384260e+001 9.414353e+001 -6.452654e+001 -1.992537e+001 -2.138654e-001 -7.960673e+001
2727843750 -2.898784e+000 1.746950e+002 -6.392867e+001 1.269879e+002 -6.452440e+001 -1.962447e+001 -2.163596e-001 -8.016407e+001
2746587500 -2.910935e+000 1.736445e+002 -6.405534e+001 1.591689e+002 -6.420148e+001 -3.114478e+001 -2.240550e-001 -8.071882e+001
2765331250 -2.922986e+000 1.726223e+002 -6.413968e+001 -1.735654e+002 -6.368544e+001 -3.933791e+001 -2.301132e-001 -8.125990e+001
2784075000 -2.935430e+000 1.715878e+002 -6.421535e+001 -1.553238e+002 -6.398466e+001 -5.424824e+001 -2.337963e-001 -8.178506e+001
2802818750 -2.946330e+000 1.705506e+002 -6.444267e+001 -1.410547e+002 -6.480606e+001 -7.062522e+001 -2.379308e-001 -8.231748e+001
2821562500 -2.958048e+000 1.695002e+002 -6.433183e+001 -1.261020e+002 -6.459188e+001 -8.659747e+001 -2.394297e-001 -8.285215e+001
2840306250 -2.971722e+000 1.684653e+002 -6.473419e+001 -1.117117e+002 -6.483395e+001 -1.042099e+002 -2.396311e-001 -8.338759e+001
2859050000 -2.984599e+000 1.674378e+002 -6.465472e+001 -1.034060e+002 -6.495403e+001 -1.224531e+002 -2.438822e-001 -8.392743e+001
2877793750 -2.996057e+000 1.663903e+002 -6.461116e+001 -1.053274e+002 -6.450873e+001 -1.377229e+002 -2.523097e-001 -8.446621e+001
2896537500 -3.008461e+000 1.653582e+002 -6.383656e+001 -9.866080e+001 -6.456107e+001 -1.582742e+002 -2.564625e-001 -8.502557e+001
2915281250 -3.022394e+000 1.643395e+002 -6.401727e+001 -1.010471e+002 -6.448109e+001 -1.722345e+002 -2.574204e-001 -8.554924e+001
2934025000 -3.033211e+000 1.633066e+002 -6.368930e+001 -9.656007e+001 -6.442529e+001 1.695181e+002 -2.619129e-001 -8.608048e+001
2952768750 -3.043461e+000 1.622682e+002 -6.382518e+001 -9.678159e+001 -6.436958e+001 1.512946e+002 -2.625854e-001 -8.663105e+001
2971512500 -3.056790e+000 1.612291e+002 -6.419988e+001 -8.575134e+001 -6.449615e+001 1.404922e+002 -2.670461e-001 -8.716937e+001
2990256250 -3.067994e+000 1.602153e+002 -6.431696e+001 -7.340840e+001 -6.418565e+001 1.229509e+002 -2.738625e-001 -8.772998e+001
3009000000 -3.080356e+000 1.591934e+002 -6.443540e+001 -5.891186e+001 -6.348023e+001 9.871689e+001 -2.766932e-001 -8.828024e+001
3027743750 -3.091130e+000 1.581789e+002 -6.501931e+001 -4.437315e+001 -6.311915e+001 7.202948e+001 -2.844270e-001 -8.880987e+001
3046487500 -3.102666e+000 1.571620e+002 -6.493333e+001 -2.949429e+001 -6.324622e+001 4.067913e+001 -2.902877e-001 -8.934351e+001
3065231250 -3.114975e+000 1.561471e+002 -6.483139e+001 -9.302734e+000 -6.328183e+001 1.185202e+001 -2.856725e-001 -8.987835e+001
3083975000 -3.125988e+000 1.551127e+002 -6.507698e+001 5.499106e+000 -6.282220e+001 -7.087565e+000 -2.914050e-001 -9.040176e+001
3102718750 -3.133509e+000 1.540797e+002 -6.508646e+001 1.599363e+001 -6.285766e+001 -2.130833e+001 -2.977451e-001 -9.095773e+001
3121462500 -3.145888e+000 1.530612e+002 -6.480039e+001 2.678992e+001 -6.283775e+001 -3.917233e+001 -3.008742e-001 -9.149760e+001
3140206250 -3.156603e+000 1.520206e+002 -6.501813e+001 4.112788e+001 -6.274279e+001 -5.645550e+001 -3.106668e-001 -9.201150e+001
3158950000 -3.164897e+000 1.510294e+002 -6.516640e+001 4.408194e+001 -6.320839e+001 -8.111696e+001 -3.172838e-001 -9.255490e+001
3177693750 -3.180512e+000 1.500232e+002 -6.490765e+001 4.390883e+001 -6.315405e+001 -1.039103e+002 -3.167828e-001 -9.307458e+001
3196437500 -3.194088e+000 1.489888e+002 -6.570500e+001 3.797219e+001 -6.292496e+001 -1.311483e+002 -3.224386e-001 -9.359266e+001
3215181250 -3.200627e+000 1.479900e+002 -6.572024e+001 4.129982e+001 -6.282077e+001 -1.569733e+002 -3.329484e-001 -9.415640e+001
3233925000 -3.216765e+000 1.469753e+002 -6.601442e+001 4.577647e+001 -6.208134e+001 -1.786672e+002 -3.323300e-001 -9.468008e+001
3252668750 -3.227998e+000 1.459363e+002 -6.644280e+001 4.762330e+001 -6.311417e+001 1.640026e+002 -3.384102e-001 -9.520677e+001
3271412500 -3.233164e+000 1.449213e+002 -6.636256e+001 4.376393e+001 -6.356992e+001 1.509268e+002 -3.436877e-001 -9.576123e+001
3290156250 -3.248986e+000 1.438956e+002 -6.651093e+001 4.027351e+001 -6.371050e+001 1.286183e+002 -3.428109e-001 -9.629580e+001
3308900000 -3.258754e+000 1.428710e+002 -6.658486e+001 3.860519e+001 -6.382040e+001 1.144654e+002 -3.475237e-001 -9.679431e+001
3327643750 -3.264742e+000 1.418661e+002 -6.695811e+001 2.744467e+001 -6.367011e+001 9.851063e+001 -3.563786e-001 -9.731924e+001
3346387500 -3.277545e+000 1.408509e+002 -6.702240e+001 1.564228e+001 -6.377266e+001 7.991040e+001 -3.615805e-001 -9.785225e+001
3365131250 -3.288021e+000 1.398296e+002 -6.756506e+001 -3.681640e+000 -6.415314e+001 5.379608e+001 -3.668029e-001 -9.837123e+001
3383875000 -3.293767e+000 1.388262e+002 -6.738620e+001 -2.604281e+001 -6.480386e+001 3.330658e+001 -3.761872e-001 -9.891358e+001
3402618750 -3.306590e+000 1.378147e+002 -6.691755e+001 -5.447068e+001 -6.459360e+001 1.615274e+001 -3.792618e-001 -9.945584e+001
3421362500 -3.314522e+000 1.367865e+002 -6.659362e+001 -9.134280e+001 -6.459520e+001 -1.049720e+000 -3.837578e-001 -9.996400e+001
3440106250 -3.321183e+000 1.357803e+002 -6.650723e+001 -1.213450e+002 -6.442480e+001 -1.894853e+001 -3.893325e-001 -1.004927e+002
3458850000 -3.334871e+000 1.347595e+002 -6.608823e+001 -1.501868e+002 -6.466542e+001 -3.610705e+001 -3.928611e-001 -1.010030e+002
3477593750 -3.339922e+000 1.337273e+002 -6.644631e+001 -1.710947e+002 -6.440589e+001 -5.084323e+001 -3.968197e-001 -1.015261e+002
3496337500 -3.346063e+000 1.327268e+002 -6.659178e+001 1.716701e+002 -6.451743e+001 -7.128307e+001 -4.083501e-001 -1.020550e+002
3515081250 -3.359250e+000 1.317132e+002 -6.658121e+001 1.541673e+002 -6.469818e+001 -9.731475e+001 -4.122645e-001 -1.025966e+002
3533825000 -3.363853e+000 1.306898e+002 -6.672898e+001 1.423801e+002 -6.494157e+001 -1.291555e+002 -4.180854e-001 -1.031176e+002
3552568750 -3.370922e+000 1.297042e+002 -6.720338e+001 1.284975e+002 -6.468300e+001 -1.605007e+002 -4.243990e-001 -1.036482e+002
3571312500 -3.383123e+000 1.286905e+002 -6.725266e+001 1.219250e+002 -6.494911e+001 1.658306e+002 -4.285045e-001 -1.041924e+002
3590056250 -3.392843e+000 1.276675e+002 -6.714438e+001 1.160580e+002 -6.460477e+001 1.423120e+002 -4.308485e-001 -1.047086e+002
3608800000 -3.396198e+000 1.266454e+002 -6.698569e+001 1.167144e+002 -6.439631e+001 1.221039e+002 -4.385481e-001 -1.052429e+002
3627543750 -3.400558e+000 1.256442e+002 -6.606517e+001 1.164088e+002 -6.542146e+001 1.080263e+002 -4.410540e-001 -1.057816e+002
3646287500 -3.412782e+000 1.246151e+002 -6.590587e+001 1.103340e+002 -6.565111e+001 9.478578e+001 -4.402287e-001 -1.062875e+002
3665031250 -3.413154e+000 1.235998e+002 -6.602803e+001 9.959523e+001 -6.550153e+001 8.132019e+001 -4.510716e-001 -1.068297e+002
3683775000 -3.416313e+000 1.226233e+002 -6.570932e+001 9.549599e+001 -6.450945e+001 6.526225e+001 -4.537360e-001 -1.073684e+002
3702518750 -3.432543e+000 1.216128e+002 -6.545910e+001 9.708472e+001 -6.383583e+001 4.035419e+001 -4.569226e-001 -1.078928e+002
3721262500 -3.432984e+000 1.205701e+002 -6.552262e+001 9.774252e+001 -6.348090e+001 2.656544e+001 -4.647446e-001 -1.084306e+002
3740006250 -3.437886e+000 1.195935e+002 -6.589574e+001 9.529710e+001 -6.359154e+001 6.617049e+000 -4.662301e-001 -1.089588e+002
3758750000 -3.450030e+000 1.185748e+002 -6.578450e+001 1.040881e+002 -6.416960e+001 -1.392263e+001 -4.657896e-001 -1.094867e+002
3777493750 -3.450288e+000 1.175306e+002 -6.574376e+001 1.152116e+002 -6.500890e+001 -3.412828e+001 -4.723232e-001 -1.100169e+002
3796237500 -3.455245e+000 1.165440e+002 -6.545815e+001 1.290135e+002 -6.483999e+001 -4.554725e+001 -4.727859e-001 -1.105514e+002
3814981250 -3.468991e+000 1.154774e+002 -6.527484e+001 1.446073e+002 -6.473571e+001 -5.921587e+001 -4.745779e-001 -1.110740e+002
3833725000 -3.465715e+000 1.144531e+002 -6.571584e+001 1.575726e+002 -6.516300e+001 -7.708287e+001 -4.787197e-001 -1.115978e+002
3852468750 -3.475477e+000 1.134528e+002 -6.606750e+001 1.737968e+002 -6.500040e+001 -9.314368e+001 -4.777010e-001 -1.121318e+002
3871212500 -3.483883e+000 1.124097e+002 -6.624109e+001 -1.723959e+002 -6.497330e+001 -1.095848e+002 -4.830063e-001 -1.126495e+002
3889956250 -3.479526e+000 1.113732e+002 -6.670031e+001 -1.522259e+002 -6.551552e+001 -1.304662e+002 -4.870670e-001 -1.131959e+002
3908700000 -3.488003e+000 1.103743e+002 -6.635932e+001 -1.471407e+002 -6.563197e+001 -1.566788e+002 -4.881450e-001 -1.137348e+002
3927443750 -3.497695e+000 1.093183e+002 -6.640524e+001 -1.442144e+002 -6.582953e+001 1.744775e+002 -4.918259e-001 -1.142481e+002
3946187500 -3.493835e+000 1.082841e+002 -6.648843e+001 -1.324199e+002 -6.585110e+001 1.498513e+002 -4.969762e-001 -1.147814e+002
3964931250 -3.506994e+000 1.072985e+002 -6.762762e+001 -1.232153e+002 -6.542281e+001 1.294761e+002 -4.958322e-001 -1.153127e+002
3983675000 -3.513184e+000 1.062236e+002 -6.770866e+001 -1.150486e+002 -6.557109e+001 1.175855e+002 -5.009749e-001 -1.158107e+002
4002418750 -3.507363e+000 1.052111e+002 -6.772268e+001 -1.049753e+002 -6.547661e+001 1.168265e+002 -5.057944e-001 -1.163434e+002
4021162500 -3.516968e+000 1.042033e+002 -6.746735e+001 -8.418471e+001 -6.538977e+001 1.176471e+002 -5.086505e-001 -1.168745e+002
4039906250 -3.522980e+000 1.031625e+002 -6.760961e+001 -7.294696e+001 -6.558679e+001 1.192081e+002 -5.108685e-001 -1.173711e+002
4058650000 -3.520903e+000 1.021222e+002 -6.804144e+001 -5.336872e+001 -6.537659e+001 1.157144e+002 -5.172535e-001 -1.179221e+002
4077393750 -3.528659e+000 1.011264e+002 -6.830196e+001 -3.300980e+001 -6.493179e+001 1.220721e+002 -5.188442e-001 -1.184491e+002
4096137500 -3.535735e+000 1.000671e+002 -6.772306e+001 -1.195864e+001 -6.515982e+001 1.216150e+002 -5.216627e-001 -1.189478e+002
4114881250 -3.536761e+000 9.902209e+001 -6.793313e+001 5.916870e+000 -6.534379e+001 1.233083e+002 -5.286245e-001 -1.194819e+002
4133625000 -3.538452e+000 9.802454e+001 -6.806913e+001 3.112221e+001 -6.527670e+001 1.378344e+002 -5.327122e-001 -1.199993e+002
4152368750 -3.542204e+000 9.697875e+001 -6.789184e+001 5.877582e+001 -6.569075e+001 1.496763e+002 -5.396678e-001 -1.205135e+002
4171112500 -3.540550e+000 9.593151e+001 -6.810520e+001 9.496977e+001 -6.549132e+001 1.640079e+002 -5.434933e-001 -1.210843e+002
4189856250 -3.545109e+000 9.491402e+001 -6.791531e+001 1.291559e+002 -6.574053e+001 -1.749386e+002 -5.501686e-001 -1.216044e+002
4208600000 -3.547987e+000 9.386286e+001 -6.750787e+001 1.630530e+002 -6.501858e+001 -1.540087e+002 -5.554997e-001 -1.221161e+002
4227343750 -3.546073e+000 9.282964e+001 -6.783260e+001 -1.668615e+002 -6.569328e+001 -1.338980e+002 -5.614192e-001 -1.226399e+002
4246087500 -3.547387e+000 9.183272e+001 -6.822015e+001 -1.443676e+002 -6.535140e+001 -1.162668e+002 -5.669675e-001 -1.231509e+002
4264831250 -3.549624e+000 9.077036e+001 -6.761234e+001 -1.153622e+002 -6.572088e+001 -9.761025e+001 -5.730313e-001 -1.236836e+002
4283575000 -3.545436e+000 8.974049e+001 -6.772623e+001 -7.834335e+001 -6.565865e+001 -8.564304e+001 -5.805514e-001 -1.242186e+002
4302318750 -3.544984e+000 8.872190e+001 -6.748515e+001 -3.817772e+001 -6.590131e+001 -6.920157e+001 -5.857651e-001 -1.247539e+002
4321062500 -3.549156e+000 8.769420e+001 -6.683199e+001 2.286371e+000 -6.604678e+001 -4.508012e+001 -5.892652e-001 -1.252765e+002
4339806250 -3.550009e+000 8.663631e+001 -6.708562e+001 4.746064e+001 -6.622129e+001 -1.594050e+001 -5.947158e-001 -1.257899e+002
4358550000 -3.546758e+000 8.561849e+001 -6.702947e+001 8.649637e+001 -6.623913e+001 2.000857e+001 -5.997707e-001 -1.263471e+002
4377293750 -3.551419e+000 8.457500e+001 -6.743765e+001 1.148029e+002 -6.648183e+001 5.799770e+001 -6.063688e-001 -1.268730e+002
4396037500 -3.545866e+000 8.351405e+001 -6.602106e+001 1.458385e+002 -6.665999e+001 9.138876e+001 -6.126398e-001 -1.274026e+002
4414781250 -3.546135e+000 8.249976e+001 -6.581539e+001 -1.779005e+002 -6.669278e+001 1.182927e+002 -6.177884e-001 -1.279408e+002
4433525000 -3.550265e+000 8.142581e+001 -6.605186e+001 -1.543228e+002 -6.671929e+001 1.376004e+002 -6.230328e-001 -1.284702e+002
4452268750 -3.541998e+000 8.036807e+001 -6.609045e+001 -1.297235e+002 -6.692220e+001 1.500014e+002 -6.272756e-001 -1.290158e+002
4471012500 -3.544329e+000 7.933025e+001 -6.615711e+001 -9.835512e+001 -6.699303e+001 1.628277e+002 -6.337983e-001 -1.295531e+002
4489756250 -3.546234e+000 7.825797e+001 -6.619999e+001 -7.061947e+001 -6.672196e+001 1.758280e+002 -6.398659e-001 -1.300717e+002
4508500000 -3.537443e+000 7.720306e+001 -6.605837e+001 -4.502297e+001 -6.716866e+001 -1.734840e+002 -6.459846e-001 -1.305971e+002
4527243750 -3.540170e+000 7.617918e+001 -6.652823e+001 -1.286585e+001 -6.697314e+001 -1.584061e+002 -6.517625e-001 -1.311197e+002
4545987500 -3.538961e+000 7.509044e+001 -6.663486e+001 6.984386e+000 -6.685930e+001 -1.492985e+002 -6.595125e-001 -1.316459e+002
4564731250 -3.532056e+000 7.403046e+001 -6.667284e+001 2.727230e+001 -6.702590e+001 -1.452154e+002 -6.642381e-001 -1.322000e+002
4583475000 -3.538113e+000 7.300442e+001 -6.657510e+001 4.592222e+001 -6.717126e+001 -1.359717e+002 -6.709431e-001 -1.327138e+002
4602218750 -3.540359e+000 7.194086e+001 -6.620306e+001 5.523618e+001 -6.733382e+001 -1.355048e+002 -6.774914e-001 -1.332241e+002
4620962500 -3.532272e+000 7.086447e+001 -6.595895e+001 6.540125e+001 -6.676267e+001 -1.398561e+002 -6.838138e-001 -1.337459e+002
4639706250 -3.528950e+000 6.983684e+001 -6.617699e+001 7.707439e+001 -6.708864e+001 -1.382454e+002 -6.892797e-001 -1.342938e+002
4658450000 -3.529765e+000 6.875285e+001 -6.572712e+001 9.154687e+001 -6.639734e+001 -1.440126e+002 -6.959152e-001 -1.348329e+002
4677193750 -3.522438e+000 6.773008e+001 -6.566902e+001 1.104672e+002 -6.638172e+001 -1.464086e+002 -7.011195e-001 -1.353964e+002
4695937500 -3.530737e+000 6.669262e+001 -6.582715e+001 1.202496e+002 -6.618443e+001 -1.534545e+002 -7.071049e-001 -1.359072e+002
4714681250 -3.522799e+000 6.558056e+001 -6.569680e+001 1.258768e+002 -6.698203e+001 -1.561691e+002 -7.136968e-001 -1.364288e+002
4733425000 -3.519604e+000 6.455003e+001 -6.565905e+001 1.163275e+002 -6.737151e+001 -1.574378e+002 -7.196859e-001 -1.369839e+002
4752168750 -3.520484e+000 6.347253e+001 -6.630608e+001 9.804520e+001 -6.699693e+001 -1.633212e+002 -7.260665e-001 -1.374937e+002
4770912500 -3.510729e+000 6.238205e+001 -6.673132e+001 8.494968e+001 -6.671889e+001 -1.655240e+002 -7.321320e-001 -1.380339e+002
4789656250 -3.509566e+000 6.134058e+001 -6.667773e+001 7.276707e+001 -6.628225e+001 -1.723445e+002 -7.383224e-001 -1.385721e+002
4808400000 -3.508204e+000 6.028028e+001 -6.624664e+001 6.177279e+001 -6.591306e+001 1.788673e+002 -7.412316e-001 -1.390844e+002
4827143750 -3.501390e+000 5.918488e+001 -6.649191e+001 4.812107e+001 -6.626856e+001 -1.747255e+002 -7.489852e-001 -1.396294e+002
4845887500 -3.493002e+000 5.814650e+001 -6.657437e+001 2.718177e+001 -6.628983e+001 -1.711553e+002 -7.542263e-001 -1.401841e+002
4864631250 -3.491417e+000 5.710041e+001 -6.625826e+001 1.570723e+001 -6.645516e+001 -1.740458e+002 -7.569690e-001 -1.406844e+002
4883375000 -3.484611e+000 5.599891e+001 -6.632790e+001 -2.994992e+000 -6.639376e+001 -1.709360e+002 -7.675459e-001 -1.412085e+002
4902118750 -3.476913e+000 5.495048e+001 -6.633665e+001 -1.909730e+001 -6.652145e+001 -1.624475e+002 -7.697021e-001 -1.417733e+002
4920862500 -3.475891e+000 5.388620e+001 -6.609789e+001 -3.603483e+001 -6.649435e+001 -1.506174e+002 -7.746946e-001 -1.422831e+002
4939606250 -3.466159e+000 5.276889e+001 -6.625148e+001 -5.298066e+001 -6.652866e+001 -1.353261e+002 -7.818219e-001 -1.428415e+002
4958350000 -3.458272e+000 5.171211e+001 -6.607344e+001 -7.020446e+001 -6.679636e+001 -1.215667e+002 -7.844453e-001 -1.433964e+002
4977093750 -3.454998e+000 5.065492e+001 -6.576632e+001 -7.847124e+001 -6.662299e+001 -1.078324e+002 -7.874896e-001 -1.438980e+002
4995837500 -3.446964e+000 4.954004e+001 -6.540467e+001 -9.691766e+001 -6.689970e+001 -9.281391e+001 -7.963590e-001 -1.444415e+002
5014581250 -3.438200e+000 4.848204e+001 -6.541422e+001 -1.171035e+002 -6.669284e+001 -8.404212e+001 -7.986367e-001 -1.449649e+002
5033325000 -3.429140e+000 4.736800e+001 -6.518617e+001 -1.317250e+002 -6.694148e+001 -7.029599e+001 -8.083375e-001 -1.454862e+002
5052068750 -3.418811e+000 4.629652e+001 -6.551124e+001 -1.477299e+002 -6.767875e+001 -5.514504e+001 -8.147818e-001 -1.460477e+002
5070812500 -3.417211e+000 4.522138e+001 -6.552746e+001 -1.666078e+002 -6.732104e+001 -4.630689e+001 -8.148738e-001 -1.465514e+002
5089556250 -3.406182e+000 4.411128e+001 -6.579655e+001 1.785930e+002 -6.713185e+001 -3.383432e+001 -8.234099e-001 -1.470726e+002
5108300000 -3.395823e+000 4.301212e+001 -6.651329e+001 1.710089e+002 -6.718207e+001 -2.249624e+001 -8.288326e-001 -1.476055e+002
5127043750 -3.385570e+000 4.192398e+001 -6.653969e+001 1.603283e+002 -6.656663e+001 -4.126441e+000 -8.327953e-001 -1.481221e+002
5145787500 -3.378622e+000 4.083894e+001 -6.625623e+001 1.491672e+002 -6.599229e+001 1.097404e+001 -8.423043e-001 -1.486414e+002
5164531250 -3.369403e+000 3.973770e+001 -6.617776e+001 1.437633e+002 -6.595352e+001 2.138553e+001 -8.485598e-001 -1.491803e+002
5183275000 -3.362670e+000 3.867114e+001 -6.583835e+001 1.412490e+002 -6.571503e+001 3.600671e+001 -8.539651e-001 -1.496967e+002
5202018750 -3.353779e+000 3.757130e+001 -6.563744e+001 1.300478e+002 -6.598236e+001 4.580745e+001 -8.629786e-001 -1.502254e+002
5220762500 -3.341720e+000 3.648262e+001 -6.540112e+001 1.198032e+002 -6.652844e+001 6.386824e+001 -8.684189e-001 -1.507741e+002
5239506250 -3.332547e+000 3.539269e+001 -6.551180e+001 1.142959e+002 -6.651641e+001 7.908011e+001 -8.725349e-001 -1.512917e+002
5258250000 -3.320580e+000 3.428976e+001 -6.540472e+001 1.133087e+002 -6.600120e+001 9.387584e+001 -8.802071e-001 -1.518109e+002
5276993750 -3.311518e+000 3.319401e+001 -6.508974e+001 1.122674e+002 -6.601941e+001 1.145565e+002 -8.857028e-001 -1.523639e+002
5295737500 -3.302648e+000 3.210076e+001 -6.481373e+001 1.086670e+002 -6.590462e+001 1.422788e+002 -8.913471e-001 -1.528791e+002
5314481250 -3.291001e+000 3.099014e+001 -6.520398e+001 1.070040e+002 -6.570321e+001 1.604590e+002 -8.972501e-001 -1.534003e+002
5333225000 -3.280197e+000 2.989772e+001 -6.574725e+001 1.081709e+002 -6.539610e+001 1.661376e+002 -9.056106e-001 -1.539419e+002
5351968750 -3.269143e+000 2.881147e+001 -6.573335e+001 1.038887e+002 -6.520206e+001 1.668329e+002 -9.110870e-001 -1.544507e+002
5370712500 -3.260031e+000 2.770107e+001 -6.582539e+001 9.865602e+001 -6.473479e+001 1.606257e+002 -9.204366e-001 -1.549858e+002
5389456250 -3.244716e+000 2.660209e+001 -6.592229e+001 9.213820e+001 -6.451385e+001 1.591228e+002 -9.276871e-001 -1.555332e+002
5408200000 -3.235958e+000 2.552115e+001 -6.584824e+001 9.084415e+001 -6.470784e+001 1.545281e+002 -9.330679e-001 -1.560517e+002
5426943750 -3.224787e+000 2.440590e+001 -6.623672e+001 8.915328e+001 -6.469612e+001 1.499146e+002 -9.408048e-001 -1.565721e+002
5445687500 -3.210575e+000 2.330734e+001 -6.647861e+001 8.897855e+001 -6.435664e+001 1.444730e+002 -9.438429e-001 -1.571181e+002
5464431250 -3.200187e+000 2.221798e+001 -6.658251e+001 8.769756e+001 -6.413274e+001 1.423049e+002 -9.487803e-001 -1.576170e+002
5483175000 -3.190648e+000 2.108626e+001 -6.649409e+001 8.225499e+001 -6.413349e+001 1.361996e+002 -9.581573e-001 -1.581606e+002
5501918750 -3.176175e+000 1.999202e+001 -6.636646e+001 8.363571e+001 -6.453230e+001 1.382876e+002 -9.631172e-001 -1.586996e+002
5520662500 -3.168793e+000 1.888832e+001 -6.666923e+001 8.091273e+001 -6.478493e+001 1.404940e+002 -9.674331e-001 -1.591975e+002
5539406250 -3.157609e+000 1.776246e+001 -6.586594e+001 7.434321e+001 -6.482460e+001 1.405048e+002 -9.776529e-001 -1.597316e+002
5558150000 -3.141741e+000 1.666126e+001 -6.574245e+001 7.496694e+001 -6.496298e+001 1.374615e+002 -9.795498e-001 -1.602549e+002
5576893750 -3.132953e+000 1.554196e+001 -6.579223e+001 7.346382e+001 -6.511477e+001 1.364151e+002 -9.835410e-001 -1.607661e+002
5595637500 -3.118651e+000 1.440510e+001 -6.592699e+001 7.594910e+001 -6.464962e+001 1.376505e+002 -9.930497e-001 -1.612980e+002
5614381250 -3.101392e+000 1.328968e+001 -6.608331e+001 6.906493e+001 -6.495113e+001 1.326706e+002 -9.964585e-001 -1.618340e+002
5633125000 -3.091796e+000 1.218622e+001 -6.576186e+001 7.387269e+001 -6.481609e+001 1.317465e+002 -1.002255e+000 -1.623375e+002
5651868750 -3.078847e+000 1.104792e+001 -6.616997e+001 7.575384e+001 -6.447568e+001 1.287749e+002 -1.013390e+000 -1.628574e+002
5670612500 -3.065614e+000 9.943098e+000 -6.591764e+001 7.536842e+001 -6.456209e+001 1.254402e+002 -1.016324e+000 -1.633774e+002
5689356250 -3.057695e+000 8.819055e+000 -6.570971e+001 7.109846e+001 -6.483414e+001 1.178327e+002 -1.024002e+000 -1.638757e+002
5708100000 -3.042485e+000 7.672874e+000 -6.591788e+001 7.223740e+001 -6.497459e+001 1.040393e+002 -1.033133e+000 -1.644043e+002
5726843750 -3.028224e+000 6.566926e+000 -6.614548e+001 7.383790e+001 -6.495852e+001 8.763101e+001 -1.035051e+000 -1.649401e+002
5745587500 -3.019590e+000 5.456190e+000 -6.560217e+001 7.237577e+001 -6.501374e+001 7.886044e+001 -1.042866e+000 -1.654472e+002
5764331250 -3.003297e+000 4.317795e+000 -6.515076e+001 6.665684e+001 -6.497356e+001 7.708182e+001 -1.052128e+000 -1.659811e+002
5783075000 -2.990438e+000 3.185204e+000 -6.574629e+001 6.192530e+001 -6.483785e+001 7.337343e+001 -1.054474e+000 -1.664954e+002
5801818750 -2.980256e+000 2.066424e+000 -6.582544e+001 6.618832e+001 -6.542419e+001 7.345868e+001 -1.059998e+000 -1.669814e+002
5820562500 -2.966510e+000 9.189675e-001 -6.575546e+001 6.736522e+001 -6.561948e+001 7.877869e+001 -1.069106e+000 -1.674847e+002
5839306250 -2.952929e+000 -2.138916e-001 -6.580269e+001 5.992926e+001 -6.562565e+001 9.553242e+001 -1.074835e+000 -1.680396e+002
5858050000 -2.942570e+000 -1.345527e+000 -6.559402e+001 5.862639e+001 -6.565085e+001 1.057673e+002 -1.078660e+000 -1.685332e+002
5876793750 -2.925999e+000 -2.500094e+000 -6.568896e+001 5.562999e+001 -6.608224e+001 1.127288e+002 -1.093906e+000 -1.690274e+002
5895537500 -2.913971e+000 -3.612699e+000 -6.579121e+001 5.322147e+001 -6.591346e+001 1.111589e+002 -1.102198e+000 -1.696223e+002
5914281250 -2.902815e+000 -4.744695e+000 -6.572595e+001 5.836827e+001 -6.523097e+001 1.132859e+002 -1.100398e+000 -1.700836e+002
5933025000 -2.886026e+000 -5.894710e+000 -6.669739e+001 6.367633e+001 -6.538367e+001 1.074898e+002 -1.117045e+000 -1.705996e+002
5951768750 -2.870860e+000 -7.010672e+000 -6.622241e+001 6.447048e+001 -6.538335e+001 1.054035e+002 -1.124413e+000 -1.711934e+002
5970512500 -2.859814e+000 -8.172277e+000 -6.597827e+001 5.983682e+001 -6.523792e+001 1.025673e+002 -1.121207e+000 -1.716516e+002
5989256250 -2.842411e+000 -9.313975e+000 -6.626952e+001 5.412233e+001 -6.532771e+001 9.864594e+001 -1.135869e+000 -1.721817e+002
6008000000 -2.829215e+000 -1.043580e+001 -6.652271e+001 4.318559e+001 -6.525218e+001 1.009782e+002 -1.144962e+000 -1.727633e+002
6026743750 -2.816981e+000 -1.159093e+001 -6.652837e+001 3.768544e+001 -6.578659e+001 9.766096e+001 -1.142481e+000 -1.732320e+002
6045487500 -2.801461e+000 -1.273049e+001 -6.629852e+001 4.017002e+001 -6.575311e+001 9.781123e+001 -1.157625e+000 -1.737803e+002
6064231250 -2.790191e+000 -1.385130e+001 -6.601843e+001 3.891434e+001 -6.573743e+001 9.592794e+001 -1.164641e+000 -1.743496e+002
6082975000 -2.778907e+000 -1.502253e+001 -6.586823e+001 3.468641e+001 -6.581710e+001 9.191472e+001 -1.161248e+000 -1.748219e+002
6101718750 -2.759375e+000 -1.618188e+001 -6.600525e+001 2.868995e+001 -6.561347e+001 9.111864e+001 -1.178890e+000 -1.753760e+002
6120462500 -2.749140e+000 -1.730746e+001 -6.624829e+001 2.688185e+001 -6.540950e+001 8.494323e+001 -1.185328e+000 -1.759299e+002
6139206250 -2.735754e+000 -1.847485e+001 -6.621725e+001 2.424466e+001 -6.547079e+001 8.317078e+001 -1.186269e+000 -1.764122e+002
6157950000 -2.717760e+000 -1.963448e+001 -6.639817e+001 2.225855e+001 -6.541066e+001 8.631566e+001 -1.204953e+000 -1.769725e+002
6176693750 -2.705819e+000 -2.078157e+001 -6.630992e+001 2.098600e+001 -6.551187e+001 8.705057e+001 -1.207187e+000 -1.775446e+002
6195437500 -2.692909e+000 -2.193842e+001 -6.615368e+001 1.861227e+001 -6.582427e+001 8.786290e+001 -1.213584e+000 -1.780345e+002
6214181250 -2.677035e+000 -2.309200e+001 -6.550624e+001 2.409595e+001 -6.573493e+001 8.790874e+001 -1.224238e+000 -1.786030e+002
6232925000 -2.664342e+000 -2.424888e+001 -6.517106e+001 2.639945e+001 -6.525006e+001 8.495873e+001 -1.230738e+000 -1.791244e+002
6251668750 -2.649567e+000 -2.540935e+001 -6.502998e+001 2.548603e+001 -6.553178e+001 8.001887e+001 -1.237951e+000 -1.796622e+002
6270412500 -2.635693e+000 -2.656977e+001 -6.499181e+001 2.677469e+001 -6.574593e+001 7.767532e+001 -1.250675e+000 1.798121e+002
6289156250 -2.622415e+000 -2.774204e+001 -6.481612e+001 2.673130e+001 -6.540434e+001 8.352125e+001 -1.257636e+000 1.792642e+002
6307900000 -2.608683e+000 -2.888200e+001 -6.440130e+001 2.826943e+001 -6.489075e+001 9.057641e+001 -1.257525e+000 1.786964e+002
6326643750 -2.595941e+000 -3.005738e+001 -6.429127e+001 2.937256e+001 -6.509705e+001 1.062836e+002 -1.265881e+000 1.782222e+002
6345387500 -2.583896e+000 -3.124811e+001 -6.486536e+001 2.955633e+001 -6.487707e+001 1.203735e+002 -1.277589e+000 1.776413e+002
6364131250 -2.569008e+000 -3.238316e+001 -6.426812e+001 1.874292e+001 -6.475761e+001 1.316472e+002 -1.280070e+000 1.771027e+002
6382875000 -2.558104e+000 -3.355341e+001 -6.421880e+001 1.257038e+001 -6.474579e+001 1.459777e+002 -1.290042e+000 1.766195e+002
6401618750 -2.545759e+000 -3.472763e+001 -6.469962e+001 1.203754e+001 -6.466992e+001 1.631069e+002 -1.303778e+000 1.760138e+002
6420362500 -2.531002e+000 -3.586384e+001 -6.506119e+001 1.109402e+001 -6.485973e+001 -1.795746e+002 -1.306082e+000 1.754792e+002
6439106250 -2.523307e+000 -3.704015e+001 -6.492166e+001 1.668004e+001 -6.472935e+001 -1.690908e+002 -1.315254e+000 1.749951e+002
6457850000 -2.511943e+000 -3.822449e+001 -6.471676e+001 1.699483e+001 -6.421239e+001 -1.517170e+002 -1.329863e+000 1.744065e+002
6476593750 -2.495357e+000 -3.938486e+001 -6.451460e+001 1.512459e+001 -6.408395e+001 -1.399686e+002 -1.332069e+000 1.738929e+002
6495337500 -2.486370e+000 -4.055812e+001 -6.449928e+001 1.245323e+001 -6.423401e+001 -1.245237e+002 -1.340644e+000 1.733797e+002
6514081250 -2.471199e+000 -4.174617e+001 -6.463528e+001 1.472284e+001 -6.464645e+001 -1.132273e+002 -1.353750e+000 1.727770e+002
6532825000 -2.459729e+000 -4.289546e+001 -6.464427e+001 1.740254e+001 -6.463818e+001 -1.007622e+002 -1.354081e+000 1.722604e+002
6551568750 -2.451169e+000 -4.408446e+001 -6.467233e+001 1.986054e+001 -6.480579e+001 -8.948410e+001 -1.365837e+000 1.717345e+002
6570312500 -2.438320e+000 -4.528500e+001 -6.452511e+001 2.073338e+001 -6.450615e+001 -7.713135e+001 -1.377191e+000 1.711484e+002
6589056250 -2.425560e+000 -4.644281e+001 -6.556118e+001 1.958947e+001 -6.421764e+001 -6.738409e+001 -1.378359e+000 1.706320e+002
6607800000 -2.416199e+000 -4.762459e+001 -6.578739e+001 1.671745e+001 -6.412458e+001 -5.416896e+001 -1.392314e+000 1.701249e+002
6626543750 -2.403704e+000 -4.882243e+001 -6.607668e+001 1.792019e+001 -6.413717e+001 -3.493317e+001 -1.396506e+000 1.695397e+002
6645287500 -2.394758e+000 -4.997569e+001 -6.604913e+001 1.457947e+001 -6.415868e+001 -5.860495e+000 -1.404589e+000 1.690143e+002
6664031250 -2.386573e+000 -5.118283e+001 -6.604614e+001 7.178817e+000 -6.401672e+001 2.467131e+001 -1.418087e+000 1.684453e+002
6682775000 -2.376442e+000 -5.237806e+001 -6.602473e+001 6.152398e+000 -6.349545e+001 5.102301e+001 -1.422718e+000 1.678686e+002
6701518750 -2.366595e+000 -5.354374e+001 -6.604723e+001 4.450814e+000 -6.333430e+001 6.673270e+001 -1.427723e+000 1.673223e+002
6720262500 -2.357411e+000 -5.475241e+001 -6.636259e+001 8.791522e-001 -6.375335e+001 7.715365e+001 -1.439622e+000 1.667675e+002
6739006250 -2.346888e+000 -5.594135e+001 -6.761383e+001 3.150599e+000 -6.396696e+001 9.483258e+001 -1.447763e+000 1.661935e+002
6757750000 -2.339282e+000 -5.712339e+001 -6.762361e+001 2.342616e+000 -6.395560e+001 1.079738e+002 -1.453505e+000 1.656471e+002
6776493750 -2.329708e+000 -5.832950e+001 -6.719087e+001 -4.899598e+000 -6.422056e+001 1.248375e+002 -1.466279e+000 1.650962e+002
6795237500 -2.318884e+000 -5.953456e+001 -6.681420e+001 -5.286906e+000 -6.376803e+001 1.431896e+002 -1.471032e+000 1.645090e+002
6813981250 -2.312062e+000 -6.071936e+001 -6.686119e+001 -3.373418e+000 -6.348692e+001 1.560685e+002 -1.476803e+000 1.639669e+002
6832725000 -2.302001e+000 -6.193634e+001 -6.662632e+001 -3.965915e+000 -6.363121e+001 1.695092e+002 -1.488142e+000 1.634277e+002
6851468750 -2.294515e+000 -6.312451e+001 -6.611034e+001 -4.143686e+000 -6.316776e+001 -1.796355e+002 -1.494631e+000 1.628379e+002
6870212500 -2.288501e+000 -6.432015e+001 -6.580470e+001 -5.752853e+000 -6.308093e+001 -1.711624e+002 -1.501073e+000 1.622795e+002
6888956250 -2.279316e+000 -6.555073e+001 -6.575502e+001 -8.030630e+000 -6.339364e+001 -1.577645e+002 -1.510258e+000 1.617315e+002
6907700000 -2.273239e+000 -6.673916e+001 -6.598117e+001 -7.904160e+000 -6.430068e+001 -1.469181e+002 -1.516507e+000 1.611295e+002
6926443750 -2.267578e+000 -6.796163e+001 -6.607734e+001 -7.401823e+000 -6.429441e+001 -1.355107e+002 -1.523304e+000 1.605830e+002
6945187500 -2.262148e+000 -6.918171e+001 -6.579330e+001 -8.027627e+000 -6.408009e+001 -1.162378e+002 -1.532584e+000 1.600232e+002
6963931250 -2.256428e+000 -7.036988e+001 -6.580260e+001 -9.293749e+000 -6.410541e+001 -9.860538e+001 -1.540107e+000 1.594387e+002
6982675000 -2.253696e+000 -7.159615e+001 -6.631325e+001 -1.204832e+001 -6.389700e+001 -7.175716e+001 -1.544952e+000 1.588858e+002
7001418750 -2.248766e+000 -7.282934e+001 -6.648371e+001 -1.674976e+001 -6.390091e+001 -4.258407e+001 -1.557356e+000 1.583215e+002
7020162500 -2.244414e+000 -7.403070e+001 -6.505518e+001 -1.969999e+001 -6.406825e+001 -1.274022e+001 -1.565565e+000 1.577415e+002
7038906250 -2.243478e+000 -7.526842e+001 -6.512859e+001 -2.100234e+001 -6.414596e+001 1.307926e+001 -1.571378e+000 1.571838e+002
7057650000 -2.238563e+000 -7.650130e+001 -6.506747e+001 -2.500939e+001 -6.390672e+001 3.797048e+001 -1.583223e+000 1.566212e+002
7076393750 -2.234358e+000 -7.773022e+001 -6.495825e+001 -2.486190e+001 -6.434505e+001 6.281128e+001 -1.590562e+000 1.560348e+002
7095137500 -2.233258e+000 -7.896474e+001 -6.493845e+001 -2.715787e+001 -6.435525e+001 9.003072e+001 -1.595356e+000 1.554617e+002
7113881250 -2.227729e+000 -8.020181e+001 -6.514149e+001 -3.343526e+001 -6.425968e+001 1.150208e+002 -1.606220e+000 1.548895e+002
7132625000 -2.225558e+000 -8.144277e+001 -6.527254e+001 -3.371237e+001 -6.380456e+001 1.455024e+002 -1.612648e+000 1.543168e+002
7151368750 -2.225031e+000 -8.266736e+001 -6.543273e+001 -3.907458e+001 -6.338028e+001 1.786615e+002 -1.621871e+000 1.537624e+002
7170112500 -2.221439e+000 -8.391586e+001 -6.439703e+001 -4.951014e+001 -6.324051e+001 -1.564296e+002 -1.632476e+000 1.531918e+002
7188856250 -2.222607e+000 -8.515807e+001 -6.446370e+001 -5.095231e+001 -6.316667e+001 -1.270072e+002 -1.639233e+000 1.526018e+002
7207600000 -2.222172e+000 -8.638747e+001 -6.418634e+001 -5.386195e+001 -6.307172e+001 -1.002025e+002 -1.646065e+000 1.520458e+002
7226343750 -2.222643e+000 -8.764218e+001 -6.423637e+001 -5.626382e+001 -6.329138e+001 -7.004951e+001 -1.656429e+000 1.514582e+002
7245087500 -2.225966e+000 -8.888683e+001 -6.431184e+001 -6.064944e+001 -6.376450e+001 -3.888701e+001 -1.663632e+000 1.508628e+002
7263831250 -2.226053e+000 -9.013213e+001 -6.417651e+001 -6.386959e+001 -6.378408e+001 -9.524295e+000 -1.671025e+000 1.503000e+002
7282575000 -2.227505e+000 -9.139674e+001 -6.430553e+001 -6.412125e+001 -6.398021e+001 2.158643e+001 -1.682017e+000 1.497167e+002
7301318750 -2.232606e+000 -9.266260e+001 -6.429510e+001 -6.454893e+001 -6.390961e+001 6.140840e+001 -1.686939e+000 1.491421e+002
7320062500 -2.235018e+000 -9.391933e+001 -6.430969e+001 -6.757327e+001 -6.367866e+001 9.061735e+001 -1.698571e+000 1.485688e+002
7338806250 -2.237514e+000 -9.518262e+001 -6.448484e+001 -7.432663e+001 -6.281553e+001 1.262341e+002 -1.707592e+000 1.479844e+002
7357550000 -2.242952e+000 -9.643860e+001 -6.453899e+001 -7.689729e+001 -6.306352e+001 1.589436e+002 -1.715841e+000 1.473985e+002
7376293750 -2.243985e+000 -9.770318e+001 -6.463705e+001 -7.916665e+001 -6.249379e+001 -1.752600e+002 -1.728771e+000 1.468321e+002
7395037500 -2.252655e+000 -9.901572e+001 -6.464405e+001 -7.997945e+001 -6.253808e+001 -1.513595e+002 -1.739280e+000 1.462425e+002
7413781250 -2.252113e+000 -1.002754e+002 -6.370790e+001 -8.433416e+001 -6.262725e+001 -1.307530e+002 -1.745540e+000 1.456466e+002
7432525000 -2.259181e+000 -1.015172e+002 -6.342064e+001 -8.682284e+001 -6.282746e+001 -1.181721e+002 -1.753360e+000 1.450898e+002
7451268750 -2.267406e+000 -1.028348e+002 -6.355986e+001 -8.971308e+001 -6.279602e+001 -1.020319e+002 -1.761582e+000 1.444983e+002
7470012500 -2.265495e+000 -1.041256e+002 -6.355045e+001 -8.895121e+001 -6.302060e+001 -8.303774e+001 -1.772057e+000 1.439212e+002
7488756250 -2.274766e+000 -1.053650e+002 -6.323058e+001 -8.961967e+001 -6.335203e+001 -6.674593e+001 -1.782100e+000 1.433328e+002
7507500000 -2.287008e+000 -1.066819e+002 -6.327935e+001 -9.321696e+001 -6.281955e+001 -5.059439e+001 -1.789306e+000 1.427422e+002
7526243750 -2.289019e+000 -1.079689e+002 -6.340430e+001 -9.329624e+001 -6.280886e+001 -3.608829e+001 -1.801043e+000 1.421826e+002
7544987500 -2.302708e+000 -1.092382e+002 -6.300878e+001 -9.238934e+001 -6.297736e+001 -1.953505e+001 -1.807986e+000 1.415947e+002
7563731250 -2.314582e+000 -1.105705e+002 -6.297051e+001 -9.397491e+001 -6.331000e+001 -1.245009e+001 -1.814571e+000 1.409970e+002
7582475000 -2.320128e+000 -1.118610e+002 -6.291936e+001 -9.328714e+001 -6.320521e+001 8.178411e-001 -1.823501e+000 1.404355e+002
7601218750 -2.336219e+000 -1.131340e+002 -6.309240e+001 -8.814810e+001 -6.319609e+001 1.499619e+001 -1.832529e+000 1.398309e+002
7619962500 -2.347938e+000 -1.144796e+002 -6.323843e+001 -9.338708e+001 -6.319835e+001 3.051954e+001 -1.840858e+000 1.392520e+002
7638706250 -2.355936e+000 -1.157793e+002 -6.356155e+001 -9.492696e+001 -6.331478e+001 4.826873e+001 -1.851647e+000 1.386809e+002
7657450000 -2.374170e+000 -1.170686e+002 -6.344702e+001 -9.706546e+001 -6.298851e+001 6.170494e+001 -1.863213e+000 1.380804e+002
7676193750 -2.384453e+000 -1.184385e+002 -6.344794e+001 -9.678600e+001 -6.252551e+001 7.751463e+001 -1.869822e+000 1.374892e+002
7694937500 -2.395643e+000 -1.197334e+002 -6.343908e+001 -9.681906e+001 -6.232255e+001 9.023710e+001 -1.881524e+000 1.369169e+002
7713681250 -2.414957e+000 -1.210541e+002 -6.312660e+001 -9.887636e+001 -6.236306e+001 1.062984e+002 -1.892622e+000 1.362984e+002
7732425000 -2.428295e+000 -1.224175e+002 -6.321236e+001 -1.002522e+002 -6.238415e+001 1.174011e+002 -1.899416e+000 1.357087e+002
7751168750 -2.440209e+000 -1.237006e+002 -6.317806e+001 -1.013023e+002 -6.253368e+001 1.356852e+002 -1.908471e+000 1.351384e+002
7769912500 -2.462803e+000 -1.250327e+002 -6.287854e+001 -9.559792e+001 -6.325784e+001 1.481722e+002 -1.921412e+000 1.345307e+002
7788656250 -2.478237e+000 -1.264172e+002 -6.255505e+001 -9.658661e+001 -6.276867e+001 1.634610e+002 -1.925927e+000 1.339526e+002
7807400000 -2.495246e+000 -1.277047e+002 -6.248520e+001 -9.855096e+001 -6.286839e+001 1.785122e+002 -1.935077e+000 1.333896e+002
7826143750 -2.515924e+000 -1.290086e+002 -6.240601e+001 -9.327655e+001 -6.294615e+001 -1.671548e+002 -1.944251e+000 1.327494e+002
7844887500 -2.538787e+000 -1.303988e+002 -6.259908e+001 -7.812019e+001 -6.296051e+001 -1.566535e+002 -1.950939e+000 1.321853e+002
7863631250 -2.554608e+000 -1.317394e+002 -6.281396e+001 -6.508286e+001 -6.287502e+001 -1.405456e+002 -1.964186e+000 1.315883e+002
7882375000 -2.578585e+000 -1.330654e+002 -6.305312e+001 -4.975338e+001 -6.300364e+001 -1.293281e+002 -1.974121e+000 1.309657e+002
7901118750 -2.606886e+000 -1.344382e+002 -6.295039e+001 -3.873984e+001 -6.276649e+001 -1.227958e+002 -1.975664e+000 1.303599e+002
7919862500 -2.625965e+000 -1.358027e+002 -6.350381e+001 -2.491159e+001 -6.248811e+001 -1.162422e+002 -1.987228e+000 1.297976e+002
7938606250 -2.649306e+000 -1.371310e+002 -6.365101e+001 -1.024788e+001 -6.271782e+001 -1.147732e+002 -1.997630e+000 1.291675e+002
7957350000 -2.680514e+000 -1.385191e+002 -6.392147e+001 3.433654e+000 -6.303797e+001 -1.169318e+002 -2.001086e+000 1.285721e+002
7976093750 -2.701252e+000 -1.398878e+002 -6.434342e+001 2.016667e+001 -6.319790e+001 -1.215649e+002 -2.016458e+000 1.279889e+002
7994837500 -2.728854e+000 -1.412545e+002 -6.417145e+001 3.178903e+001 -6.306580e+001 -1.193849e+002 -2.028980e+000 1.273681e+002
8013581250 -2.757882e+000 -1.426538e+002 -6.385426e+001 4.895558e+001 -6.319044e+001 -1.253273e+002 -2.033113e+000 1.267571e+002
8032325000 -2.780310e+000 -1.440362e+002 -6.370105e+001 6.167525e+001 -6.404582e+001 -1.265423e+002 -2.047108e+000 1.261820e+002
8051068750 -2.810751e+000 -1.453934e+002 -6.373765e+001 8.542641e+001 -6.421482e+001 -1.327431e+002 -2.057836e+000 1.255435e+002
8069812500 -2.842650e+000 -1.468036e+002 -6.370028e+001 1.148518e+002 -6.423598e+001 -1.387843e+002 -2.062816e+000 1.249431e+002
8088556250 -2.868926e+000 -1.482284e+002 -6.462654e+001 1.465703e+002 -6.491509e+001 -1.332137e+002 -2.075722e+000 1.243580e+002
8107300000 -2.902010e+000 -1.496151e+002 -6.451605e+001 1.750751e+002 -6.485121e+001 -1.371200e+002 -2.085264e+000 1.237324e+002
8126043750 -2.935411e+000 -1.510327e+002 -6.478885e+001 -1.538183e+002 -6.553166e+001 -1.407494e+002 -2.091020e+000 1.231197e+002
8144787500 -2.963707e+000 -1.524396e+002 -6.475191e+001 -1.192087e+002 -6.554353e+001 -1.433887e+002 -2.103372e+000 1.225431e+002
8163531250 -2.997943e+000 -1.538295e+002 -6.541928e+001 -8.656979e+001 -6.613306e+001 -1.475589e+002 -2.115828e+000 1.218998e+002
8182275000 -3.035249e+000 -1.552762e+002 -6.607973e+001 -5.464608e+001 -6.586859e+001 -1.499356e+002 -2.123399e+000 1.212930e+002
8201018750 -3.068099e+000 -1.567300e+002 -6.615204e+001 -2.669793e+001 -6.482173e+001 -1.471927e+002 -2.133985e+000 1.206794e+002
8219762500 -3.103200e+000 -1.581560e+002 -6.725275e+001 1.856721e-001 -6.501093e+001 -1.535044e+002 -2.145748e+000 1.200410e+002
8238506250 -3.141101e+000 -1.596174e+002 -6.744679e+001 3.163117e+001 -6.512617e+001 -1.540106e+002 -2.155650e+000 1.194305e+002
8257250000 -3.177495e+000 -1.610670e+002 -6.738084e+001 5.330286e+001 -6.510928e+001 -1.538256e+002 -2.168493e+000 1.188487e+002
8275993750 -3.215145e+000 -1.625010e+002 -6.772415e+001 7.006557e+001 -6.524107e+001 -1.525282e+002 -2.179078e+000 1.182076e+002
8294737500 -3.257168e+000 -1.639696e+002 -6.762199e+001 7.990263e+001 -6.526318e+001 -1.485601e+002 -2.188942e+000 1.176062e+002
8313481250 -3.297241e+000 -1.654376e+002 -6.730875e+001 8.148644e+001 -6.530304e+001 -1.474975e+002 -2.202337e+000 1.169819e+002
8332225000 -3.335258e+000 -1.668936e+002 -6.722906e+001 8.190071e+001 -6.563085e+001 -1.441485e+002 -2.214788e+000 1.163588e+002
8350968750 -3.378067e+000 -1.683694e+002 -6.707006e+001 8.730779e+001 -6.591554e+001 -1.390656e+002 -2.226630e+000 1.157458e+002
8369712500 -3.419907e+000 -1.698494e+002 -6.724950e+001 9.027859e+001 -6.612783e+001 -1.360185e+002 -2.242115e+000 1.151334e+002
8388456250 -3.462715e+000 -1.713143e+002 -6.690938e+001 8.908834e+001 -6.588880e+001 -1.367317e+002 -2.255300e+000 1.144851e+002
8407200000 -3.508519e+000 -1.728139e+002 -6.693946e+001 9.186547e+001 -6.620635e+001 -1.340582e+002 -2.266392e+000 1.138857e+002
8425943750 -3.552299e+000 -1.742979e+002 -6.728222e+001 9.429458e+001 -6.654305e+001 -1.384179e+002 -2.280206e+000 1.132541e+002
8444687500 -3.597286e+000 -1.757950e+002 -6.747680e+001 1.003036e+002 -6.659988e+001 -1.343302e+002 -2.291157e+000 1.126122e+002
8463431250 -3.644745e+000 -1.773234e+002 -6.720340e+001 1.095529e+002 -6.636980e+001 -1.319814e+002 -2.301312e+000 1.120002e+002
8482175000 -3.691078e+000 -1.788316e+002 -6.715536e+001 1.182724e+002 -6.638128e+001 -1.201460e+002 -2.314971e+000 1.113761e+002
8500918750 -3.740237e+000 1.796545e+002 -6.715623e+001 1.230161e+002 -6.643404e+001 -1.024131e+002 -2.328422e+000 1.107304e+002
8519662500 -3.791443e+000 1.781187e+002 -6.647973e+001 1.220016e+002 -6.594411e+001 -9.083849e+001 -2.338587e+000 1.101239e+002
8538406250 -3.838107e+000 1.765931e+002 -6.678006e+001 1.199799e+002 -6.642426e+001 -7.251032e+001 -2.355248e+000 1.094834e+002
8557150000 -3.890241e+000 1.750459e+002 -6.680940e+001 1.112497e+002 -6.608340e+001 -4.586373e+001 -2.369102e+000 1.088460e+002
8575893750 -3.943386e+000 1.734703e+002 -6.696975e+001 1.038055e+002 -6.636178e+001 -1.954843e+001 -2.380588e+000 1.082244e+002
8594637500 -3.993896e+000 1.719355e+002 -6.643882e+001 1.029898e+002 -6.623579e+001 6.785979e+000 -2.398439e+000 1.075835e+002
8613381250 -4.050482e+000 1.703722e+002 -6.624315e+001 9.708826e+001 -6.629662e+001 3.108481e+001 -2.412574e+000 1.069262e+002
8632125000 -4.105715e+000 1.687773e+002 -6.645076e+001 9.885634e+001 -6.648746e+001 5.451911e+001 -2.424278e+000 1.063056e+002
8650868750 -4.157194e+000 1.672190e+002 -6.579084e+001 9.993521e+001 -6.627810e+001 8.887754e+001 -2.442324e+000 1.056473e+002
8669612500 -4.213975e+000 1.656216e+002 -6.583756e+001 1.017085e+002 -6.640340e+001 1.177615e+002 -2.454489e+000 1.049878e+002
8688356250 -4.268854e+000 1.639979e+002 -6.610580e+001 1.051947e+002 -6.617269e+001 1.536522e+002 -2.467520e+000 1.043483e+002
8707100000 -4.323510e+000 1.624308e+002 -6.602892e+001 1.044331e+002 -6.576091e+001 -1.749879e+002 -2.487637e+000 1.036946e+002
8725843750 -4.383081e+000 1.608157e+002 -6.616121e+001 1.062073e+002 -6.582013e+001 -1.474141e+002 -2.501247e+000 1.030176e+002
8744587500 -4.440327e+000 1.591572e+002 -6.642375e+001 1.113253e+002 -6.583646e+001 -1.111398e+002 -2.515350e+000 1.023818e+002
8763331250 -4.496428e+000 1.575479e+002 -6.703462e+001 1.149678e+002 -6.542803e+001 -7.926702e+001 -2.533606e+000 1.017169e+002
8782075000 -4.556663e+000 1.558894e+002 -6.695927e+001 1.187661e+002 -6.542715e+001 -5.168348e+001 -2.545635e+000 1.010316e+002
8800818750 -4.613513e+000 1.542272e+002 -6.683406e+001 1.333110e+002 -6.545496e+001 -2.578061e+001 -2.557886e+000 1.003813e+002
8819562500 -4.670280e+000 1.526064e+002 -6.681917e+001 1.533440e+002 -6.616847e+001 2.351354e-001 -2.573879e+000 9.972803e+001
8838306250 -4.736192e+000 1.509219e+002 -6.662221e+001 1.647519e+002 -6.625626e+001 1.748849e+001 -2.588492e+000 9.903691e+001
8857050000 -4.794766e+000 1.492260e+002 -6.625933e+001 -1.797256e+002 -6.594318e+001 4.425424e+001 -2.601596e+000 9.837524e+001
8875793750 -4.856291e+000 1.475602e+002 -6.604683e+001 -1.699104e+002 -6.579871e+001 6.157988e+001 -2.620606e+000 9.768102e+001
8894537500 -4.920333e+000 1.458428e+002 -6.622251e+001 -1.613881e+002 -6.566366e+001 7.489851e+001 -2.634628e+000 9.699500e+001
8913281250 -4.979389e+000 1.441427e+002 -6.579232e+001 -1.596814e+002 -6.554015e+001 7.842167e+001 -2.650218e+000 9.631717e+001
8932025000 -5.042372e+000 1.424564e+002 -6.586117e+001 -1.602206e+002 -6.561004e+001 8.179362e+001 -2.668963e+000 9.562296e+001
8950768750 -5.107703e+000 1.406922e+002 -6.558710e+001 -1.597380e+002 -6.573035e+001 8.053139e+001 -2.682244e+000 9.492564e+001
8969512500 -5.168736e+000 1.389545e+002 -6.556845e+001 -1.518764e+002 -6.556857e+001 7.917434e+001 -2.697710e+000 9.424230e+001
8988256250 -5.232507e+000 1.372237e+002 -6.547684e+001 -1.460963e+002 -6.541501e+001 7.316489e+001 -2.712616e+000 9.352731e+001
9007000000 -5.297638e+000 1.354518e+002 -6.552094e+001 -1.396061e+002 -6.490104e+001 6.619733e+001 -2.724275e+000 9.283419e+001
9025743750 -5.358491e+000 1.337102e+002 -6.574292e+001 -1.333584e+002 -6.462837e+001 6.196191e+001 -2.739206e+000 9.214894e+001
9044487500 -5.425560e+000 1.319629e+002 -6.548985e+001 -1.262389e+002 -6.472393e+001 5.198833e+001 -2.753913e+000 9.143365e+001
9063231250 -5.490008e+000 1.301442e+002 -6.511271e+001 -1.282090e+002 -6.462284e+001 4.412804e+001 -2.768996e+000 9.073248e+001
9081975000 -5.554144e+000 1.283726e+002 -6.478483e+001 -1.260219e+002 -6.523808e+001 2.918862e+001 -2.785193e+000 9.003333e+001
9100718750 -5.621459e+000 1.265731e+002 -6.460337e+001 -1.264170e+002 -6.522860e+001 1.796947e+001 -2.800464e+000 8.928870e+001
9119462500 -5.682896e+000 1.247166e+002 -6.438642e+001 -1.268786e+002 -6.534435e+001 2.702157e-001 -2.811998e+000 8.858329e+001
9138206250 -5.746325e+000 1.229225e+002 -6.437628e+001 -1.258225e+002 -6.564699e+001 -1.252599e+001 -2.828188e+000 8.787009e+001
9156950000 -5.816017e+000 1.210803e+002 -6.429595e+001 -1.203750e+002 -6.557953e+001 -2.648566e+001 -2.843565e+000 8.714494e+001
9175693750 -5.878263e+000 1.191960e+002 -6.407610e+001 -1.157635e+002 -6.577822e+001 -4.275262e+001 -2.854925e+000 8.642379e+001
9194437500 -5.943626e+000 1.173669e+002 -6.342639e+001 -9.972807e+001 -6.566243e+001 -5.728490e+001 -2.872861e+000 8.570882e+001
9213181250 -6.011618e+000 1.154708e+002 -6.346043e+001 -9.043758e+001 -6.517816e+001 -7.211102e+001 -2.887661e+000 8.497252e+001
9231925000 -6.074025e+000 1.135581e+002 -6.341998e+001 -9.081169e+001 -6.467825e+001 -8.230708e+001 -2.900616e+000 8.425615e+001
9250668750 -6.136768e+000 1.117087e+002 -6.331786e+001 -9.164830e+001 -6.374994e+001 -8.995211e+001 -2.919974e+000 8.353309e+001
9269412500 -6.204150e+000 1.097860e+002 -6.317269e+001 -9.039419e+001 -6.294862e+001 -9.114552e+001 -2.935108e+000 8.278106e+001
9288156250 -6.263412e+000 1.078376e+002 -6.320210e+001 -9.085691e+001 -6.276630e+001 -9.157317e+001 -2.949677e+000 8.205832e+001
9306900000 -6.327634e+000 1.059278e+002 -6.328218e+001 -9.070567e+001 -6.282762e+001 -9.243407e+001 -2.967417e+000 8.133224e+001
9325643750 -6.393118e+000 1.039605e+002 -6.300555e+001 -9.239846e+001 -6.234842e+001 -9.021929e+001 -2.982715e+000 8.057381e+001
9344387500 -6.449255e+000 1.019954e+002 -6.301190e+001 -9.339085e+001 -6.222164e+001 -8.512383e+001 -2.995703e+000 7.984933e+001
9363131250 -6.513011e+000 1.000582e+002 -6.269394e+001 -9.162883e+001 -6.187307e+001 -8.580409e+001 -3.013150e+000 7.910480e+001
9381875000 -6.574966e+000 9.807423e+001 -6.288634e+001 -9.119427e+001 -6.165046e+001 -8.540205e+001 -3.030332e+000 7.835228e+001
9400618750 -6.630723e+000 9.608009e+001 -6.241883e+001 -9.562006e+001 -6.122627e+001 -8.349455e+001 -3.044061e+000 7.761092e+001
9419362500 -6.692873e+000 9.408803e+001 -6.200081e+001 -9.178594e+001 -6.094710e+001 -8.418335e+001 -3.062681e+000 7.684982e+001
9438106250 -6.747709e+000 9.203769e+001 -6.164946e+001 -9.368508e+001 -6.101296e+001 -8.616261e+001 -3.077394e+000 7.607442e+001
9456850000 -6.798073e+000 9.000912e+001 -6.108808e+001 -9.861874e+001 -6.080596e+001 -8.890447e+001 -3.091299e+000 7.533479e+001
9475593750 -6.856387e+000 8.797835e+001 -6.074408e+001 -9.819225e+001 -6.060258e+001 -9.033105e+001 -3.111599e+000 7.456607e+001
9494337500 -6.910329e+000 8.591101e+001 -6.075047e+001 -9.720659e+001 -6.024273e+001 -9.118258e+001 -3.125009e+000 7.380019e+001
9513081250 -6.958372e+000 8.385115e+001 -6.048199e+001 -9.617477e+001 -5.937090e+001 -9.045310e+001 -3.140525e+000 7.304447e+001
9531825000 -7.011776e+000 8.177940e+001 -6.013597e+001 -9.556590e+001 -5.907272e+001 -9.065228e+001 -3.159513e+000 7.227815e+001
9550568750 -7.060785e+000 7.970544e+001 -5.985846e+001 -9.629459e+001 -5.879121e+001 -9.176739e+001 -3.173564e+000 7.149638e+001
9569312500 -7.107022e+000 7.762534e+001 -5.923774e+001 -9.528112e+001 -5.843897e+001 -9.238752e+001 -3.190070e+000 7.074884e+001
9588056250 -7.156821e+000 7.552907e+001 -5.888129e+001 -9.599772e+001 -5.803838e+001 -9.394296e+001 -3.210047e+000 6.995947e+001
9606800000 -7.201109e+000 7.343246e+001 -5.856927e+001 -9.175657e+001 -5.745538e+001 -9.745657e+001 -3.224730e+000 6.918703e+001
9625543750 -7.242860e+000 7.130904e+001 -5.838511e+001 -9.290578e+001 -5.727076e+001 -9.673548e+001 -3.242279e+000 6.840533e+001
9644287500 -7.285866e+000 6.919746e+001 -5.771866e+001 -9.620606e+001 -5.722664e+001 -9.592379e+001 -3.263161e+000 6.761292e+001
9663031250 -7.322392e+000 6.706797e+001 -5.727243e+001 -9.599615e+001 -5.698590e+001 -9.860308e+001 -3.277928e+000 6.681084e+001
9681775000 -7.361679e+000 6.492947e+001 -5.679209e+001 -9.686002e+001 -5.676612e+001 -9.890936e+001 -3.295208e+000 6.604588e+001
9700518750 -7.400850e+000 6.278633e+001 -5.650754e+001 -9.697191e+001 -5.654791e+001 -9.904642e+001 -3.317163e+000 6.523839e+001
9719262500 -7.434445e+000 6.064871e+001 -5.617690e+001 -9.736436e+001 -5.636811e+001 -1.011079e+002 -3.332715e+000 6.444184e+001
9738006250 -7.465651e+000 5.849735e+001 -5.564966e+001 -9.810582e+001 -5.589305e+001 -1.007521e+002 -3.354467e+000 6.364676e+001
9756750000 -7.495659e+000 5.632211e+001 -5.559312e+001 -9.899535e+001 -5.560947e+001 -1.009665e+002 -3.377903e+000 6.283112e+001
9775493750 -7.521591e+000 5.415275e+001 -5.523238e+001 -1.002646e+002 -5.528056e+001 -1.022105e+002 -3.391087e+000 6.200864e+001
9794237500 -7.544876e+000 5.195700e+001 -5.497452e+001 -1.032046e+002 -5.494585e+001 -1.054873e+002 -3.407846e+000 6.121072e+001
9812981250 -7.565826e+000 4.981825e+001 -5.456279e+001 -1.027659e+002 -5.454333e+001 -1.060299e+002 -3.429821e+000 6.040237e+001
9831725000 -7.592405e+000 4.765187e+001 -5.431087e+001 -1.028109e+002 -5.433899e+001 -1.078888e+002 -3.451583e+000 5.957384e+001
9850468750 -7.607493e+000 4.545313e+001 -5.404795e+001 -1.041708e+002 -5.410243e+001 -1.081695e+002 -3.470027e+000 5.877267e+001
9869212500 -7.622711e+000 4.332051e+001 -5.378572e+001 -1.058535e+002 -5.369268e+001 -1.090760e+002 -3.492696e+000 5.795454e+001
9887956250 -7.646336e+000 4.116924e+001 -5.346847e+001 -1.077490e+002 -5.319255e+001 -1.094027e+002 -3.515537e+000 5.712484e+001
9906700000 -7.656000e+000 3.893737e+001 -5.312078e+001 -1.102816e+002 -5.277229e+001 -1.084577e+002 -3.537510e+000 5.627885e+001
9925443750 -7.666429e+000 3.680563e+001 -5.262210e+001 -1.114666e+002 -5.247940e+001 -1.094339e+002 -3.559954e+000 5.545988e+001
9944187500 -7.686009e+000 3.461821e+001 -5.234388e+001 -1.132343e+002 -5.233570e+001 -1.101252e+002 -3.584011e+000 5.462745e+001
9962931250 -7.690715e+000 3.239902e+001 -5.193552e+001 -1.153330e+002 -5.187618e+001 -1.124406e+002 -3.607292e+000 5.376156e+001
9981675000 -7.696784e+000 3.025642e+001 -5.157919e+001 -1.149337e+002 -5.154132e+001 -1.132347e+002 -3.628859e+000 5.291304e+001
10000418750 -7.706360e+000 2.806676e+001 -5.120726e+001 -1.161969e+002 -5.109187e+001 -1.144302e+002 -3.651935e+000 5.206701e+001
10019162500 -7.701636e+000 2.588615e+001 -5.079358e+001 -1.161777e+002 -5.080388e+001 -1.154488e+002 -3.674807e+000 5.118923e+001
10037906250 -7.705270e+000 2.376823e+001 -5.039249e+001 -1.174310e+002 -5.033122e+001 -1.158156e+002 -3.698609e+000 5.034599e+001
10056650000 -7.708047e+000 2.157946e+001 -5.003471e+001 -1.194478e+002 -4.990938e+001 -1.167618e+002 -3.723987e+000 4.947509e+001
10075393750 -7.699160e+000 1.940369e+001 -4.970004e+001 -1.204746e+002 -4.942337e+001 -1.184527e+002 -3.750430e+000 4.858647e+001
10094137500 -7.697536e+000 1.728875e+001 -4.931756e+001 -1.221064e+002 -4.902522e+001 -1.195672e+002 -3.775040e+000 4.772394e+001
10112881250 -7.693100e+000 1.509927e+001 -4.904152e+001 -1.235404e+002 -4.872502e+001 -1.206010e+002 -3.804106e+000 4.682156e+001
10131625000 -7.675013e+000 1.296865e+001 -4.864079e+001 -1.249468e+002 -4.843364e+001 -1.216300e+002 -3.828149e+000 4.592975e+001
10150368750 -7.672530e+000 1.085791e+001 -4.820850e+001 -1.261080e+002 -4.805355e+001 -1.235119e+002 -3.852823e+000 4.505957e+001
10169112500 -7.663258e+000 8.672586e+000 -4.779016e+001 -1.270863e+002 -4.775543e+001 -1.253798e+002 -3.878444e+000 4.415400e+001
10187856250 -7.644356e+000 6.563393e+000 -4.731054e+001 -1.284075e+002 -4.731619e+001 -1.270052e+002 -3.903043e+000 4.323801e+001
10206600000 -7.637820e+000 4.476817e+000 -4.694273e+001 -1.294000e+002 -4.693929e+001 -1.280563e+002 -3.933525e+000 4.235905e+001
10225343750 -7.624683e+000 2.354250e+000 -4.655060e+001 -1.307986e+002 -4.652517e+001 -1.291600e+002 -3.967716e+000 4.144253e+001
10244087500 -7.608666e+000 2.466594e-001 -4.610830e+001 -1.327261e+002 -4.604053e+001 -1.309362e+002 -3.995275e+000 4.049871e+001
10262831250 -7.593006e+000 -1.851964e+000 -4.563192e+001 -1.341546e+002 -4.569408e+001 -1.323797e+002 -4.020887e+000 3.961038e+001
10281575000 -7.576386e+000 -3.950929e+000 -4.525143e+001 -1.355261e+002 -4.522495e+001 -1.341846e+002 -4.055694e+000 3.867005e+001
10300318750 -7.558784e+000 -6.042449e+000 -4.490930e+001 -1.365076e+002 -4.486499e+001 -1.358081e+002 -4.086532e+000 3.770535e+001
10319062500 -7.536406e+000 -8.149378e+000 -4.466321e+001 -1.378552e+002 -4.450516e+001 -1.372705e+002 -4.113385e+000 3.677284e+001
10337806250 -7.515561e+000 -1.016846e+001 -4.431190e+001 -1.385901e+002 -4.415885e+001 -1.392220e+002 -4.145071e+000 3.584530e+001
10356550000 -7.496443e+000 -1.223046e+001 -4.394812e+001 -1.398222e+002 -4.382293e+001 -1.408172e+002 -4.177363e+000 3.485714e+001
10375293750 -7.469543e+000 -1.429901e+001 -4.358949e+001 -1.414710e+002 -4.336438e+001 -1.427687e+002 -4.206708e+000 3.392463e+001
10394037500 -7.446470e+000 -1.631391e+001 -4.320072e+001 -1.429836e+002 -4.298776e+001 -1.441240e+002 -4.240125e+000 3.297362e+001
10412781250 -7.425758e+000 -1.835907e+001 -4.278843e+001 -1.448531e+002 -4.261532e+001 -1.456414e+002 -4.277662e+000 3.199671e+001
10431525000 -7.397964e+000 -2.039765e+001 -4.248390e+001 -1.467147e+002 -4.225721e+001 -1.471234e+002 -4.309848e+000 3.101915e+001
10450268750 -7.376541e+000 -2.238588e+001 -4.212751e+001 -1.482611e+002 -4.186459e+001 -1.483055e+002 -4.344503e+000 3.003838e+001
10469012500 -7.353805e+000 -2.443031e+001 -4.176979e+001 -1.501423e+002 -4.150691e+001 -1.499620e+002 -4.380799e+000 2.903354e+001
10487756250 -7.327368e+000 -2.644615e+001 -4.132835e+001 -1.515380e+002 -4.113780e+001 -1.516539e+002 -4.413598e+000 2.805929e+001
10506500000 -7.305682e+000 -2.841938e+001 -4.098213e+001 -1.527436e+002 -4.073165e+001 -1.531496e+002 -4.451239e+000 2.705393e+001
10525243750 -7.281990e+000 -3.043539e+001 -4.061889e+001 -1.544517e+002 -4.038202e+001 -1.544503e+002 -4.488425e+000 2.604830e+001
10543987500 -7.254357e+000 -3.241656e+001 -4.026838e+001 -1.563402e+002 -4.002362e+001 -1.560542e+002 -4.523245e+000 2.505276e+001
10562731250 -7.236475e+000 -3.435555e+001 -3.988330e+001 -1.580634e+002 -3.956426e+001 -1.577893e+002 -4.563941e+000 2.404124e+001
10581475000 -7.212969e+000 -3.635147e+001 -3.952854e+001 -1.597084e+002 -3.918523e+001 -1.594502e+002 -4.605072e+000 2.300546e+001
10600218750 -7.187154e+000 -3.829718e+001 -3.918543e+001 -1.614965e+002 -3.881335e+001 -1.612947e+002 -4.648108e+000 2.201163e+001
10618962500 -7.170001e+000 -4.023174e+001 -3.879812e+001 -1.631104e+002 -3.846336e+001 -1.628968e+002 -4.694041e+000 2.097560e+001
10637706250 -7.144723e+000 -4.221074e+001 -3.841293e+001 -1.648918e+002 -3.804630e+001 -1.648075e+002 -4.738097e+000 1.992368e+001
10656450000 -7.122520e+000 -4.412510e+001 -3.802800e+001 -1.667693e+002 -3.771294e+001 -1.664970e+002 -4.780918e+000 1.887869e+001
10675193750 -7.107346e+000 -4.604119e+001 -3.766106e+001 -1.683110e+002 -3.736816e+001 -1.682821e+002 -4.829806e+000 1.780382e+001
10693937500 -7.086795e+000 -4.798007e+001 -3.729645e+001 -1.700896e+002 -3.697906e+001 -1.701721e+002 -4.876216e+000 1.674478e+001
10712681250 -7.069472e+000 -4.987111e+001 -3.691861e+001 -1.719456e+002 -3.662762e+001 -1.719792e+002 -4.925662e+000 1.568439e+001
10731425000 -7.057176e+000 -5.178411e+001 -3.651349e+001 -1.738164e+002 -3.624857e+001 -1.738034e+002 -4.979147e+000 1.460674e+001
10750168750 -7.037772e+000 -5.370612e+001 -3.609431e+001 -1.756687e+002 -3.585743e+001 -1.756942e+002 -5.029544e+000 1.352104e+001
10768912500 -7.024776e+000 -5.557287e+001 -3.571351e+001 -1.776304e+002 -3.549216e+001 -1.775160e+002 -5.085158e+000 1.242524e+001
10787656250 -7.017996e+000 -5.745304e+001 -3.533444e+001 -1.793889e+002 -3.511207e+001 -1.793215e+002 -5.142178e+000 1.131767e+001
10806400000 -7.006992e+000 -5.934153e+001 -3.494560e+001 1.787133e+002 -3.469259e+001 1.785872e+002 -5.197118e+000 1.019749e+001
10825143750 -7.001540e+000 -6.118932e+001 -3.458239e+001 1.768620e+002 -3.431585e+001 1.766357e+002 -5.257309e+000 9.093551e+000
10843887500 -6.997440e+000 -6.307510e+001 -3.418613e+001 1.748701e+002 -3.392017e+001 1.745764e+002 -5.319546e+000 7.953749e+000
10862631250 -6.987739e+000 -6.492834e+001 -3.378466e+001 1.729125e+002 -3.351998e+001 1.723787e+002 -5.383136e+000 6.803621e+000
10881375000 -6.987676e+000 -6.674584e+001 -3.338227e+001 1.708027e+002 -3.312757e+001 1.704613e+002 -5.449207e+000 5.664676e+000
10900118750 -6.992175e+000 -6.859712e+001 -3.298920e+001 1.689809e+002 -3.274305e+001 1.683291e+002 -5.520267e+000 4.498066e+000
10918862500 -6.993516e+000 -7.043340e+001 -3.258871e+001 1.668921e+002 -3.234630e+001 1.662653e+002 -5.590565e+000 3.325823e+000
10937606250 -7.004000e+000 -7.225738e+001 -3.218262e+001 1.647350e+002 -3.194195e+001 1.641129e+002 -5.663010e+000 2.184138e+000
10956350000 -7.013858e+000 -7.410349e+001 -3.179036e+001 1.626495e+002 -3.155164e+001 1.618144e+002 -5.742524e+000 9.963907e-001
10975093750 -7.022005e+000 -7.591562e+001 -3.139164e+001 1.605112e+002 -3.114870e+001 1.596992e+002 -5.821530e+000 -2.082806e-001
10993837500 -7.038913e+000 -7.770950e+001 -3.099051e+001 1.582732e+002 -3.075866e+001 1.574677e+002 -5.901546e+000 -1.407949e+000
11012581250 -7.059934e+000 -7.951596e+001 -3.058314e+001 1.561131e+002 -3.036886e+001 1.552052e+002 -5.987571e+000 -2.621830e+000
11031325000 -7.083008e+000 -8.129716e+001 -3.018472e+001 1.538009e+002 -2.996176e+001 1.529135e+002 -6.071353e+000 -3.854930e+000
11050068750 -7.112029e+000 -8.308069e+001 -2.975311e+001 1.513539e+002 -2.954860e+001 1.505956e+002 -6.160236e+000 -5.054580e+000
11068812500 -7.141928e+000 -8.488087e+001 -2.935494e+001 1.490296e+002 -2.915007e+001 1.481752e+002 -6.256029e+000 -6.279701e+000
11087556250 -7.171488e+000 -8.662953e+001 -2.895281e+001 1.466424e+002 -2.874100e+001 1.457370e+002 -6.355196e+000 -7.512123e+000
11106300000 -7.212754e+000 -8.838940e+001 -2.853634e+001 1.442135e+002 -2.834699e+001 1.432432e+002 -6.454233e+000 -8.742365e+000
11125043750 -7.255612e+000 -9.015450e+001 -2.813073e+001 1.417617e+002 -2.795005e+001 1.407708e+002 -6.561742e+000 -1.000632e+001
11143787500 -7.300498e+000 -9.188679e+001 -2.773253e+001 1.391869e+002 -2.754348e+001 1.381562e+002 -6.669398e+000 -1.124978e+001
11162531250 -7.353349e+000 -9.362322e+001 -2.732739e+001 1.366054e+002 -2.715146e+001 1.355895e+002 -6.783588e+000 -1.246906e+001
11181275000 -7.406393e+000 -9.534012e+001 -2.692103e+001 1.339551e+002 -2.675815e+001 1.328804e+002 -6.905295e+000 -1.372052e+001
11200018750 -7.461352e+000 -9.700807e+001 -2.652105e+001 1.312702e+002 -2.635156e+001 1.301127e+002 -7.028271e+000 -1.496206e+001
11218762500 -7.528072e+000 -9.868692e+001 -2.611178e+001 1.284708e+002 -2.595334e+001 1.272650e+002 -7.155633e+000 -1.620152e+001
11237506250 -7.595405e+000 -1.003311e+002 -2.571389e+001 1.256519e+002 -2.556175e+001 1.244946e+002 -7.288857e+000 -1.745799e+001
11256250000 -7.668631e+000 -1.019562e+002 -2.530396e+001 1.228047e+002 -2.517290e+001 1.216323e+002 -7.423674e+000 -1.868170e+001
11274993750 -7.746575e+000 -1.035809e+002 -2.490663e+001 1.199716e+002 -2.477915e+001 1.187253e+002 -7.570558e+000 -1.987755e+001
11293737500 -7.829747e+000 -1.051762e+002 -2.451954e+001 1.170078e+002 -2.439772e+001 1.158163e+002 -7.721662e+000 -2.109632e+001
11312481250 -7.916832e+000 -1.067211e+002 -2.412770e+001 1.140294e+002 -2.401161e+001 1.127746e+002 -7.879137e+000 -2.228538e+001
11331225000 -8.012693e+000 -1.082336e+002 -2.373478e+001 1.110400e+002 -2.361981e+001 1.097360e+002 -8.039485e+000 -2.348853e+001
11349968750 -8.111721e+000 -1.097105e+002 -2.335439e+001 1.079746e+002 -2.324454e+001 1.066571e+002 -8.203139e+000 -2.467970e+001
11368712500 -8.214941e+000 -1.111671e+002 -2.297513e+001 1.048302e+002 -2.286651e+001 1.035222e+002 -8.369527e+000 -2.582579e+001
11387456250 -8.322638e+000 -1.125960e+002 -2.259589e+001 1.016703e+002 -2.248544e+001 1.003929e+002 -8.546341e+000 -2.695691e+001
11406200000 -8.430634e+000 -1.139772e+002 -2.222440e+001 9.843925e+001 -2.211248e+001 9.715422e+001 -8.729543e+000 -2.807048e+001
11424943750 -8.541882e+000 -1.152952e+002 -2.185669e+001 9.519250e+001 -2.174667e+001 9.388747e+001 -8.917908e+000 -2.913017e+001
11443687500 -8.662652e+000 -1.165693e+002 -2.150198e+001 9.189421e+001 -2.138699e+001 9.065067e+001 -9.110764e+000 -3.021825e+001
11462431250 -8.782551e+000 -1.178116e+002 -2.114617e+001 8.854147e+001 -2.104441e+001 8.737337e+001 -9.302774e+000 -3.122102e+001
11481175000 -8.905933e+000 -1.190014e+002 -2.080515e+001 8.518736e+001 -2.070031e+001 8.393048e+001 -9.497871e+000 -3.217852e+001
11499918750 -9.033259e+000 -1.201478e+002 -2.046886e+001 8.177605e+001 -2.035843e+001 8.056897e+001 -9.703854e+000 -3.312091e+001
11518662500 -9.159128e+000 -1.212348e+002 -2.013065e+001 7.828736e+001 -2.003245e+001 7.708390e+001 -9.912459e+000 -3.401600e+001
11537406250 -9.286225e+000 -1.222318e+002 -1.980280e+001 7.483064e+001 -1.970606e+001 7.355423e+001 -1.012422e+001 -3.486401e+001
11556150000 -9.421111e+000 -1.231915e+002 -1.948732e+001 7.127658e+001 -1.938465e+001 7.007952e+001 -1.033045e+001 -3.570242e+001
11574893750 -9.551724e+000 -1.241414e+002 -1.916605e+001 6.774325e+001 -1.907978e+001 6.653978e+001 -1.053979e+001 -3.646018e+001
11593637500 -9.682446e+000 -1.250258e+002 -1.886377e+001 6.422596e+001 -1.877288e+001 6.292493e+001 -1.074957e+001 -3.715829e+001
11612381250 -9.811243e+000 -1.258861e+002 -1.856257e+001 6.057304e+001 -1.848081e+001 5.941097e+001 -1.096367e+001 -3.783892e+001
11631125000 -9.933190e+000 -1.266926e+002 -1.826766e+001 5.698543e+001 -1.819683e+001 5.577663e+001 -1.117907e+001 -3.845094e+001
11649868750 -1.005635e+001 -1.274021e+002 -1.799638e+001 5.335017e+001 -1.790963e+001 5.214875e+001 -1.139751e+001 -3.905946e+001
11668612500 -1.018633e+001 -1.281299e+002 -1.772232e+001 4.965291e+001 -1.764392e+001 4.859093e+001 -1.160634e+001 -3.962046e+001
11687356250 -1.030191e+001 -1.288348e+002 -1.745371e+001 4.602924e+001 -1.738102e+001 4.487034e+001 -1.181281e+001 -4.008047e+001
11706100000 -1.041851e+001 -1.294785e+002 -1.720807e+001 4.232813e+001 -1.711790e+001 4.121863e+001 -1.201444e+001 -4.053004e+001
11724843750 -1.052986e+001 -1.301387e+002 -1.695143e+001 3.862897e+001 -1.687287e+001 3.759572e+001 -1.221556e+001 -4.091626e+001
11743587500 -1.063066e+001 -1.307227e+002 -1.671239e+001 3.498391e+001 -1.663642e+001 3.387169e+001 -1.241945e+001 -4.125618e+001
11762331250 -1.073456e+001 -1.312476e+002 -1.648857e+001 3.125225e+001 -1.639655e+001 3.022251e+001 -1.261936e+001 -4.160480e+001
11781075000 -1.083737e+001 -1.318228e+002 -1.625473e+001 2.753133e+001 -1.618209e+001 2.661070e+001 -1.280842e+001 -4.191083e+001
11799818750 -1.093200e+001 -1.323747e+002 -1.603622e+001 2.389403e+001 -1.596288e+001 2.292531e+001 -1.299028e+001 -4.216102e+001
11818562500 -1.102085e+001 -1.328867e+002 -1.582529e+001 2.020415e+001 -1.575248e+001 1.927205e+001 -1.317831e+001 -4.236459e+001
11837306250 -1.111502e+001 -1.333961e+002 -1.561973e+001 1.654208e+001 -1.555755e+001 1.563680e+001 -1.335725e+001 -4.257070e+001
11856050000 -1.119489e+001 -1.339156e+002 -1.542729e+001 1.292248e+001 -1.536055e+001 1.198092e+001 -1.352996e+001 -4.275760e+001
11874793750 -1.127471e+001 -1.343314e+002 -1.524815e+001 9.255416e+000 -1.516664e+001 8.317258e+000 -1.370127e+001 -4.297290e+001
11893537500 -1.136598e+001 -1.348394e+002 -1.506388e+001 5.592174e+000 -1.498555e+001 4.723710e+000 -1.385791e+001 -4.319423e+001
11912281250 -1.143730e+001 -1.353741e+002 -1.488853e+001 2.023522e+000 -1.481570e+001 1.093849e+000 -1.400933e+001 -4.332006e+001
11931025000 -1.151418e+001 -1.358225e+002 -1.472619e+001 -1.604286e+000 -1.464094e+001 -2.530113e+000 -1.416372e+001 -4.349010e+001
11949768750 -1.159136e+001 -1.363849e+002 -1.455908e+001 -5.203784e+000 -1.447994e+001 -6.050390e+000 -1.430542e+001 -4.366257e+001
11968512500 -1.165262e+001 -1.369078e+002 -1.440358e+001 -8.733226e+000 -1.433239e+001 -9.648736e+000 -1.444927e+001 -4.382965e+001
11987256250 -1.172418e+001 -1.373217e+002 -1.425385e+001 -1.230255e+001 -1.417626e+001 -1.321753e+001 -1.459469e+001 -4.406941e+001
12006000000 -1.180564e+001 -1.378519e+002 -1.410452e+001 -1.584245e+001 -1.403360e+001 -1.670755e+001 -1.471983e+001 -4.430804e+001
12024743750 -1.187491e+001 -1.383751e+002 -1.396566e+001 -1.934281e+001 -1.390053e+001 -2.027124e+001 -1.484895e+001 -4.449911e+001
12043487500 -1.195512e+001 -1.388448e+002 -1.383466e+001 -2.284986e+001 -1.376092e+001 -2.377925e+001 -1.497702e+001 -4.473035e+001
12062231250 -1.203297e+001 -1.394339e+002 -1.369954e+001 -2.634123e+001 -1.363382e+001 -2.719626e+001 -1.509714e+001 -4.494725e+001
12080975000 -1.209413e+001 -1.399105e+002 -1.357367e+001 -2.976417e+001 -1.351199e+001 -3.069390e+001 -1.521884e+001 -4.518283e+001
12099718750 -1.217462e+001 -1.403360e+002 -1.345494e+001 -3.321107e+001 -1.338526e+001 -3.413263e+001 -1.534275e+001 -4.553624e+001
12118462500 -1.226418e+001 -1.408613e+002 -1.333158e+001 -3.665852e+001 -1.327353e+001 -3.750179e+001 -1.544664e+001 -4.590018e+001
12137206250 -1.234377e+001 -1.413199e+002 -1.321485e+001 -4.000864e+001 -1.316104e+001 -4.093806e+001 -1.556093e+001 -4.622124e+001
12155950000 -1.244019e+001 -1.417653e+002 -1.310940e+001 -4.339806e+001 -1.304800e+001 -4.431252e+001 -1.567385e+001 -4.663313e+001
12174693750 -1.252586e+001 -1.422796e+002 -1.299498e+001 -4.677150e+001 -1.294632e+001 -4.763736e+001 -1.577492e+001 -4.703909e+001
12193437500 -1.260549e+001 -1.426484e+002 -1.289218e+001 -5.005448e+001 -1.284451e+001 -5.102598e+001 -1.588502e+001 -4.746743e+001
12212181250 -1.270833e+001 -1.429979e+002 -1.279654e+001 -5.339657e+001 -1.273849e+001 -5.433638e+001 -1.599390e+001 -4.794187e+001
12230925000 -1.280575e+001 -1.433805e+002 -1.269573e+001 -5.670052e+001 -1.264607e+001 -5.764487e+001 -1.609267e+001 -4.841641e+001
12249668750 -1.290613e+001 -1.437098e+002 -1.260789e+001 -5.997828e+001 -1.254944e+001 -6.096320e+001 -1.619312e+001 -4.891350e+001
12268412500 -1.300642e+001 -1.440506e+002 -1.251685e+001 -6.327173e+001 -1.245788e+001 -6.421793e+001 -1.629332e+001 -4.942564e+001
12287156250 -1.309930e+001 -1.443757e+002 -1.242645e+001 -6.651158e+001 -1.237395e+001 -6.748072e+001 -1.639900e+001 -4.998259e+001
12305900000 -1.318895e+001 -1.446082e+002 -1.233244e+001 -6.973176e+001 -1.228810e+001 -7.068776e+001 -1.650436e+001 -5.054637e+001
12324643750 -1.329071e+001 -1.447655e+002 -1.224865e+001 -7.293289e+001 -1.220909e+001 -7.392413e+001 -1.660110e+001 -5.121101e+001
12343387500 -1.339106e+001 -1.449378e+002 -1.216847e+001 -7.614799e+001 -1.212568e+001 -7.710326e+001 -1.669970e+001 -5.187538e+001
12362131250 -1.348849e+001 -1.450897e+002 -1.208319e+001 -7.931080e+001 -1.205159e+001 -8.024590e+001 -1.679852e+001 -5.250874e+001
12380875000 -1.358489e+001 -1.452203e+002 -1.200749e+001 -8.244594e+001 -1.197600e+001 -8.342207e+001 -1.690683e+001 -5.316341e+001
12399618750 -1.367263e+001 -1.453257e+002 -1.193239e+001 -8.561134e+001 -1.189501e+001 -8.653150e+001 -1.701545e+001 -5.390288e+001
12418362500 -1.375505e+001 -1.453243e+002 -1.185439e+001 -8.872626e+001 -1.182625e+001 -8.964824e+001 -1.712244e+001 -5.465702e+001
12437106250 -1.384094e+001 -1.452511e+002 -1.178662e+001 -9.182349e+001 -1.175437e+001 -9.278612e+001 -1.722183e+001 -5.545768e+001
12455850000 -1.392443e+001 -1.452204e+002 -1.171694e+001 -9.493193e+001 -1.168414e+001 -9.582215e+001 -1.732326e+001 -5.630737e+001
12474593750 -1.400280e+001 -1.451565e+002 -1.164396e+001 -9.796651e+001 -1.162134e+001 -9.890472e+001 -1.742493e+001 -5.711056e+001
12493337500 -1.407805e+001 -1.450685e+002 -1.158308e+001 -1.010213e+002 -1.155317e+001 -1.019862e+002 -1.752666e+001 -5.797485e+001
12512081250 -1.414114e+001 -1.450008e+002 -1.151527e+001 -1.040910e+002 -1.148987e+001 -1.049588e+002 -1.763709e+001 -5.887275e+001
12530825000 -1.419730e+001 -1.447876e+002 -1.144958e+001 -1.070837e+002 -1.143329e+001 -1.079957e+002 -1.774199e+001 -5.982410e+001
12549568750 -1.425532e+001 -1.445441e+002 -1.139647e+001 -1.100983e+002 -1.136796e+001 -1.110057e+002 -1.785148e+001 -6.081068e+001
12568312500 -1.430754e+001 -1.443322e+002 -1.133196e+001 -1.131160e+002 -1.131504e+001 -1.139403e+002 -1.796162e+001 -6.187118e+001
12587056250 -1.434837e+001 -1.441256e+002 -1.127192e+001 -1.160531e+002 -1.125735e+001 -1.169241e+002 -1.807071e+001 -6.286807e+001
12605800000 -1.438822e+001 -1.439030e+002 -1.121956e+001 -1.190139e+002 -1.119522e+001 -1.198679e+002 -1.818608e+001 -6.397443e+001
12624543750 -1.441680e+001 -1.437195e+002 -1.115825e+001 -1.219907e+002 -1.114642e+001 -1.227742e+002 -1.830212e+001 -6.514046e+001
12643287500 -1.443127e+001 -1.434477e+002 -1.110337e+001 -1.248880e+002 -1.109405e+001 -1.257144e+002 -1.841877e+001 -6.640834e+001
12662031250 -1.444796e+001 -1.431474e+002 -1.105198e+001 -1.278062e+002 -1.103905e+001 -1.286025e+002 -1.853975e+001 -6.771743e+001
12680775000 -1.446451e+001 -1.428766e+002 -1.099759e+001 -1.307120e+002 -1.099233e+001 -1.314534e+002 -1.866138e+001 -6.905538e+001
12699518750 -1.447617e+001 -1.426993e+002 -1.095052e+001 -1.335770e+002 -1.094741e+001 -1.343390e+002 -1.879267e+001 -7.046375e+001
12718262500 -1.447679e+001 -1.425070e+002 -1.090026e+001 -1.364633e+002 -1.089529e+001 -1.371802e+002 -1.892975e+001 -7.193374e+001
12737006250 -1.447214e+001 -1.423005e+002 -1.085141e+001 -1.393035e+002 -1.085156e+001 -1.400061e+002 -1.906666e+001 -7.351035e+001
12755750000 -1.444980e+001 -1.421139e+002 -1.080897e+001 -1.421374e+002 -1.080798e+001 -1.428614e+002 -1.920905e+001 -7.514728e+001
12774493750 -1.443384e+001 -1.419040e+002 -1.076126e+001 -1.449859e+002 -1.075987e+001 -1.456683e+002 -1.935405e+001 -7.684136e+001
12793237500 -1.441750e+001 -1.417461e+002 -1.071688e+001 -1.477837e+002 -1.072160e+001 -1.484541e+002 -1.950206e+001 -7.858762e+001
12811981250 -1.439894e+001 -1.416201e+002 -1.067693e+001 -1.506139e+002 -1.068305e+001 -1.512706e+002 -1.965425e+001 -8.045469e+001
12830725000 -1.437138e+001 -1.415450e+002 -1.063111e+001 -1.534145e+002 -1.063584e+001 -1.540510e+002 -1.981450e+001 -8.237280e+001
12849468750 -1.433682e+001 -1.415299e+002 -1.059326e+001 -1.561829e+002 -1.060081e+001 -1.568046e+002 -1.997465e+001 -8.444416e+001
12868212500 -1.429589e+001 -1.414848e+002 -1.055504e+001 -1.589740e+002 -1.056348e+001 -1.595967e+002 -2.014352e+001 -8.656239e+001
12886956250 -1.425452e+001 -1.414230e+002 -1.051062e+001 -1.617276e+002 -1.051740e+001 -1.623194e+002 -2.031592e+001 -8.876062e+001
12905700000 -1.421859e+001 -1.414123e+002 -1.047483e+001 -1.644615e+002 -1.048173e+001 -1.650099e+002 -2.049314e+001 -9.111266e+001
12924443750 -1.417341e+001 -1.414837e+002 -1.043672e+001 -1.672324e+002 -1.044457e+001 -1.677720e+002 -2.068239e+001 -9.357413e+001
12943187500 -1.413267e+001 -1.415697e+002 -1.039752e+001 -1.699233e+002 -1.040435e+001 -1.704623e+002 -2.086550e+001 -9.618333e+001
12961931250 -1.408239e+001 -1.416926e+002 -1.036736e+001 -1.726456e+002 -1.037322e+001 -1.731607e+002 -2.105192e+001 -9.892805e+001
12980675000 -1.402787e+001 -1.418111e+002 -1.032558e+001 -1.753696e+002 -1.033746e+001 -1.759016e+002 -2.124135e+001 -1.017299e+002
12999418750 -1.398095e+001 -1.419320e+002 -1.029185e+001 -1.780450e+002 -1.029762e+001 -1.785697e+002 -2.143720e+001 -1.046386e+002
13018162500 -1.394188e+001 -1.420699e+002 -1.026427e+001 1.792447e+002 -1.027165e+001 1.787458e+002 -2.164047e+001 -1.078753e+002
13036906250 -1.389892e+001 -1.423215e+002 -1.022698e+001 1.765362e+002 -1.023356e+001 1.760457e+002 -2.184467e+001 -1.111643e+002
13055650000 -1.384986e+001 -1.425761e+002 -1.019701e+001 1.739213e+002 -1.019881e+001 1.734304e+002 -2.203964e+001 -1.146326e+002
13074393750 -1.380254e+001 -1.427998e+002 -1.017048e+001 1.712328e+002 -1.017241e+001 1.707482e+002 -2.221310e+001 -1.181776e+002
13093137500 -1.375090e+001 -1.430840e+002 -1.013547e+001 1.685444e+002 -1.013558e+001 1.680697e+002 -2.241227e+001 -1.218446e+002
13111881250 -1.370340e+001 -1.433423e+002 -1.010826e+001 1.659208e+002 -1.010807e+001 1.654616e+002 -2.260736e+001 -1.257715e+002
13130625000 -1.366229e+001 -1.435796e+002 -1.008062e+001 1.632511e+002 -1.007850e+001 1.628085e+002 -2.278716e+001 -1.299141e+002
13149368750 -1.362599e+001 -1.439252e+002 -1.004707e+001 1.606230e+002 -1.004521e+001 1.601707e+002 -2.294067e+001 -1.342119e+002
13168112500 -1.358131e+001 -1.442994e+002 -1.002433e+001 1.579953e+002 -1.001902e+001 1.575731e+002 -2.306990e+001 -1.386014e+002
13186856250 -1.353717e+001 -1.446338e+002 -9.997675e+000 1.553532e+002 -9.993411e+000 1.549550e+002 -2.319141e+001 -1.429934e+002
13205600000 -1.349559e+001 -1.449857e+002 -9.968581e+000 1.527671e+002 -9.960167e+000 1.523590e+002 -2.331120e+001 -1.476254e+002
13224343750 -1.345656e+001 -1.453119e+002 -9.949086e+000 1.501487e+002 -9.933398e+000 1.497683e+002 -2.339913e+001 -1.524864e+002
13243087500 -1.341939e+001 -1.456419e+002 -9.923731e+000 1.475374e+002 -9.906594e+000 1.471576e+002 -2.346242e+001 -1.574785e+002
13261831250 -1.338677e+001 -1.460296e+002 -9.897751e+000 1.449700e+002 -9.879769e+000 1.445897e+002 -2.349505e+001 -1.624711e+002
13280575000 -1.334676e+001 -1.464458e+002 -9.877689e+000 1.423750e+002 -9.854204e+000 1.420296e+002 -2.349667e+001 -1.673926e+002
13299318750 -1.330780e+001 -1.468536e+002 -9.853244e+000 1.397717e+002 -9.832338e+000 1.394554e+002 -2.349923e+001 -1.723822e+002
13318062500 -1.326973e+001 -1.472475e+002 -9.835348e+000 1.372347e+002 -9.811267e+000 1.368813e+002 -2.347659e+001 -1.775192e+002
13336806250 -1.322979e+001 -1.476241e+002 -9.817787e+000 1.346262e+002 -9.790495e+000 1.343033e+002 -2.341643e+001 1.773464e+002
13355550000 -1.320280e+001 -1.479894e+002 -9.793484e+000 1.320736e+002 -9.768737e+000 1.317316e+002 -2.332925e+001 1.721653e+002
13374293750 -1.317079e+001 -1.484305e+002 -9.778385e+000 1.295452e+002 -9.747822e+000 1.291626e+002 -2.320795e+001 1.671066e+002
13393037500 -1.313168e+001 -1.489111e+002 -9.758361e+000 1.269641e+002 -9.727128e+000 1.266353e+002 -2.307815e+001 1.622169e+002
13411781250 -1.309360e+001 -1.493725e+002 -9.741597e+000 1.244406e+002 -9.709548e+000 1.240983e+002 -2.294580e+001 1.572671e+002
13430525000 -1.305589e+001 -1.498297e+002 -9.733121e+000 1.219083e+002 -9.692413e+000 1.215560e+002 -2.278286e+001 1.522382e+002
13449268750 -1.301731e+001 -1.502719e+002 -9.716679e+000 1.193579e+002 -9.675251e+000 1.190340e+002 -2.257930e+001 1.474120e+002
13468012500 -1.298620e+001 -1.507229e+002 -9.702638e+000 1.168650e+002 -9.664493e+000 1.165126e+002 -2.234647e+001 1.426208e+002
13486756250 -1.295050e+001 -1.512219e+002 -9.694867e+000 1.143403e+002 -9.647446e+000 1.139824e+002 -2.210181e+001 1.380941e+002
13505500000 -1.290940e+001 -1.517778e+002 -9.678374e+000 1.118175e+002 -9.634023e+000 1.114795e+002 -2.187104e+001 1.336449e+002
13524243750 -1.286904e+001 -1.522990e+002 -9.670837e+000 1.093546e+002 -9.623426e+000 1.089632e+002 -2.161382e+001 1.292231e+002
13542987500 -1.282072e+001 -1.528237e+002 -9.661570e+000 1.068452e+002 -9.608424e+000 1.064456e+002 -2.133191e+001 1.249618e+002
13561731250 -1.277917e+001 -1.533123e+002 -9.651382e+000 1.043718e+002 -9.598268e+000 1.039718e+002 -2.103493e+001 1.209111e+002
13580475000 -1.274071e+001 -1.538376e+002 -9.646754e+000 1.019142e+002 -9.588854e+000 1.014913e+002 -2.074109e+001 1.170662e+002
13599218750 -1.269966e+001 -1.544369e+002 -9.640269e+000 9.943549e+001 -9.578613e+000 9.898987e+001 -2.045436e+001 1.133929e+002
13617962500 -1.265562e+001 -1.550392e+002 -9.631366e+000 9.699410e+001 -9.570227e+000 9.652846e+001 -2.017847e+001 1.097655e+002
13636706250 -1.261027e+001 -1.556481e+002 -9.629993e+000 9.454162e+001 -9.569208e+000 9.404301e+001 -1.988787e+001 1.062733e+002
13655450000 -1.256126e+001 -1.562735e+002 -9.622930e+000 9.209438e+001 -9.564121e+000 9.157710e+001 -1.959549e+001 1.029468e+002
13674193750 -1.251831e+001 -1.568934e+002 -9.619912e+000 8.967655e+001 -9.554843e+000 8.913650e+001 -1.930036e+001 9.983714e+001
13692937500 -1.247881e+001 -1.575681e+002 -9.621553e+000 8.723306e+001 -9.554635e+000 8.667377e+001 -1.900988e+001 9.687189e+001
13711681250 -1.243783e+001 -1.582814e+002 -9.617762e+000 8.480710e+001 -9.552159e+000 8.420934e+001 -1.875375e+001 9.400870e+001
13730425000 -1.239284e+001 -1.590135e+002 -9.619232e+000 8.243471e+001 -9.545761e+000 8.179257e+001 -1.848967e+001 9.116586e+001
13749168750 -1.235025e+001 -1.597673e+002 -9.618306e+000 7.999167e+001 -9.544579e+000 7.936461e+001 -1.822742e+001 8.845027e+001
13767912500 -1.230594e+001 -1.605395e+002 -9.615165e+000 7.760185e+001 -9.542377e+000 7.691192e+001 -1.797936e+001 8.576842e+001
13786656250 -1.226529e+001 -1.613037e+002 -9.623281e+000 7.522675e+001 -9.542870e+000 7.454292e+001 -1.772505e+001 8.328336e+001
13805400000 -1.222820e+001 -1.621391e+002 -9.624352e+000 7.279637e+001 -9.547791e+000 7.213960e+001 -1.749278e+001 8.088305e+001
13824143750 -1.218880e+001 -1.630010e+002 -9.622080e+000 7.043923e+001 -9.546479e+000 6.969418e+001 -1.727103e+001 7.847468e+001
13842887500 -1.215160e+001 -1.638762e+002 -9.632275e+000 6.807064e+001 -9.551867e+000 6.732172e+001 -1.704950e+001 7.611864e+001
13861631250 -1.211334e+001 -1.647915e+002 -9.633018e+000 6.568426e+001 -9.555883e+000 6.491313e+001 -1.683119e+001 7.391394e+001
13880375000 -1.207369e+001 -1.657030e+002 -9.634490e+000 6.333712e+001 -9.551847e+000 6.250623e+001 -1.662359e+001 7.170869e+001
13899118750 -1.204209e+001 -1.666380e+002 -9.646605e+000 6.098143e+001 -9.558742e+000 6.013020e+001 -1.642179e+001 6.963972e+001
13917862500 -1.201661e+001 -1.676563e+002 -9.645925e+000 5.859753e+001 -9.569412e+000 5.773061e+001 -1.623668e+001 6.761582e+001
13936606250 -1.198939e+001 -1.686723e+002 -9.650323e+000 5.628560e+001 -9.568998e+000 5.535428e+001 -1.606113e+001 6.559782e+001
13955350000 -1.196642e+001 -1.697037e+002 -9.663189e+000 5.391836e+001 -9.580583e+000 5.301796e+001 -1.587977e+001 6.361885e+001
13974093750 -1.194865e+001 -1.707950e+002 -9.668089e+000 5.157253e+001 -9.593143e+000 5.063636e+001 -1.570196e+001 6.169465e+001
13992837500 -1.192466e+001 -1.719092e+002 -9.673340e+000 4.927270e+001 -9.596737e+000 4.828831e+001 -1.553191e+001 5.977611e+001
14011581250 -1.191193e+001 -1.730174e+002 -9.689412e+000 4.691607e+001 -9.611938e+000 4.594756e+001 -1.535681e+001 5.794116e+001
14030325000 -1.190576e+001 -1.742163e+002 -9.693933e+000 4.458232e+001 -9.623545e+000 4.358278e+001 -1.520434e+001 5.619332e+001
14049068750 -1.189968e+001 -1.754387e+002 -9.708051e+000 4.230767e+001 -9.627983e+000 4.126876e+001 -1.505614e+001 5.440391e+001
14067812500 -1.189654e+001 -1.766618e+002 -9.723492e+000 3.995602e+001 -9.640402e+000 3.897422e+001 -1.490730e+001 5.267389e+001
14086556250 -1.189560e+001 -1.779255e+002 -9.729053e+000 3.765473e+001 -9.651869e+000 3.660419e+001 -1.476997e+001 5.099920e+001
14105300000 -1.189836e+001 -1.792161e+002 -9.743653e+000 3.538792e+001 -9.662826e+000 3.430504e+001 -1.463589e+001 4.931361e+001
14124043750 -1.191149e+001 1.795088e+002 -9.758327e+000 3.306205e+001 -9.683305e+000 3.201173e+001 -1.450132e+001 4.769200e+001
14142787500 -1.193185e+001 1.781521e+002 -9.766703e+000 3.079433e+001 -9.698186e+000 2.966518e+001 -1.437619e+001 4.607110e+001
14161531250 -1.195346e+001 1.767699e+002 -9.784739e+000 2.853192e+001 -9.714538e+000 2.740244e+001 -1.425997e+001 4.443012e+001
14180275000 -1.198040e+001 1.753988e+002 -9.800061e+000 2.622517e+001 -9.738117e+000 2.511588e+001 -1.414357e+001 4.286419e+001
14199018750 -1.201682e+001 1.739630e+002 -9.813146e+000 2.399888e+001 -9.754405e+000 2.282735e+001 -1.403656e+001 4.132911e+001
14217762500 -1.205628e+001 1.725486e+002 -9.831914e+000 2.176771e+001 -9.772055e+000 2.058210e+001 -1.392933e+001 3.974940e+001
14236506250 -1.210855e+001 1.711377e+002 -9.846393e+000 1.948584e+001 -9.794970e+000 1.831806e+001 -1.382536e+001 3.825288e+001
14255250000 -1.216824e+001 1.696228e+002 -9.860163e+000 1.727637e+001 -9.811846e+000 1.605976e+001 -1.373299e+001 3.676689e+001
14273993750 -1.222579e+001 1.681241e+002 -9.881178e+000 1.506280e+001 -9.831727e+000 1.386217e+001 -1.363931e+001 3.525283e+001
14292737500 -1.229205e+001 1.666602e+002 -9.895033e+000 1.282636e+001 -9.859872e+000 1.164169e+001 -1.354769e+001 3.378278e+001
14311481250 -1.236831e+001 1.651464e+002 -9.909335e+000 1.067041e+001 -9.879236e+000 9.419381e+000 -1.346937e+001 3.235537e+001
14330225000 -1.244535e+001 1.636628e+002 -9.930583e+000 8.454797e+000 -9.899229e+000 7.262129e+000 -1.339604e+001 3.090781e+001
14348968750 -1.253441e+001 1.621924e+002 -9.946060e+000 6.243296e+000 -9.925778e+000 5.044549e+000 -1.332024e+001 2.947886e+001
14367712500 -1.262899e+001 1.606333e+002 -9.967183e+000 4.096866e+000 -9.942854e+000 2.849119e+000 -1.325606e+001 2.805602e+001
14386456250 -1.272241e+001 1.590718e+002 -9.987249e+000 1.933177e+000 -9.964886e+000 6.905578e-001 -1.319109e+001 2.659274e+001
14405200000 -1.282663e+001 1.575642e+002 -9.999135e+000 -2.450181e-001 -9.986599e+000 -1.491620e+000 -1.313234e+001 2.517740e+001
14423943750 -1.294227e+001 1.559832e+002 -1.001839e+001 -2.375254e+000 -1.000291e+001 -3.662416e+000 -1.307992e+001 2.376120e+001
14442687500 -1.306124e+001 1.544383e+002 -1.003676e+001 -4.550739e+000 -1.002640e+001 -5.798429e+000 -1.303263e+001 2.239293e+001
14461431250 -1.319093e+001 1.529034e+002 -1.004729e+001 -6.698179e+000 -1.004899e+001 -7.960433e+000 -1.298324e+001 2.104040e+001
14480175000 -1.332379e+001 1.513041e+002 -1.006219e+001 -8.817269e+000 -1.006623e+001 -1.010133e+001 -1.295019e+001 1.965139e+001
14498918750 -1.345861e+001 1.497270e+002 -1.007677e+001 -1.096677e+001 -1.009059e+001 -1.221600e+001 -1.291421e+001 1.823982e+001
14517662500 -1.360421e+001 1.481995e+002 -1.008739e+001 -1.309666e+001 -1.010947e+001 -1.436046e+001 -1.288331e+001 1.685652e+001
14536406250 -1.375186e+001 1.466342e+002 -1.010325e+001 -1.520113e+001 -1.012373e+001 -1.646361e+001 -1.285554e+001 1.547143e+001
14555150000 -1.390856e+001 1.450897e+002 -1.011569e+001 -1.733316e+001 -1.014362e+001 -1.860011e+001 -1.283596e+001 1.409214e+001
14573893750 -1.407840e+001 1.434905e+002 -1.012554e+001 -1.944988e+001 -1.015686e+001 -2.072213e+001 -1.281899e+001 1.276205e+001
14592637500 -1.424430e+001 1.418473e+002 -1.013775e+001 -2.154623e+001 -1.016616e+001 -2.280577e+001 -1.280948e+001 1.142554e+001
14611381250 -1.441242e+001 1.402571e+002 -1.014731e+001 -2.367237e+001 -1.017963e+001 -2.492250e+001 -1.280080e+001 1.006396e+001
14630125000 -1.459181e+001 1.386869e+002 -1.015324e+001 -2.578703e+001 -1.019087e+001 -2.705720e+001 -1.279720e+001 8.734978e+000
14648868750 -1.477050e+001 1.369934e+002 -1.016436e+001 -2.789126e+001 -1.020281e+001 -2.913186e+001 -1.280449e+001 7.414229e+000
14667612500 -1.495914e+001 1.353633e+002 -1.017168e+001 -3.002069e+001 -1.021618e+001 -3.125563e+001 -1.281385e+001 6.100508e+000
14686356250 -1.515557e+001 1.336688e+002 -1.017904e+001 -3.211285e+001 -1.022333e+001 -3.338338e+001 -1.282971e+001 4.813415e+000
14705100000 -1.534933e+001 1.319319e+002 -1.018750e+001 -3.424124e+001 -1.023129e+001 -3.547948e+001 -1.285540e+001 3.495461e+000
14723843750 -1.554970e+001 1.302249e+002 -1.018848e+001 -3.639766e+001 -1.023934e+001 -3.761434e+001 -1.287922e+001 2.182582e+000
14742587500 -1.575513e+001 1.284940e+002 -1.019408e+001 -3.851821e+001 -1.024551e+001 -3.975204e+001 -1.290907e+001 8.718134e-001
14761331250 -1.595977e+001 1.266884e+002 -1.019874e+001 -4.064224e+001 -1.025354e+001 -4.185553e+001 -1.294009e+001 -4.169342e-001
14780075000 -1.618601e+001 1.249088e+002 -1.020020e+001 -4.278817e+001 -1.025864e+001 -4.398745e+001 -1.297880e+001 -1.666667e+000
14798818750 -1.641177e+001 1.229728e+002 -1.020495e+001 -4.492814e+001 -1.026590e+001 -4.609697e+001 -1.302641e+001 -2.902650e+000
14817562500 -1.663620e+001 1.210626e+002 -1.020970e+001 -4.709890e+001 -1.027525e+001 -4.820624e+001 -1.308213e+001 -4.130261e+000
14836306250 -1.687019e+001 1.191674e+002 -1.021225e+001 -4.924776e+001 -1.028166e+001 -5.036565e+001 -1.314071e+001 -5.372484e+000
14855050000 -1.711671e+001 1.171775e+002 -1.021752e+001 -5.141579e+001 -1.028513e+001 -5.249733e+001 -1.320095e+001 -6.593206e+000
14873793750 -1.735928e+001 1.151417e+002 -1.022017e+001 -5.357832e+001 -1.029164e+001 -5.465406e+001 -1.326618e+001 -7.844523e+000
14892537500 -1.762300e+001 1.130667e+002 -1.022337e+001 -5.573859e+001 -1.029511e+001 -5.682438e+001 -1.333716e+001 -9.054049e+000
14911281250 -1.788010e+001 1.108119e+002 -1.023004e+001 -5.792307e+001 -1.029987e+001 -5.897924e+001 -1.341097e+001 -1.022283e+001
14930025000 -1.813830e+001 1.085565e+002 -1.023114e+001 -6.012113e+001 -1.030525e+001 -6.115509e+001 -1.349753e+001 -1.140938e+001
14948768750 -1.840816e+001 1.062538e+002 -1.023514e+001 -6.230883e+001 -1.031025e+001 -6.332573e+001 -1.358634e+001 -1.257344e+001
14967512500 -1.868330e+001 1.038005e+002 -1.024207e+001 -6.450203e+001 -1.031741e+001 -6.548479e+001 -1.367750e+001 -1.372456e+001
14986256250 -1.897083e+001 1.012223e+002 -1.024625e+001 -6.667133e+001 -1.031501e+001 -6.767091e+001 -1.377177e+001 -1.488363e+001
15005000000 -1.924929e+001 9.853478e+001 -1.025683e+001 -6.888364e+001 -1.032462e+001 -6.982091e+001 -1.386742e+001 -1.603190e+001
15023743750 -1.952890e+001 9.577802e+001 -1.025699e+001 -7.111752e+001 -1.033757e+001 -7.203836e+001 -1.396933e+001 -1.708079e+001
15042487500 -1.981207e+001 9.290207e+001 -1.026295e+001 -7.330248e+001 -1.034186e+001 -7.423457e+001 -1.408871e+001 -1.820339e+001
15061231250 -2.009741e+001 8.999054e+001 -1.027531e+001 -7.556091e+001 -1.035078e+001 -7.640072e+001 -1.420086e+001 -1.933249e+001
15079975000 -2.039180e+001 8.694939e+001 -1.027993e+001 -7.780415e+001 -1.036045e+001 -7.865231e+001 -1.431901e+001 -2.039300e+001
15098718750 -2.067061e+001 8.369632e+001 -1.029359e+001 -8.001519e+001 -1.036671e+001 -8.087064e+001 -1.444364e+001 -2.149288e+001
15117462500 -2.094306e+001 8.027699e+001 -1.030477e+001 -8.229202e+001 -1.038408e+001 -8.306769e+001 -1.456291e+001 -2.250591e+001
15136206250 -2.120080e+001 7.678240e+001 -1.031015e+001 -8.452396e+001 -1.039568e+001 -8.532142e+001 -1.469954e+001 -2.347930e+001
15154950000 -2.144438e+001 7.323412e+001 -1.032868e+001 -8.675401e+001 -1.040345e+001 -8.752991e+001 -1.483996e+001 -2.453888e+001
15173693750 -2.169735e+001 6.949103e+001 -1.034169e+001 -8.904459e+001 -1.042003e+001 -8.972641e+001 -1.498209e+001 -2.551582e+001
15192437500 -2.194381e+001 6.564635e+001 -1.035340e+001 -9.129853e+001 -1.043560e+001 -9.200227e+001 -1.513211e+001 -2.646415e+001
15211181250 -2.215479e+001 6.159616e+001 -1.037636e+001 -9.354401e+001 -1.044450e+001 -9.423809e+001 -1.528101e+001 -2.745611e+001
15229925000 -2.234045e+001 5.752235e+001 -1.039031e+001 -9.584107e+001 -1.046537e+001 -9.649400e+001 -1.543134e+001 -2.831182e+001
15248668750 -2.251989e+001 5.343268e+001 -1.040417e+001 -9.807413e+001 -1.047954e+001 -9.876553e+001 -1.560584e+001 -2.920009e+001
15267412500 -2.266921e+001 4.919854e+001 -1.042734e+001 -1.003390e+002 -1.049297e+001 -1.009788e+002 -1.578856e+001 -3.008835e+001
15286156250 -2.279909e+001 4.493572e+001 -1.044104e+001 -1.026459e+002 -1.051501e+001 -1.032258e+002 -1.596309e+001 -3.093975e+001
15304900000 -2.291809e+001 4.050465e+001 -1.045887e+001 -1.048956e+002 -1.053176e+001 -1.054985e+002 -1.615038e+001 -3.176644e+001
15323643750 -2.299057e+001 3.599736e+001 -1.048614e+001 -1.071729e+002 -1.055077e+001 -1.077095e+002 -1.633138e+001 -3.258968e+001
15342387500 -2.303630e+001 3.165528e+001 -1.050217e+001 -1.094921e+002 -1.057142e+001 -1.099628e+002 -1.652646e+001 -3.325064e+001
15361131250 -2.307612e+001 2.734101e+001 -1.052213e+001 -1.117306e+002 -1.059013e+001 -1.122746e+002 -1.673879e+001 -3.396552e+001
15379875000 -2.308919e+001 2.289279e+001 -1.055033e+001 -1.140159e+002 -1.061182e+001 -1.145018e+002 -1.695014e+001 -3.467595e+001
15398618750 -2.308517e+001 1.858884e+001 -1.056900e+001 -1.163279e+002 -1.063831e+001 -1.167866e+002 -1.716698e+001 -3.527476e+001
15417362500 -2.304252e+001 1.426375e+001 -1.059274e+001 -1.186225e+002 -1.066698e+001 -1.190672e+002 -1.739697e+001 -3.586824e+001
15436106250 -2.296915e+001 1.005592e+001 -1.062051e+001 -1.209045e+002 -1.068773e+001 -1.213522e+002 -1.763456e+001 -3.634985e+001
15454850000 -2.288261e+001 5.996917e+000 -1.064957e+001 -1.232067e+002 -1.071277e+001 -1.236158e+002 -1.788562e+001 -3.672511e+001
15473593750 -2.277658e+001 2.022696e+000 -1.067943e+001 -1.254949e+002 -1.074019e+001 -1.259193e+002 -1.814536e+001 -3.713847e+001
15492337500 -2.264089e+001 -2.038846e+000 -1.071013e+001 -1.277593e+002 -1.076412e+001 -1.282041e+002 -1.840619e+001 -3.746004e+001
15511081250 -2.249075e+001 -5.880736e+000 -1.073534e+001 -1.300847e+002 -1.079298e+001 -1.304505e+002 -1.867356e+001 -3.770781e+001
15529825000 -2.232025e+001 -9.653667e+000 -1.076180e+001 -1.323807e+002 -1.082019e+001 -1.327634e+002 -1.894601e+001 -3.783231e+001
15548568750 -2.211909e+001 -1.314456e+001 -1.080006e+001 -1.346977e+002 -1.084568e+001 -1.350417e+002 -1.922592e+001 -3.779599e+001
15567312500 -2.192662e+001 -1.647017e+001 -1.082785e+001 -1.370280e+002 -1.087854e+001 -1.373282e+002 -1.951914e+001 -3.755982e+001
15586056250 -2.173615e+001 -1.984633e+001 -1.086104e+001 -1.392893e+002 -1.090845e+001 -1.396566e+002 -1.984317e+001 -3.727163e+001
15604800000 -2.150797e+001 -2.301797e+001 -1.090016e+001 -1.416095e+002 -1.093917e+001 -1.419425e+002 -2.016067e+001 -3.694061e+001
15623543750 -2.127712e+001 -2.601641e+001 -1.092976e+001 -1.439252e+002 -1.097533e+001 -1.442236e+002 -2.047158e+001 -3.638377e+001
15642287500 -2.103389e+001 -2.889781e+001 -1.096625e+001 -1.461996e+002 -1.100880e+001 -1.465592e+002 -2.076962e+001 -3.568169e+001
15661031250 -2.078985e+001 -3.153786e+001 -1.100635e+001 -1.485391e+002 -1.104125e+001 -1.488483e+002 -2.105163e+001 -3.471323e+001
15679775000 -2.054690e+001 -3.411995e+001 -1.103807e+001 -1.508683e+002 -1.107937e+001 -1.511454e+002 -2.132442e+001 -3.331575e+001
15698518750 -2.030666e+001 -3.660964e+001 -1.107791e+001 -1.531573e+002 -1.111336e+001 -1.534869e+002 -2.161244e+001 -3.186825e+001
15717262500 -2.005257e+001 -3.893230e+001 -1.112121e+001 -1.554879e+002 -1.115149e+001 -1.557798e+002 -2.188195e+001 -3.033610e+001
15736006250 -1.980200e+001 -4.103530e+001 -1.115857e+001 -1.578026e+002 -1.119270e+001 -1.580718e+002 -2.212530e+001 -2.862644e+001
15754750000 -1.955139e+001 -4.307470e+001 -1.120447e+001 -1.600984e+002 -1.122755e+001 -1.604292e+002 -2.234809e+001 -2.674956e+001
15773493750 -1.931487e+001 -4.498403e+001 -1.125018e+001 -1.624373e+002 -1.127220e+001 -1.627140e+002 -2.252311e+001 -2.469524e+001
15792237500 -1.907344e+001 -4.689376e+001 -1.129787e+001 -1.647444e+002 -1.131283e+001 -1.650224e+002 -2.268469e+001 -2.236456e+001
15810981250 -1.883434e+001 -4.865443e+001 -1.134272e+001 -1.670518e+002 -1.135508e+001 -1.673432e+002 -2.282300e+001 -2.001156e+001
15829725000 -1.858623e+001 -5.034685e+001 -1.138625e+001 -1.693817e+002 -1.139998e+001 -1.696818e+002 -2.293502e+001 -1.768885e+001
15848468750 -1.834460e+001 -5.191454e+001 -1.143493e+001 -1.716901e+002 -1.144260e+001 -1.720012e+002 -2.300640e+001 -1.528743e+001
15867212500 -1.811645e+001 -5.344812e+001 -1.148369e+001 -1.739914e+002 -1.149507e+001 -1.742916e+002 -2.301607e+001 -1.289040e+001
15885956250 -1.788548e+001 -5.492785e+001 -1.154105e+001 -1.763219e+002 -1.154261e+001 -1.766798e+002 -2.298876e+001 -1.035305e+001
15904700000 -1.766442e+001 -5.638671e+001 -1.158824e+001 -1.786656e+002 -1.158747e+001 -1.789761e+002 -2.294365e+001 -7.639742e+000
15923443750 -1.744880e+001 -5.774654e+001 -1.164024e+001 1.790195e+002 -1.164878e+001 1.787274e+002 -2.287359e+001 -5.067752e+000
15942187500 -1.721799e+001 -5.902068e+001 -1.170020e+001 1.766996e+002 -1.170005e+001 1.763202e+002 -2.277001e+001 -2.539779e+000
15960931250 -1.700835e+001 -6.021768e+001 -1.175356e+001 1.743808e+002 -1.174846e+001 1.740491e+002 -2.263643e+001 -1.290211e-001
15979675000 -1.680840e+001 -6.145829e+001 -1.180947e+001 1.720891e+002 -1.181234e+001 1.717200e+002 -2.245000e+001 2.144606e+000
15998418750 -1.659732e+001 -6.266207e+001 -1.187467e+001 1.697712e+002 -1.186599e+001 1.693268e+002 -2.221950e+001 4.383708e+000
16017162500 -1.639622e+001 -6.379691e+001 -1.193202e+001 1.674405e+002 -1.192055e+001 1.670531e+002 -2.195126e+001 6.627109e+000
16035906250 -1.619133e+001 -6.494381e+001 -1.199338e+001 1.651371e+002 -1.198701e+001 1.646988e+002 -2.166676e+001 8.784534e+000
16054650000 -1.598580e+001 -6.600175e+001 -1.206031e+001 1.628217e+002 -1.204033e+001 1.623258e+002 -2.137156e+001 1.072884e+001
16073393750 -1.579694e+001 -6.702552e+001 -1.211894e+001 1.604905e+002 -1.210101e+001 1.600789e+002 -2.105981e+001 1.242901e+001
16092137500 -1.561022e+001 -6.810669e+001 -1.218620e+001 1.582245e+002 -1.217314e+001 1.577282e+002 -2.072566e+001 1.384061e+001
16110881250 -1.541700e+001 -6.913833e+001 -1.225522e+001 1.559030e+002 -1.223057e+001 1.553594e+002 -2.037033e+001 1.500907e+001
16129625000 -1.523495e+001 -7.017100e+001 -1.231894e+001 1.535879e+002 -1.229854e+001 1.531045e+002 -1.997901e+001 1.605268e+001
16148368750 -1.504830e+001 -7.118679e+001 -1.238788e+001 1.513117e+002 -1.236918e+001 1.507231e+002 -1.959942e+001 1.707249e+001
16167112500 -1.486022e+001 -7.214025e+001 -1.246017e+001 1.490154e+002 -1.242759e+001 1.483537e+002 -1.922592e+001 1.783470e+001
16185856250 -1.468708e+001 -7.308282e+001 -1.252539e+001 1.467128e+002 -1.250047e+001 1.460956e+002 -1.884696e+001 1.828667e+001
16204600000 -1.450907e+001 -7.408426e+001 -1.259784e+001 1.444275e+002 -1.257559e+001 1.436982e+002 -1.846761e+001 1.855888e+001
16223343750 -1.433449e+001 -7.502723e+001 -1.266841e+001 1.421117e+002 -1.264263e+001 1.413780e+002 -1.808510e+001 1.868435e+001
16242087500 -1.416239e+001 -7.601855e+001 -1.274308e+001 1.398215e+002 -1.271762e+001 1.390972e+002 -1.770816e+001 1.868159e+001
16260831250 -1.398262e+001 -7.698691e+001 -1.282200e+001 1.375330e+002 -1.279325e+001 1.367484e+002 -1.734300e+001 1.866777e+001
16279575000 -1.381460e+001 -7.789991e+001 -1.289735e+001 1.352403e+002 -1.286536e+001 1.344335e+002 -1.699505e+001 1.849585e+001
16298318750 -1.365047e+001 -7.883833e+001 -1.297214e+001 1.329437e+002 -1.294158e+001 1.321125e+002 -1.666850e+001 1.814131e+001
16317062500 -1.347994e+001 -7.981699e+001 -1.304411e+001 1.306694e+002 -1.302137e+001 1.298194e+002 -1.634792e+001 1.764036e+001
16335806250 -1.331580e+001 -8.075816e+001 -1.312796e+001 1.284021e+002 -1.309977e+001 1.275046e+002 -1.602511e+001 1.702581e+001
16354550000 -1.314944e+001 -8.170957e+001 -1.320773e+001 1.261203e+002 -1.317804e+001 1.251945e+002 -1.571029e+001 1.645709e+001
16373293750 -1.298860e+001 -8.267202e+001 -1.328297e+001 1.238711e+002 -1.326069e+001 1.229173e+002 -1.541675e+001 1.584397e+001
16392037500 -1.283243e+001 -8.358018e+001 -1.337139e+001 1.216155e+002 -1.334484e+001 1.206217e+002 -1.513495e+001 1.513213e+001
16410781250 -1.268149e+001 -8.451218e+001 -1.345099e+001 1.193363e+002 -1.342469e+001 1.183423e+002 -1.486903e+001 1.437250e+001
16429525000 -1.252962e+001 -8.547666e+001 -1.353176e+001 1.171108e+002 -1.350898e+001 1.160894e+002 -1.461189e+001 1.354319e+001
16448268750 -1.237053e+001 -8.642847e+001 -1.361936e+001 1.148623e+002 -1.359455e+001 1.138072e+002 -1.436304e+001 1.268019e+001
16467012500 -1.222044e+001 -8.734238e+001 -1.370135e+001 1.126104e+002 -1.367944e+001 1.115297e+002 -1.411279e+001 1.178494e+001
16485756250 -1.207234e+001 -8.826308e+001 -1.378714e+001 1.103940e+002 -1.376544e+001 1.092667e+002 -1.387541e+001 1.086262e+001
16504500000 -1.192988e+001 -8.918198e+001 -1.387795e+001 1.081365e+002 -1.385476e+001 1.069797e+002 -1.365339e+001 9.951422e+000
16523243750 -1.179459e+001 -9.009126e+001 -1.395572e+001 1.058773e+002 -1.393768e+001 1.047374e+002 -1.343720e+001 9.025806e+000
16541987500 -1.166072e+001 -9.104147e+001 -1.404500e+001 1.036884e+002 -1.402743e+001 1.025059e+002 -1.323213e+001 8.058839e+000
16560731250 -1.152680e+001 -9.199493e+001 -1.413656e+001 1.014306e+002 -1.411540e+001 1.002293e+002 -1.303386e+001 7.080274e+000
16579475000 -1.139765e+001 -9.292657e+001 -1.422209e+001 9.919078e+001 -1.420649e+001 9.800815e+001 -1.283607e+001 6.059094e+000
16598218750 -1.127005e+001 -9.387009e+001 -1.431098e+001 9.698547e+001 -1.430172e+001 9.581361e+001 -1.264862e+001 5.072945e+000
16616962500 -1.114663e+001 -9.479527e+001 -1.440224e+001 9.473126e+001 -1.439622e+001 9.354160e+001 -1.247083e+001 4.079594e+000
16635706250 -1.102918e+001 -9.574293e+001 -1.448584e+001 9.253847e+001 -1.448473e+001 9.130108e+001 -1.230140e+001 3.095545e+000
16654450000 -1.091060e+001 -9.671222e+001 -1.458324e+001 9.035414e+001 -1.458168e+001 8.909267e+001 -1.213281e+001 2.082565e+000
16673193750 -1.078988e+001 -9.765550e+001 -1.467730e+001 8.810751e+001 -1.467560e+001 8.683543e+001 -1.197243e+001 1.081845e+000
16691937500 -1.067931e+001 -9.860653e+001 -1.476420e+001 8.592799e+001 -1.476713e+001 8.466206e+001 -1.181346e+001 1.148020e-001
16710681250 -1.056880e+001 -9.956789e+001 -1.486130e+001 8.373730e+001 -1.486387e+001 8.247845e+001 -1.166578e+001 -8.596204e-001
16729425000 -1.046510e+001 -1.004837e+002 -1.495247e+001 8.149908e+001 -1.495621e+001 8.024834e+001 -1.152263e+001 -1.823927e+000
16748168750 -1.036870e+001 -1.014345e+002 -1.504292e+001 7.934882e+001 -1.504822e+001 7.806248e+001 -1.138371e+001 -2.790138e+000
16766912500 -1.026472e+001 -1.024308e+002 -1.514080e+001 7.715221e+001 -1.514994e+001 7.585500e+001 -1.125147e+001 -3.720163e+000
16785656250 -1.016622e+001 -1.033802e+002 -1.522994e+001 7.493240e+001 -1.524468e+001 7.362425e+001 -1.112586e+001 -4.666151e+000
16804400000 -1.007088e+001 -1.043406e+002 -1.532388e+001 7.278463e+001 -1.533808e+001 7.144641e+001 -1.099766e+001 -5.598096e+000
16823143750 -9.975785e+000 -1.053233e+002 -1.541836e+001 7.058836e+001 -1.543934e+001 6.921626e+001 -1.087294e+001 -6.510404e+000
16841887500 -9.886656e+000 -1.062609e+002 -1.550706e+001 6.839583e+001 -1.553168e+001 6.699702e+001 -1.075371e+001 -7.447615e+000
16860631250 -9.803470e+000 -1.072194e+002 -1.560266e+001 6.623312e+001 -1.562660e+001 6.482931e+001 -1.063779e+001 -8.333328e+000
16879375000 -9.720664e+000 -1.081904e+002 -1.570165e+001 6.400013e+001 -1.572856e+001 6.258811e+001 -1.052484e+001 -9.206231e+000
16898118750 -9.640332e+000 -1.091379e+002 -1.579201e+001 6.182000e+001 -1.582278e+001 6.040612e+001 -1.041928e+001 -1.006093e+001
16916862500 -9.560499e+000 -1.101104e+002 -1.588876e+001 5.964435e+001 -1.592353e+001 5.824216e+001 -1.031429e+001 -1.090643e+001
16935606250 -9.484080e+000 -1.110344e+002 -1.598442e+001 5.741243e+001 -1.602367e+001 5.599858e+001 -1.021231e+001 -1.175518e+001
16954350000 -9.412412e+000 -1.119716e+002 -1.608037e+001 5.522791e+001 -1.612135e+001 5.376863e+001 -1.011036e+001 -1.261670e+001
16973093750 -9.345107e+000 -1.129303e+002 -1.618243e+001 5.305773e+001 -1.622490e+001 5.157660e+001 -1.000740e+001 -1.344088e+001
16991837500 -9.275723e+000 -1.138647e+002 -1.628002e+001 5.082226e+001 -1.633179e+001 4.932656e+001 -9.911505e+000 -1.425828e+001
17010581250 -9.207851e+000 -1.147773e+002 -1.637415e+001 4.865671e+001 -1.642727e+001 4.710878e+001 -9.816312e+000 -1.506651e+001
17029325000 -9.145583e+000 -1.157192e+002 -1.647889e+001 4.645424e+001 -1.653307e+001 4.488978e+001 -9.724934e+000 -1.587375e+001
17048068750 -9.085682e+000 -1.166183e+002 -1.657624e+001 4.421482e+001 -1.663533e+001 4.266441e+001 -9.635631e+000 -1.665991e+001
17066812500 -9.034442e+000 -1.175085e+002 -1.667807e+001 4.202498e+001 -1.673914e+001 4.048304e+001 -9.544106e+000 -1.745733e+001
17085556250 -8.982130e+000 -1.184160e+002 -1.678222e+001 3.981029e+001 -1.684815e+001 3.828234e+001 -9.456584e+000 -1.822005e+001
17104300000 -8.930105e+000 -1.193010e+002 -1.688252e+001 3.757213e+001 -1.695644e+001 3.603258e+001 -9.372061e+000 -1.898123e+001
17123043750 -8.881538e+000 -1.201746e+002 -1.699082e+001 3.536855e+001 -1.706301e+001 3.380866e+001 -9.286969e+000 -1.976426e+001
17141787500 -8.834190e+000 -1.210314e+002 -1.709888e+001 3.315076e+001 -1.717927e+001 3.155816e+001 -9.203422e+000 -2.052581e+001
17160531250 -8.789375e+000 -1.218691e+002 -1.720457e+001 3.090034e+001 -1.728798e+001 2.931271e+001 -9.125731e+000 -2.127930e+001
17179275000 -8.753358e+000 -1.227418e+002 -1.731411e+001 2.865365e+001 -1.739424e+001 2.708945e+001 -9.042557e+000 -2.204169e+001
17198018750 -8.715746e+000 -1.235848e+002 -1.742829e+001 2.640953e+001 -1.751050e+001 2.485095e+001 -8.959448e+000 -2.277808e+001
17216762500 -8.674747e+000 -1.244164e+002 -1.754096e+001 2.416475e+001 -1.761883e+001 2.259598e+001 -8.882940e+000 -2.353895e+001
17235506250 -8.640732e+000 -1.252214e+002 -1.765904e+001 2.191554e+001 -1.773303e+001 2.038603e+001 -8.805682e+000 -2.427020e+001
17254250000 -8.604973e+000 -1.259885e+002 -1.777328e+001 1.965906e+001 -1.785526e+001 1.814709e+001 -8.732339e+000 -2.499101e+001
17272993750 -8.576826e+000 -1.267472e+002 -1.788895e+001 1.742468e+001 -1.797438e+001 1.587215e+001 -8.660295e+000 -2.572512e+001
17291737500 -8.553608e+000 -1.275464e+002 -1.800817e+001 1.515499e+001 -1.809591e+001 1.364990e+001 -8.582927e+000 -2.647801e+001
17310481250 -8.525868e+000 -1.283192e+002 -1.812280e+001 1.289315e+001 -1.822095e+001 1.138194e+001 -8.507625e+000 -2.720135e+001
17329225000 -8.496732e+000 -1.290627e+002 -1.824349e+001 1.062147e+001 -1.834175e+001 9.115188e+000 -8.435386e+000 -2.794021e+001
17347968750 -8.472517e+000 -1.297814e+002 -1.836900e+001 8.357518e+000 -1.846586e+001 6.867902e+000 -8.361514e+000 -2.867750e+001
17366712500 -8.450039e+000 -1.304784e+002 -1.849233e+001 6.112184e+000 -1.859804e+001 4.609437e+000 -8.291120e+000 -2.941767e+001
17385456250 -8.431422e+000 -1.311640e+002 -1.862185e+001 3.859665e+000 -1.872027e+001 2.351692e+000 -8.221821e+000 -3.014851e+001
17404200000 -8.411798e+000 -1.318772e+002 -1.874881e+001 1.551161e+000 -1.885260e+001 9.877536e-002 -8.150599e+000 -3.090566e+001
17422943750 -8.390005e+000 -1.325694e+002 -1.887911e+001 -6.873642e-001 -1.898585e+001 -2.127589e+000 -8.080297e+000 -3.161764e+001
17441687500 -8.368361e+000 -1.332370e+002 -1.901435e+001 -2.951880e+000 -1.912006e+001 -4.387791e+000 -8.011256e+000 -3.233661e+001
17460431250 -8.347266e+000 -1.338598e+002 -1.914546e+001 -5.218513e+000 -1.926535e+001 -6.647779e+000 -7.940736e+000 -3.306782e+001
17479175000 -8.327412e+000 -1.344721e+002 -1.928806e+001 -7.456151e+000 -1.940700e+001 -8.939922e+000 -7.873735e+000 -3.378602e+001
17497918750 -8.307682e+000 -1.350712e+002 -1.943087e+001 -9.734034e+000 -1.954690e+001 -1.121531e+001 -7.810045e+000 -3.454079e+001
17516662500 -8.289151e+000 -1.357034e+002 -1.956992e+001 -1.204038e+001 -1.969703e+001 -1.350719e+001 -7.741120e+000 -3.528854e+001
17535406250 -8.265022e+000 -1.362998e+002 -1.971494e+001 -1.429308e+001 -1.983741e+001 -1.579225e+001 -7.678219e+000 -3.601313e+001
17554150000 -8.242210e+000 -1.368646e+002 -1.985969e+001 -1.657229e+001 -1.998734e+001 -1.807098e+001 -7.613302e+000 -3.676316e+001
17572893750 -8.218149e+000 -1.373959e+002 -2.001316e+001 -1.886896e+001 -2.013995e+001 -2.033895e+001 -7.548600e+000 -3.750023e+001
17591637500 -8.196404e+000 -1.379247e+002 -2.016751e+001 -2.111932e+001 -2.029524e+001 -2.259863e+001 -7.486702e+000 -3.824619e+001
17610381250 -8.178112e+000 -1.384258e+002 -2.032799e+001 -2.341512e+001 -2.045752e+001 -2.488619e+001 -7.424812e+000 -3.902714e+001
17629125000 -8.154537e+000 -1.389703e+002 -2.047938e+001 -2.566618e+001 -2.061980e+001 -2.715227e+001 -7.363088e+000 -3.979249e+001
17647868750 -8.130466e+000 -1.394889e+002 -2.064016e+001 -2.792836e+001 -2.078375e+001 -2.940793e+001 -7.303684e+000 -4.053613e+001
17666612500 -8.101143e+000 -1.399850e+002 -2.080276e+001 -3.020573e+001 -2.095542e+001 -3.169993e+001 -7.242970e+000 -4.131778e+001
17685356250 -8.072672e+000 -1.404564e+002 -2.097203e+001 -3.248185e+001 -2.112572e+001 -3.395338e+001 -7.184009e+000 -4.207740e+001
17704100000 -8.045830e+000 -1.408911e+002 -2.115091e+001 -3.473233e+001 -2.130042e+001 -3.619107e+001 -7.126681e+000 -4.286876e+001
17722843750 -8.019511e+000 -1.413500e+002 -2.132823e+001 -3.701035e+001 -2.147242e+001 -3.849075e+001 -7.068131e+000 -4.366459e+001
17741587500 -7.988047e+000 -1.418299e+002 -2.150547e+001 -3.920651e+001 -2.165390e+001 -4.075432e+001 -7.009429e+000 -4.446338e+001
17760331250 -7.953743e+000 -1.423132e+002 -2.169258e+001 -4.144326e+001 -2.184058e+001 -4.300648e+001 -6.952505e+000 -4.526157e+001
17779075000 -7.916552e+000 -1.427605e+002 -2.187483e+001 -4.375375e+001 -2.203297e+001 -4.526155e+001 -6.896938e+000 -4.606394e+001
17797818750 -7.877018e+000 -1.432002e+002 -2.206225e+001 -4.593155e+001 -2.222443e+001 -4.745949e+001 -6.842644e+000 -4.686092e+001
17816562500 -7.842953e+000 -1.436165e+002 -2.225461e+001 -4.814498e+001 -2.242211e+001 -4.967085e+001 -6.791660e+000 -4.768280e+001
17835306250 -7.810163e+000 -1.440481e+002 -2.244218e+001 -5.034929e+001 -2.261795e+001 -5.190471e+001 -6.737572e+000 -4.851161e+001
17854050000 -7.771801e+000 -1.445104e+002 -2.264665e+001 -5.249818e+001 -2.282080e+001 -5.412518e+001 -6.685330e+000 -4.933073e+001
17872793750 -7.728685e+000 -1.449690e+002 -2.284931e+001 -5.469416e+001 -2.302349e+001 -5.628103e+001 -6.634802e+000 -5.017081e+001
17891537500 -7.684208e+000 -1.454274e+002 -2.305462e+001 -5.690353e+001 -2.322403e+001 -5.843683e+001 -6.582868e+000 -5.098106e+001
17910281250 -7.636456e+000 -1.458455e+002 -2.326619e+001 -5.906161e+001 -2.343543e+001 -6.053537e+001 -6.538041e+000 -5.180182e+001
17929025000 -7.594614e+000 -1.462798e+002 -2.347611e+001 -6.124405e+001 -2.365491e+001 -6.267846e+001 -6.489802e+000 -5.264158e+001
17947768750 -7.550204e+000 -1.467433e+002 -2.368299e+001 -6.337637e+001 -2.386538e+001 -6.483630e+001 -6.443163e+000 -5.349498e+001
17966512500 -7.504889e+000 -1.472413e+002 -2.389779e+001 -6.546041e+001 -2.408953e+001 -6.692856e+001 -6.396832e+000 -5.432170e+001
17985256250 -7.455187e+000 -1.477302e+002 -2.412071e+001 -6.763874e+001 -2.432079e+001 -6.908759e+001 -6.351796e+000 -5.516824e+001
18004000000 -7.400682e+000 -1.482210e+002 -2.432514e+001 -6.974857e+001 -2.454950e+001 -7.124424e+001 -6.309515e+000 -5.600930e+001
18022743750 -7.346455e+000 -1.486788e+002 -2.455533e+001 -7.182257e+001 -2.478052e+001 -7.334122e+001 -6.268112e+000 -5.683894e+001
18041487500 -7.293954e+000 -1.491446e+002 -2.477346e+001 -7.399684e+001 -2.501569e+001 -7.538717e+001 -6.226693e+000 -5.768177e+001
18060231250 -7.247822e+000 -1.496364e+002 -2.499496e+001 -7.609416e+001 -2.523954e+001 -7.746359e+001 -6.185595e+000 -5.853646e+001
18078975000 -7.195338e+000 -1.501539e+002 -2.523322e+001 -7.814635e+001 -2.548087e+001 -7.951234e+001 -6.143127e+000 -5.938107e+001
18097718750 -7.142664e+000 -1.506852e+002 -2.547168e+001 -8.020518e+001 -2.571014e+001 -8.156657e+001 -6.101017e+000 -6.023571e+001
18116462500 -7.084633e+000 -1.512055e+002 -2.570721e+001 -8.226565e+001 -2.595057e+001 -8.365686e+001 -6.061960e+000 -6.110118e+001
18135206250 -7.025399e+000 -1.517199e+002 -2.595297e+001 -8.433990e+001 -2.619364e+001 -8.569682e+001 -6.027867e+000 -6.193372e+001
18153950000 -6.972102e+000 -1.522301e+002 -2.618659e+001 -8.638103e+001 -2.644471e+001 -8.776447e+001 -5.991584e+000 -6.279737e+001
18172693750 -6.921863e+000 -1.527624e+002 -2.642684e+001 -8.846050e+001 -2.668842e+001 -8.973194e+001 -5.958200e+000 -6.365405e+001
18191437500 -6.869517e+000 -1.533166e+002 -2.668869e+001 -9.045146e+001 -2.694574e+001 -9.167886e+001 -5.924607e+000 -6.450933e+001
18210181250 -6.813680e+000 -1.538914e+002 -2.692813e+001 -9.236750e+001 -2.718206e+001 -9.362062e+001 -5.890346e+000 -6.536947e+001
18228925000 -6.754805e+000 -1.544487e+002 -2.718071e+001 -9.429648e+001 -2.743505e+001 -9.559560e+001 -5.860110e+000 -6.620656e+001
18247668750 -6.696227e+000 -1.549893e+002 -2.744136e+001 -9.627847e+001 -2.769266e+001 -9.755974e+001 -5.828328e+000 -6.706536e+001
18266412500 -6.641764e+000 -1.555354e+002 -2.770191e+001 -9.821332e+001 -2.795063e+001 -9.949051e+001 -5.800473e+000 -6.792775e+001
18285156250 -6.587090e+000 -1.561040e+002 -2.795634e+001 -1.001650e+002 -2.821631e+001 -1.013911e+002 -5.772205e+000 -6.879213e+001
18303900000 -6.535232e+000 -1.567137e+002 -2.823142e+001 -1.022612e+002 -2.848714e+001 -1.033093e+002 -5.747286e+000 -6.965936e+001
18322643750 -6.479853e+000 -1.573096e+002 -2.849761e+001 -1.041962e+002 -2.875547e+001 -1.053621e+002 -5.722208e+000 -7.054255e+001
18341387500 -6.423678e+000 -1.579096e+002 -2.874987e+001 -1.061061e+002 -2.901890e+001 -1.072831e+002 -5.695521e+000 -7.140384e+001
18360131250 -6.368108e+000 -1.584845e+002 -2.902066e+001 -1.080049e+002 -2.928199e+001 -1.092395e+002 -5.669113e+000 -7.225533e+001
18378875000 -6.320316e+000 -1.590579e+002 -2.927852e+001 -1.098677e+002 -2.956097e+001 -1.111559e+002 -5.644887e+000 -7.313240e+001
18397618750 -6.272093e+000 -1.596711e+002 -2.955653e+001 -1.117882e+002 -2.981455e+001 -1.129903e+002 -5.622205e+000 -7.400795e+001
18416362500 -6.220787e+000 -1.603058e+002 -2.982080e+001 -1.136546e+002 -3.009745e+001 -1.148709e+002 -5.599287e+000 -7.486638e+001
18435106250 -6.170127e+000 -1.609264e+002 -3.010641e+001 -1.155986e+002 -3.036589e+001 -1.166800e+002 -5.577525e+000 -7.572937e+001
18453850000 -6.120458e+000 -1.615533e+002 -3.038190e+001 -1.174568e+002 -3.066055e+001 -1.184439e+002 -5.557684e+000 -7.659512e+001
18472593750 -6.071738e+000 -1.621601e+002 -3.067177e+001 -1.191723e+002 -3.095382e+001 -1.204402e+002 -5.538208e+000 -7.747187e+001
18491337500 -6.024251e+000 -1.627764e+002 -3.095590e+001 -1.210063e+002 -3.125134e+001 -1.221998e+002 -5.520536e+000 -7.833285e+001
18510081250 -5.978871e+000 -1.634238e+002 -3.126044e+001 -1.227823e+002 -3.155119e+001 -1.239565e+002 -5.504600e+000 -7.920339e+001
18528825000 -5.931444e+000 -1.640817e+002 -3.156296e+001 -1.246545e+002 -3.183565e+001 -1.258299e+002 -5.490075e+000 -8.006326e+001
18547568750 -5.885184e+000 -1.647483e+002 -3.187122e+001 -1.264303e+002 -3.213961e+001 -1.274838e+002 -5.471644e+000 -8.091011e+001
18566312500 -5.838861e+000 -1.654159e+002 -3.215505e+001 -1.281708e+002 -3.245330e+001 -1.292061e+002 -5.456647e+000 -8.177047e+001
18585056250 -5.793722e+000 -1.660523e+002 -3.244697e+001 -1.301667e+002 -3.276159e+001 -1.309801e+002 -5.443871e+000 -8.262966e+001
18603800000 -5.753706e+000 -1.667135e+002 -3.276002e+001 -1.319538e+002 -3.308887e+001 -1.328495e+002 -5.432323e+000 -8.348237e+001
18622543750 -5.714150e+000 -1.673980e+002 -3.308174e+001 -1.338652e+002 -3.339878e+001 -1.347809e+002 -5.421145e+000 -8.433002e+001
18641287500 -5.673321e+000 -1.680889e+002 -3.340187e+001 -1.356955e+002 -3.375446e+001 -1.365209e+002 -5.411026e+000 -8.519501e+001
18660031250 -5.632135e+000 -1.688003e+002 -3.373752e+001 -1.375905e+002 -3.408830e+001 -1.382750e+002 -5.398129e+000 -8.603465e+001
18678775000 -5.588575e+000 -1.694765e+002 -3.405272e+001 -1.393493e+002 -3.441934e+001 -1.398387e+002 -5.390843e+000 -8.688548e+001
18697518750 -5.547854e+000 -1.701256e+002 -3.436946e+001 -1.410699e+002 -3.474800e+001 -1.416608e+002 -5.380569e+000 -8.774343e+001
18716262500 -5.515783e+000 -1.707969e+002 -3.472958e+001 -1.427855e+002 -3.509932e+001 -1.433985e+002 -5.372345e+000 -8.856881e+001
18735006250 -5.480119e+000 -1.714973e+002 -3.505223e+001 -1.443371e+002 -3.544743e+001 -1.451208e+002 -5.362854e+000 -8.938630e+001
18753750000 -5.444089e+000 -1.721990e+002 -3.536700e+001 -1.461248e+002 -3.580035e+001 -1.467330e+002 -5.354886e+000 -9.022316e+001
18772493750 -5.407022e+000 -1.729126e+002 -3.572514e+001 -1.478608e+002 -3.614493e+001 -1.485195e+002 -5.348639e+000 -9.103439e+001
18791237500 -5.368435e+000 -1.736070e+002 -3.610436e+001 -1.494678e+002 -3.650401e+001 -1.504064e+002 -5.346149e+000 -9.187838e+001
18809981250 -5.335067e+000 -1.742678e+002 -3.645600e+001 -1.511469e+002 -3.686066e+001 -1.523604e+002 -5.343367e+000 -9.269077e+001
18828725000 -5.305090e+000 -1.749576e+002 -3.685226e+001 -1.529567e+002 -3.721696e+001 -1.540908e+002 -5.338371e+000 -9.350766e+001
18847468750 -5.275552e+000 -1.756623e+002 -3.721452e+001 -1.547291e+002 -3.758724e+001 -1.561525e+002 -5.338107e+000 -9.433394e+001
18866212500 -5.247166e+000 -1.763771e+002 -3.758114e+001 -1.563656e+002 -3.799793e+001 -1.578679e+002 -5.336505e+000 -9.516617e+001
18884956250 -5.213175e+000 -1.770977e+002 -3.797164e+001 -1.581972e+002 -3.836198e+001 -1.597051e+002 -5.335637e+000 -9.597216e+001
18903700000 -5.178752e+000 -1.777809e+002 -3.836977e+001 -1.601458e+002 -3.876512e+001 -1.615155e+002 -5.337383e+000 -9.678497e+001
18922443750 -5.150065e+000 -1.784407e+002 -3.877370e+001 -1.619511e+002 -3.913641e+001 -1.631279e+002 -5.336939e+000 -9.760271e+001
18941187500 -5.125497e+000 -1.791242e+002 -3.916894e+001 -1.635385e+002 -3.953120e+001 -1.648736e+002 -5.338984e+000 -9.840037e+001
18959931250 -5.100874e+000 -1.798198e+002 -3.951865e+001 -1.654538e+002 -3.998687e+001 -1.668244e+002 -5.341863e+000 -9.921568e+001
18978675000 -5.075418e+000 1.794741e+002 -3.991782e+001 -1.673037e+002 -4.035386e+001 -1.689165e+002 -5.347919e+000 -1.000397e+002
18997418750 -5.047843e+000 1.787493e+002 -4.032501e+001 -1.692617e+002 -4.067381e+001 -1.706361e+002 -5.352419e+000 -1.008416e+002
19016162500 -5.018553e+000 1.780724e+002 -4.071185e+001 -1.712252e+002 -4.107879e+001 -1.731856e+002 -5.356555e+000 -1.016539e+002
19034906250 -4.993410e+000 1.774065e+002 -4.109760e+001 -1.732602e+002 -4.146006e+001 -1.750585e+002 -5.362383e+000 -1.024466e+002
19053650000 -4.972111e+000 1.767137e+002 -4.153252e+001 -1.750399e+002 -4.182145e+001 -1.775818e+002 -5.367784e+000 -1.032432e+002
19072393750 -4.949946e+000 1.760166e+002 -4.193583e+001 -1.775518e+002 -4.218858e+001 -1.791821e+002 -5.375604e+000 -1.040412e+002
19091137500 -4.929989e+000 1.753239e+002 -4.235692e+001 -1.798706e+002 -4.270485e+001 1.788578e+002 -5.382880e+000 -1.048439e+002
19109881250 -4.905413e+000 1.745925e+002 -4.283974e+001 1.782093e+002 -4.313494e+001 1.765741e+002 -5.390822e+000 -1.056218e+002
19128625000 -4.882034e+000 1.739084e+002 -4.326039e+001 1.755221e+002 -4.364145e+001 1.740559e+002 -5.400119e+000 -1.064121e+002
19147368750 -4.863755e+000 1.732331e+002 -4.368024e+001 1.720351e+002 -4.402143e+001 1.718223e+002 -5.409464e+000 -1.072274e+002
19166112500 -4.847609e+000 1.725435e+002 -4.418721e+001 1.697031e+002 -4.454387e+001 1.683103e+002 -5.421368e+000 -1.080242e+002
19184856250 -4.829509e+000 1.718425e+002 -4.460463e+001 1.669642e+002 -4.498069e+001 1.654512e+002 -5.434109e+000 -1.088219e+002
19203600000 -4.814109e+000 1.711140e+002 -4.511799e+001 1.638208e+002 -4.539808e+001 1.627112e+002 -5.448370e+000 -1.096254e+002
19222343750 -4.794313e+000 1.703907e+002 -4.554429e+001 1.608327e+002 -4.600806e+001 1.601861e+002 -5.463976e+000 -1.104018e+002
19241087500 -4.769219e+000 1.696910e+002 -4.594711e+001 1.578812e+002 -4.645673e+001 1.566075e+002 -5.481809e+000 -1.112160e+002
19259831250 -4.753718e+000 1.690224e+002 -4.630136e+001 1.548179e+002 -4.687681e+001 1.532548e+002 -5.497633e+000 -1.119995e+002
19278575000 -4.738820e+000 1.683211e+002 -4.679598e+001 1.519506e+002 -4.752969e+001 1.508104e+002 -5.514277e+000 -1.127887e+002
19297318750 -4.722696e+000 1.676133e+002 -4.773266e+001 1.482516e+002 -4.797784e+001 1.464440e+002 -5.532271e+000 -1.135755e+002
19316062500 -4.711065e+000 1.668802e+002 -4.815632e+001 1.445663e+002 -4.876263e+001 1.428792e+002 -5.549566e+000 -1.143785e+002
19334806250 -4.692603e+000 1.661521e+002 -4.909214e+001 1.391261e+002 -4.954992e+001 1.377779e+002 -5.571058e+000 -1.151726e+002
19353550000 -4.674294e+000 1.654718e+002 -4.967896e+001 1.332340e+002 -5.020665e+001 1.313201e+002 -5.594401e+000 -1.159844e+002
19372293750 -4.663610e+000 1.647777e+002 -5.033273e+001 1.299390e+002 -5.061896e+001 1.262521e+002 -5.614591e+000 -1.167924e+002
19391037500 -4.650486e+000 1.640834e+002 -5.105920e+001 1.238130e+002 -5.099061e+001 1.218616e+002 -5.636117e+000 -1.175940e+002
19409781250 -4.639487e+000 1.633796e+002 -5.179966e+001 1.192530e+002 -5.136948e+001 1.175870e+002 -5.658306e+000 -1.183902e+002
19428525000 -4.628406e+000 1.626647e+002 -5.203915e+001 1.143773e+002 -5.231493e+001 1.116528e+002 -5.679862e+000 -1.191996e+002
19447268750 -4.611363e+000 1.619460e+002 -5.248692e+001 1.094846e+002 -5.282419e+001 1.073433e+002 -5.706987e+000 -1.199995e+002
19466012500 -4.596368e+000 1.612734e+002 -5.287884e+001 1.035617e+002 -5.337268e+001 1.011672e+002 -5.731518e+000 -1.208148e+002
19484756250 -4.587123e+000 1.605955e+002 -5.314650e+001 9.909179e+001 -5.418931e+001 9.704545e+001 -5.760608e+000 -1.216441e+002
19503500000 -4.576819e+000 1.599045e+002 -5.353543e+001 9.251638e+001 -5.457119e+001 9.177240e+001 -5.791009e+000 -1.224678e+002
19522243750 -4.567552e+000 1.592023e+002 -5.390474e+001 8.710587e+001 -5.484805e+001 8.638673e+001 -5.821483e+000 -1.233188e+002
19540987500 -4.561402e+000 1.585001e+002 -5.404860e+001 8.247495e+001 -5.524151e+001 8.076457e+001 -5.854275e+000 -1.241640e+002
19559731250 -4.545070e+000 1.577990e+002 -5.454613e+001 7.838649e+001 -5.532718e+001 7.671284e+001 -5.888304e+000 -1.250061e+002
19578475000 -4.531881e+000 1.571313e+002 -5.492201e+001 7.671403e+001 -5.564171e+001 7.190137e+001 -5.924014e+000 -1.258511e+002
19597218750 -4.525758e+000 1.564603e+002 -5.502238e+001 7.166431e+001 -5.577212e+001 6.806805e+001 -5.961794e+000 -1.267225e+002
19615962500 -4.516598e+000 1.557747e+002 -5.512598e+001 6.734513e+001 -5.583447e+001 6.449765e+001 -6.000446e+000 -1.275918e+002
19634706250 -4.511990e+000 1.550927e+002 -5.504292e+001 6.358542e+001 -5.581820e+001 6.066197e+001 -6.038597e+000 -1.284939e+002
19653450000 -4.504743e+000 1.543705e+002 -5.504490e+001 5.974775e+001 -5.578093e+001 5.704435e+001 -6.078710e+000 -1.293976e+002
19672193750 -4.493103e+000 1.536808e+002 -5.505632e+001 5.559439e+001 -5.573356e+001 5.471697e+001 -6.121765e+000 -1.302836e+002
19690937500 -4.484900e+000 1.530152e+002 -5.507598e+001 5.175847e+001 -5.574170e+001 5.104713e+001 -6.166008e+000 -1.312070e+002
19709681250 -4.481851e+000 1.523239e+002 -5.491152e+001 4.747704e+001 -5.547528e+001 4.680333e+001 -6.217403e+000 -1.321301e+002
19728425000 -4.474944e+000 1.516516e+002 -5.419184e+001 4.311863e+001 -5.525697e+001 4.421315e+001 -6.267887e+000 -1.330554e+002
19747168750 -4.472140e+000 1.509705e+002 -5.403304e+001 4.043260e+001 -5.460736e+001 4.098215e+001 -6.320018e+000 -1.340171e+002
19765912500 -4.467327e+000 1.502425e+002 -5.333358e+001 3.982180e+001 -5.397117e+001 3.908662e+001 -6.372856e+000 -1.349686e+002
19784656250 -4.454280e+000 1.495706e+002 -5.298255e+001 3.953792e+001 -5.356644e+001 3.887088e+001 -6.431169e+000 -1.359207e+002
19803400000 -4.441910e+000 1.489193e+002 -5.247275e+001 3.567973e+001 -5.352687e+001 3.770564e+001 -6.495641e+000 -1.368940e+002
19822143750 -4.443851e+000 1.482466e+002 -5.180348e+001 3.549262e+001 -5.327166e+001 3.440005e+001 -6.560388e+000 -1.379015e+002
19840887500 -4.439894e+000 1.475305e+002 -5.112757e+001 3.307713e+001 -5.286470e+001 3.257347e+001 -6.625745e+000 -1.388995e+002
19859631250 -4.435454e+000 1.468548e+002 -5.090393e+001 3.116649e+001 -5.217349e+001 3.133147e+001 -6.695732e+000 -1.398925e+002
19878375000 -4.431151e+000 1.461758e+002 -5.030005e+001 3.058006e+001 -5.165077e+001 2.972935e+001 -6.773636e+000 -1.409193e+002
19897118750 -4.428446e+000 1.454879e+002 -4.986211e+001 2.988543e+001 -5.116429e+001 2.953270e+001 -6.857950e+000 -1.419743e+002
19915862500 -4.425750e+000 1.448173e+002 -4.946115e+001 2.742501e+001 -5.031900e+001 2.714495e+001 -6.946946e+000 -1.430413e+002
19934606250 -4.420433e+000 1.441690e+002 -4.911815e+001 2.799358e+001 -4.987016e+001 2.553774e+001 -7.035112e+000 -1.441112e+002
19953350000 -4.421352e+000 1.434912e+002 -4.853525e+001 2.657394e+001 -4.941043e+001 2.462159e+001 -7.133620e+000 -1.451798e+002
19972093750 -4.418818e+000 1.427539e+002 -4.810399e+001 2.553511e+001 -4.892977e+001 2.399378e+001 -7.234183e+000 -1.462799e+002
19990837500 -4.413633e+000 1.420237e+002 -4.732498e+001 2.317040e+001 -4.863988e+001 2.215307e+001 -7.337821e+000 -1.473522e+002
20009581250 -4.411654e+000 1.413219e+002 -4.675077e+001 1.888000e+001 -4.806542e+001 2.036896e+001 -7.456898e+000 -1.484698e+002
20028325000 -4.404215e+000 1.406162e+002 -4.626612e+001 1.716614e+001 -4.756774e+001 1.974657e+001 -7.573663e+000 -1.496158e+002
20047068750 -4.400887e+000 1.399481e+002 -4.593006e+001 1.556163e+001 -4.714335e+001 1.804146e+001 -7.700856e+000 -1.507731e+002
20065812500 -4.400813e+000 1.392425e+002 -4.569195e+001 1.310125e+001 -4.681723e+001 1.648978e+001 -7.836266e+000 -1.519465e+002
20084556250 -4.400511e+000 1.385200e+002 -4.531630e+001 1.093756e+001 -4.627038e+001 1.334067e+001 -7.978257e+000 -1.531412e+002
20103300000 -4.394950e+000 1.378408e+002 -4.491381e+001 9.141452e+000 -4.594652e+001 1.031875e+001 -8.129469e+000 -1.543090e+002
20122043750 -4.395403e+000 1.371505e+002 -4.446773e+001 7.751868e+000 -4.552224e+001 7.942058e+000 -8.302485e+000 -1.555608e+002
20140787500 -4.393387e+000 1.364714e+002 -4.412089e+001 5.715648e+000 -4.512202e+001 6.056631e+000 -8.469706e+000 -1.568276e+002
20159531250 -4.394929e+000 1.357991e+002 -4.386551e+001 4.284219e+000 -4.488254e+001 3.734961e+000 -8.657856e+000 -1.580728e+002
20178275000 -4.398939e+000 1.350977e+002 -4.355085e+001 2.000691e+000 -4.466874e+001 1.624350e+000 -8.861802e+000 -1.593705e+002
20197018750 -4.395785e+000 1.343829e+002 -4.335556e+001 -6.926035e-001 -4.446676e+001 -4.029782e-001 -9.076331e+000 -1.606547e+002
20215762500 -4.395278e+000 1.336806e+002 -4.304893e+001 -3.258513e+000 -4.411855e+001 -3.300970e+000 -9.314074e+000 -1.619786e+002
20234506250 -4.402236e+000 1.329759e+002 -4.282434e+001 -6.057785e+000 -4.351329e+001 -5.687315e+000 -9.568892e+000 -1.633499e+002
20253250000 -4.397195e+000 1.322627e+002 -4.258638e+001 -8.751184e+000 -4.321526e+001 -6.336376e+000 -9.834667e+000 -1.647093e+002
20271993750 -4.397815e+000 1.316466e+002 -4.245425e+001 -1.071151e+001 -4.313717e+001 -8.676358e+000 -1.013031e+001 -1.660777e+002
20290737500 -4.408050e+000 1.309172e+002 -4.224102e+001 -1.232297e+001 -4.272453e+001 -1.055911e+001 -1.043698e+001 -1.674783e+002
20309481250 -4.404449e+000 1.301441e+002 -4.224582e+001 -1.544152e+001 -4.254882e+001 -1.225156e+001 -1.076999e+001 -1.688023e+002
20328225000 -4.400161e+000 1.294584e+002 -4.207576e+001 -1.831935e+001 -4.232946e+001 -1.506185e+001 -1.114165e+001 -1.700605e+002
20346968750 -4.401294e+000 1.287732e+002 -4.193314e+001 -2.003937e+001 -4.222843e+001 -1.710759e+001 -1.154538e+001 -1.713609e+002
20365712500 -4.405056e+000 1.280557e+002 -4.176444e+001 -2.254697e+001 -4.218486e+001 -1.922533e+001 -1.198733e+001 -1.726707e+002
20384456250 -4.408351e+000 1.273741e+002 -4.160897e+001 -2.369327e+001 -4.194920e+001 -2.227065e+001 -1.248204e+001 -1.739659e+002
20403200000 -4.420955e+000 1.266590e+002 -4.157096e+001 -2.711645e+001 -4.179332e+001 -2.447437e+001 -1.302516e+001 -1.750756e+002
20421943750 -4.425107e+000 1.259332e+002 -4.147617e+001 -2.856012e+001 -4.155591e+001 -2.665247e+001 -1.363910e+001 -1.760434e+002
20440687500 -4.421910e+000 1.252566e+002 -4.127935e+001 -3.023230e+001 -4.163575e+001 -2.857424e+001 -1.434560e+001 -1.767689e+002
20459431250 -4.430331e+000 1.245842e+002 -4.128441e+001 -3.179471e+001 -4.148219e+001 -3.125593e+001 -1.515368e+001 -1.768445e+002
20478175000 -4.432476e+000 1.238833e+002 -4.116780e+001 -3.402961e+001 -4.136259e+001 -3.384082e+001 -1.606681e+001 -1.759910e+002
20496918750 -4.443126e+000 1.232296e+002 -4.102794e+001 -3.591510e+001 -4.126249e+001 -3.650641e+001 -1.695205e+001 -1.739671e+002
20515662500 -4.452782e+000 1.225086e+002 -4.096200e+001 -3.777747e+001 -4.131890e+001 -3.740907e+001 -1.773140e+001 -1.707370e+002
20534406250 -4.455091e+000 1.217404e+002 -4.106234e+001 -3.999582e+001 -4.125341e+001 -3.910532e+001 -1.837711e+001 -1.668576e+002
20553150000 -4.454119e+000 1.210400e+002 -4.107339e+001 -4.170116e+001 -4.123475e+001 -3.985344e+001 -1.892556e+001 -1.625090e+002
20571893750 -4.461048e+000 1.203251e+002 -4.110473e+001 -4.460078e+001 -4.116394e+001 -4.158649e+001 -1.939500e+001 -1.578703e+002
20590637500 -4.464561e+000 1.196395e+002 -4.100058e+001 -4.606679e+001 -4.108297e+001 -4.274724e+001 -1.980463e+001 -1.530987e+002
20609381250 -4.473098e+000 1.189490e+002 -4.100837e+001 -4.844278e+001 -4.108338e+001 -4.483506e+001 -2.013310e+001 -1.483343e+002
20628125000 -4.489350e+000 1.182102e+002 -4.085898e+001 -5.018225e+001 -4.107445e+001 -4.650346e+001 -2.038460e+001 -1.435928e+002
20646868750 -4.492632e+000 1.174341e+002 -4.072902e+001 -5.229933e+001 -4.126764e+001 -4.774509e+001 -2.056386e+001 -1.387113e+002
20665612500 -4.496895e+000 1.167432e+002 -4.062030e+001 -5.367860e+001 -4.147823e+001 -4.962891e+001 -2.067838e+001 -1.336997e+002
20684356250 -4.502589e+000 1.160174e+002 -4.064282e+001 -5.479448e+001 -4.146347e+001 -5.206732e+001 -2.076009e+001 -1.286118e+002
20703100000 -4.505589e+000 1.153199e+002 -4.051712e+001 -5.602622e+001 -4.138884e+001 -5.374118e+001 -2.078979e+001 -1.235756e+002
20721843750 -4.520394e+000 1.146222e+002 -4.050706e+001 -5.819525e+001 -4.142685e+001 -5.581536e+001 -2.077870e+001 -1.185896e+002
20740587500 -4.543340e+000 1.138632e+002 -4.053986e+001 -5.981378e+001 -4.136700e+001 -5.809592e+001 -2.069884e+001 -1.136098e+002
20759331250 -4.545075e+000 1.130838e+002 -4.053526e+001 -6.048661e+001 -4.132655e+001 -5.953034e+001 -2.053883e+001 -1.086414e+002
20778075000 -4.551461e+000 1.123442e+002 -4.049838e+001 -6.223000e+001 -4.123201e+001 -6.094931e+001 -2.031662e+001 -1.035657e+002
20796818750 -4.559412e+000 1.116100e+002 -4.043401e+001 -6.365617e+001 -4.112751e+001 -6.318035e+001 -2.004145e+001 -9.840958e+001
20815562500 -4.561937e+000 1.109407e+002 -4.056430e+001 -6.552055e+001 -4.119951e+001 -6.420605e+001 -1.969480e+001 -9.329037e+001
20834306250 -4.572727e+000 1.102615e+002 -4.047566e+001 -6.725846e+001 -4.117354e+001 -6.655070e+001 -1.926890e+001 -8.840098e+001
20853050000 -4.584368e+000 1.095067e+002 -4.054007e+001 -6.910355e+001 -4.115598e+001 -6.872141e+001 -1.874784e+001 -8.368964e+001
20871793750 -4.588681e+000 1.087563e+002 -4.055209e+001 -7.092399e+001 -4.103841e+001 -7.087164e+001 -1.809368e+001 -7.912897e+001
20890537500 -4.598376e+000 1.080157e+002 -4.046826e+001 -7.302552e+001 -4.111758e+001 -7.234084e+001 -1.731919e+001 -7.520025e+001
20909281250 -4.607286e+000 1.072680e+002 -4.056635e+001 -7.445158e+001 -4.115385e+001 -7.391563e+001 -1.641790e+001 -7.213004e+001
20928025000 -4.607695e+000 1.065926e+002 -4.065390e+001 -7.565537e+001 -4.136046e+001 -7.543324e+001 -1.551781e+001 -7.021214e+001
20946768750 -4.626240e+000 1.058873e+002 -4.074588e+001 -7.759325e+001 -4.128858e+001 -7.774146e+001 -1.470482e+001 -6.956270e+001
20965512500 -4.644807e+000 1.051207e+002 -4.074451e+001 -7.841709e+001 -4.132919e+001 -7.906610e+001 -1.398891e+001 -6.955589e+001
20984256250 -4.654335e+000 1.044008e+002 -4.086034e+001 -8.154975e+001 -4.138715e+001 -8.209483e+001 -1.333496e+001 -6.993652e+001
21003000000 -4.663374e+000 1.036704e+002 -4.086369e+001 -8.199620e+001 -4.145322e+001 -8.389248e+001 -1.274450e+001 -7.060350e+001
21021743750 -4.671530e+000 1.029280e+002 -4.103947e+001 -8.337862e+001 -4.144632e+001 -8.542624e+001 -1.217963e+001 -7.143273e+001
21040487500 -4.675526e+000 1.022749e+002 -4.099412e+001 -8.443138e+001 -4.156394e+001 -8.700079e+001 -1.166843e+001 -7.220956e+001
21059231250 -4.690514e+000 1.015593e+002 -4.103955e+001 -8.637132e+001 -4.177034e+001 -8.788433e+001 -1.121441e+001 -7.302543e+001
21077975000 -4.705893e+000 1.007919e+002 -4.121921e+001 -8.841454e+001 -4.164291e+001 -8.938110e+001 -1.078872e+001 -7.396255e+001
21096718750 -4.713145e+000 1.000532e+002 -4.134996e+001 -8.840519e+001 -4.156194e+001 -9.158833e+001 -1.039055e+001 -7.496080e+001
21115462500 -4.723691e+000 9.930621e+001 -4.157769e+001 -9.059522e+001 -4.174552e+001 -9.278326e+001 -1.000885e+001 -7.600357e+001
21134206250 -4.731860e+000 9.855347e+001 -4.173300e+001 -9.221422e+001 -4.195194e+001 -9.382278e+001 -9.641761e+000 -7.701292e+001
21152950000 -4.740040e+000 9.787148e+001 -4.189205e+001 -9.267084e+001 -4.206187e+001 -9.440768e+001 -9.288819e+000 -7.800619e+001
21171693750 -4.754479e+000 9.714008e+001 -4.200700e+001 -9.374612e+001 -4.215254e+001 -9.618016e+001 -8.961361e+000 -7.906180e+001
21190437500 -4.769635e+000 9.637845e+001 -4.217723e+001 -9.510062e+001 -4.227686e+001 -9.787193e+001 -8.657502e+000 -8.018142e+001
21209181250 -4.781317e+000 9.562946e+001 -4.233360e+001 -9.743422e+001 -4.242013e+001 -9.721870e+001 -8.366465e+000 -8.130053e+001
21227925000 -4.792447e+000 9.486507e+001 -4.263283e+001 -9.799465e+001 -4.258124e+001 -9.865757e+001 -8.088408e+000 -8.250046e+001
21246668750 -4.803821e+000 9.412286e+001 -4.267009e+001 -9.918289e+001 -4.274608e+001 -9.935344e+001 -7.815063e+000 -8.369353e+001
21265412500 -4.814642e+000 9.339399e+001 -4.303153e+001 -9.993903e+001 -4.289162e+001 -9.989794e+001 -7.559014e+000 -8.486494e+001
21284156250 -4.836999e+000 9.260256e+001 -4.314132e+001 -1.001189e+002 -4.326318e+001 -1.013761e+002 -7.318926e+000 -8.601942e+001
21302900000 -4.852260e+000 9.181651e+001 -4.334830e+001 -1.004760e+002 -4.337383e+001 -1.004473e+002 -7.088809e+000 -8.723779e+001
21321643750 -4.859707e+000 9.106146e+001 -4.355663e+001 -1.001302e+002 -4.350035e+001 -1.011233e+002 -6.871168e+000 -8.842156e+001
21340387500 -4.876664e+000 9.030068e+001 -4.369122e+001 -1.006293e+002 -4.363763e+001 -1.020788e+002 -6.663637e+000 -8.966751e+001
21359131250 -4.883857e+000 8.952363e+001 -4.379518e+001 -1.007782e+002 -4.352065e+001 -1.017655e+002 -6.465331e+000 -9.093128e+001
21377875000 -4.894268e+000 8.883820e+001 -4.388132e+001 -1.010340e+002 -4.374045e+001 -1.011848e+002 -6.277372e+000 -9.212757e+001
21396618750 -4.910634e+000 8.805965e+001 -4.383064e+001 -1.025362e+002 -4.381672e+001 -1.024504e+002 -6.101693e+000 -9.338373e+001
21415362500 -4.918528e+000 8.723862e+001 -4.381347e+001 -1.021764e+002 -4.392668e+001 -1.022289e+002 -5.932292e+000 -9.460789e+001
21434106250 -4.931397e+000 8.647689e+001 -4.389853e+001 -1.021781e+002 -4.402639e+001 -1.019384e+002 -5.773999e+000 -9.581011e+001
21452850000 -4.942383e+000 8.564532e+001 -4.406003e+001 -1.027986e+002 -4.418707e+001 -1.018314e+002 -5.626942e+000 -9.702473e+001
21471593750 -4.955421e+000 8.487477e+001 -4.420825e+001 -1.035771e+002 -4.435408e+001 -1.016560e+002 -5.488904e+000 -9.818833e+001
21490337500 -4.975298e+000 8.412365e+001 -4.433576e+001 -1.028955e+002 -4.430859e+001 -1.025568e+002 -5.352822e+000 -9.933054e+001
21509081250 -4.993248e+000 8.331113e+001 -4.440572e+001 -1.025899e+002 -4.448641e+001 -1.033828e+002 -5.217578e+000 -1.004589e+002
21527825000 -5.005096e+000 8.250504e+001 -4.452737e+001 -1.036176e+002 -4.471571e+001 -1.027985e+002 -5.092311e+000 -1.015965e+002
21546568750 -5.023005e+000 8.172276e+001 -4.455844e+001 -1.031257e+002 -4.477907e+001 -1.027504e+002 -4.979765e+000 -1.027289e+002
21565312500 -5.036910e+000 8.089529e+001 -4.469175e+001 -1.039026e+002 -4.470067e+001 -1.038534e+002 -4.862717e+000 -1.038512e+002
21584056250 -5.047492e+000 8.014587e+001 -4.493011e+001 -1.062007e+002 -4.474004e+001 -1.052106e+002 -4.756158e+000 -1.049283e+002
21602800000 -5.067439e+000 7.941582e+001 -4.479767e+001 -1.061299e+002 -4.480185e+001 -1.042659e+002 -4.650611e+000 -1.059965e+002
21621543750 -5.082656e+000 7.858984e+001 -4.465682e+001 -1.066564e+002 -4.477184e+001 -1.041851e+002 -4.549459e+000 -1.070622e+002
21640287500 -5.095084e+000 7.778854e+001 -4.471052e+001 -1.064330e+002 -4.472713e+001 -1.067109e+002 -4.453799e+000 -1.081118e+002
21659031250 -5.116926e+000 7.699991e+001 -4.445981e+001 -1.084224e+002 -4.468373e+001 -1.058937e+002 -4.360116e+000 -1.091638e+002
21677775000 -5.125702e+000 7.616774e+001 -4.444331e+001 -1.087674e+002 -4.462859e+001 -1.068304e+002 -4.265979e+000 -1.102129e+002
21696518750 -5.138751e+000 7.540702e+001 -4.424414e+001 -1.095887e+002 -4.455759e+001 -1.061395e+002 -4.179008e+000 -1.112286e+002
21715262500 -5.159088e+000 7.465434e+001 -4.438530e+001 -1.109202e+002 -4.430610e+001 -1.053319e+002 -4.097412e+000 -1.122666e+002
21734006250 -5.175492e+000 7.381956e+001 -4.434747e+001 -1.116131e+002 -4.431457e+001 -1.066731e+002 -4.016320e+000 -1.132917e+002
21752750000 -5.194346e+000 7.300020e+001 -4.432433e+001 -1.135602e+002 -4.439519e+001 -1.080126e+002 -3.942255e+000 -1.142897e+002
21771493750 -5.208401e+000 7.216266e+001 -4.434990e+001 -1.147774e+002 -4.432303e+001 -1.086824e+002 -3.868595e+000 -1.152814e+002
21790237500 -5.223722e+000 7.134431e+001 -4.432356e+001 -1.159065e+002 -4.457271e+001 -1.106905e+002 -3.796406e+000 -1.162566e+002
21808981250 -5.239429e+000 7.054452e+001 -4.432629e+001 -1.171666e+002 -4.449609e+001 -1.128782e+002 -3.726574e+000 -1.172297e+002
21827725000 -5.266680e+000 6.976776e+001 -4.443180e+001 -1.191838e+002 -4.438527e+001 -1.129071e+002 -3.659698e+000 -1.181796e+002
21846468750 -5.287314e+000 6.893131e+001 -4.451912e+001 -1.202568e+002 -4.439198e+001 -1.139315e+002 -3.595428e+000 -1.191491e+002
21865212500 -5.305188e+000 6.811720e+001 -4.447760e+001 -1.208268e+002 -4.440656e+001 -1.148797e+002 -3.536453e+000 -1.200977e+002
21883956250 -5.326300e+000 6.729643e+001 -4.447044e+001 -1.214088e+002 -4.456074e+001 -1.170123e+002 -3.477089e+000 -1.210323e+002
21902700000 -5.342344e+000 6.643223e+001 -4.441625e+001 -1.220794e+002 -4.434221e+001 -1.182723e+002 -3.415426e+000 -1.219711e+002
21921443750 -5.360619e+000 6.564503e+001 -4.435781e+001 -1.237615e+002 -4.433954e+001 -1.191171e+002 -3.360050e+000 -1.229027e+002
21940187500 -5.389651e+000 6.482913e+001 -4.443120e+001 -1.247042e+002 -4.419584e+001 -1.199355e+002 -3.309896e+000 -1.238396e+002
21958931250 -5.409026e+000 6.397732e+001 -4.440512e+001 -1.256874e+002 -4.414110e+001 -1.205707e+002 -3.260318e+000 -1.247346e+002
21977675000 -5.426443e+000 6.313783e+001 -4.441191e+001 -1.264280e+002 -4.400156e+001 -1.213716e+002 -3.209742e+000 -1.256531e+002
21996418750 -5.446618e+000 6.229550e+001 -4.417322e+001 -1.268387e+002 -4.419413e+001 -1.229655e+002 -3.166417e+000 -1.265659e+002
22015162500 -5.459974e+000 6.143919e+001 -4.393640e+001 -1.260393e+002 -4.418269e+001 -1.231142e+002 -3.117626e+000 -1.274640e+002
22033906250 -5.481713e+000 6.062246e+001 -4.390611e+001 -1.279584e+002 -4.430356e+001 -1.244732e+002 -3.077063e+000 -1.283472e+002
22052650000 -5.510977e+000 5.979165e+001 -4.410783e+001 -1.284185e+002 -4.431851e+001 -1.246707e+002 -3.035589e+000 -1.292288e+002
22071393750 -5.529976e+000 5.893858e+001 -4.410463e+001 -1.289942e+002 -4.438960e+001 -1.254594e+002 -2.997164e+000 -1.301127e+002
22090137500 -5.545900e+000 5.807276e+001 -4.418856e+001 -1.298140e+002 -4.442334e+001 -1.266038e+002 -2.958660e+000 -1.309611e+002
22108881250 -5.575540e+000 5.720110e+001 -4.424194e+001 -1.307394e+002 -4.442297e+001 -1.271276e+002 -2.926006e+000 -1.318190e+002
22127625000 -5.593933e+000 5.638901e+001 -4.437189e+001 -1.319693e+002 -4.453560e+001 -1.283917e+002 -2.888538e+000 -1.326596e+002
22146368750 -5.617793e+000 5.552912e+001 -4.427755e+001 -1.318302e+002 -4.454967e+001 -1.290535e+002 -2.852099e+000 -1.334778e+002
22165112500 -5.647452e+000 5.467913e+001 -4.421186e+001 -1.316819e+002 -4.462496e+001 -1.297355e+002 -2.818341e+000 -1.343076e+002
22183856250 -5.665020e+000 5.378167e+001 -4.425936e+001 -1.317546e+002 -4.458915e+001 -1.307704e+002 -2.785013e+000 -1.351282e+002
22202600000 -5.686558e+000 5.292107e+001 -4.415955e+001 -1.317558e+002 -4.495271e+001 -1.300783e+002 -2.752720e+000 -1.359700e+002
22221343750 -5.707917e+000 5.199840e+001 -4.423608e+001 -1.317671e+002 -4.481153e+001 -1.309284e+002 -2.723166e+000 -1.368164e+002
22240087500 -5.728489e+000 5.114590e+001 -4.410742e+001 -1.325040e+002 -4.490847e+001 -1.304156e+002 -2.687489e+000 -1.376231e+002
22258831250 -5.749927e+000 5.026233e+001 -4.418770e+001 -1.322590e+002 -4.527231e+001 -1.313954e+002 -2.659175e+000 -1.384247e+002
22277575000 -5.776792e+000 4.934565e+001 -4.433133e+001 -1.337183e+002 -4.527776e+001 -1.314565e+002 -2.628593e+000 -1.392298e+002
22296318750 -5.798593e+000 4.844374e+001 -4.440675e+001 -1.344477e+002 -4.540960e+001 -1.319902e+002 -2.598502e+000 -1.400254e+002
22315062500 -5.822950e+000 4.753983e+001 -4.459575e+001 -1.347745e+002 -4.534597e+001 -1.324558e+002 -2.571383e+000 -1.408187e+002
22333806250 -5.839771e+000 4.662640e+001 -4.471720e+001 -1.348116e+002 -4.544811e+001 -1.331407e+002 -2.546534e+000 -1.416682e+002
22352550000 -5.853993e+000 4.573497e+001 -4.479992e+001 -1.348869e+002 -4.560272e+001 -1.342115e+002 -2.515739e+000 -1.424482e+002
22371293750 -5.875026e+000 4.487419e+001 -4.474277e+001 -1.356067e+002 -4.567664e+001 -1.344820e+002 -2.489144e+000 -1.432479e+002
22390037500 -5.904243e+000 4.391621e+001 -4.476255e+001 -1.366406e+002 -4.580837e+001 -1.353643e+002 -2.464916e+000 -1.440595e+002
22408781250 -5.927706e+000 4.301067e+001 -4.486873e+001 -1.388156e+002 -4.612746e+001 -1.362532e+002 -2.437222e+000 -1.448383e+002
22427525000 -5.955021e+000 4.207538e+001 -4.509093e+001 -1.397324e+002 -4.596446e+001 -1.363807e+002 -2.411998e+000 -1.456341e+002
22446268750 -5.973234e+000 4.113049e+001 -4.523931e+001 -1.408404e+002 -4.614643e+001 -1.361637e+002 -2.389423e+000 -1.464247e+002
22465012500 -5.992048e+000 4.023349e+001 -4.535601e+001 -1.409672e+002 -4.609656e+001 -1.370590e+002 -2.364512e+000 -1.472064e+002
22483756250 -6.021199e+000 3.933319e+001 -4.549244e+001 -1.413801e+002 -4.630973e+001 -1.370622e+002 -2.341175e+000 -1.479761e+002
22502500000 -6.049113e+000 3.836471e+001 -4.553492e+001 -1.417327e+002 -4.656343e+001 -1.368748e+002 -2.316505e+000 -1.487606e+002
22521243750 -6.071106e+000 3.738464e+001 -4.557290e+001 -1.401388e+002 -4.675747e+001 -1.367991e+002 -2.294208e+000 -1.495416e+002
22539987500 -6.083992e+000 3.640737e+001 -4.586259e+001 -1.404344e+002 -4.690902e+001 -1.366267e+002 -2.268714e+000 -1.503206e+002
22558731250 -6.101888e+000 3.544299e+001 -4.592589e+001 -1.407947e+002 -4.689751e+001 -1.367025e+002 -2.248532e+000 -1.510813e+002
22577475000 -6.119959e+000 3.455744e+001 -4.623644e+001 -1.438096e+002 -4.730541e+001 -1.377780e+002 -2.226942e+000 -1.518286e+002
22596218750 -6.147240e+000 3.361126e+001 -4.649686e+001 -1.460177e+002 -4.727924e+001 -1.384355e+002 -2.206538e+000 -1.525691e+002
22614962500 -6.176075e+000 3.266098e+001 -4.665348e+001 -1.467601e+002 -4.732533e+001 -1.393520e+002 -2.189100e+000 -1.533505e+002
22633706250 -6.202949e+000 3.166666e+001 -4.670668e+001 -1.490114e+002 -4.751593e+001 -1.401784e+002 -2.166629e+000 -1.540992e+002
22652450000 -6.224136e+000 3.072347e+001 -4.657922e+001 -1.503669e+002 -4.769607e+001 -1.406082e+002 -2.148802e+000 -1.547931e+002
22671193750 -6.241701e+000 2.974971e+001 -4.693368e+001 -1.513420e+002 -4.782887e+001 -1.421601e+002 -2.139955e+000 -1.555581e+002
22689937500 -6.265709e+000 2.885741e+001 -4.693117e+001 -1.525729e+002 -4.770716e+001 -1.430424e+002 -2.119099e+000 -1.563195e+002
22708681250 -6.292958e+000 2.791512e+001 -4.679028e+001 -1.512934e+002 -4.783967e+001 -1.445544e+002 -2.105428e+000 -1.570085e+002
22727425000 -6.318160e+000 2.694430e+001 -4.703696e+001 -1.522797e+002 -4.770176e+001 -1.457740e+002 -2.095525e+000 -1.577594e+002
22746168750 -6.343049e+000 2.592549e+001 -4.688408e+001 -1.529296e+002 -4.776767e+001 -1.457768e+002 -2.075389e+000 -1.584904e+002
22764912500 -6.363069e+000 2.492759e+001 -4.730988e+001 -1.532999e+002 -4.791848e+001 -1.461430e+002 -2.062901e+000 -1.591309e+002
22783656250 -6.388210e+000 2.399890e+001 -4.731392e+001 -1.533212e+002 -4.790936e+001 -1.464984e+002 -2.059111e+000 -1.598790e+002
22802400000 -6.415964e+000 2.303852e+001 -4.760239e+001 -1.532339e+002 -4.802898e+001 -1.474469e+002 -2.044038e+000 -1.605745e+002
22821143750 -6.439674e+000 2.210768e+001 -4.763308e+001 -1.543099e+002 -4.792735e+001 -1.497493e+002 -2.035358e+000 -1.612413e+002
22839887500 -6.464299e+000 2.110644e+001 -4.744580e+001 -1.548272e+002 -4.775178e+001 -1.495934e+002 -2.026727e+000 -1.619695e+002
22858631250 -6.489817e+000 2.005828e+001 -4.742978e+001 -1.556952e+002 -4.789499e+001 -1.511171e+002 -2.010170e+000 -1.626481e+002
22877375000 -6.507144e+000 1.904059e+001 -4.748505e+001 -1.545236e+002 -4.776777e+001 -1.525728e+002 -2.005233e+000 -1.632880e+002
22896118750 -6.525371e+000 1.807263e+001 -4.750164e+001 -1.549704e+002 -4.781173e+001 -1.539472e+002 -1.997029e+000 -1.640180e+002
22914862500 -6.549688e+000 1.709834e+001 -4.744815e+001 -1.572734e+002 -4.800496e+001 -1.544869e+002 -1.985380e+000 -1.646763e+002
22933606250 -6.572112e+000 1.612199e+001 -4.765234e+001 -1.573346e+002 -4.840987e+001 -1.547867e+002 -1.984011e+000 -1.653035e+002
22952350000 -6.605472e+000 1.512995e+001 -4.766041e+001 -1.596693e+002 -4.844658e+001 -1.574402e+002 -1.976536e+000 -1.660127e+002
22971093750 -6.637471e+000 1.409467e+001 -4.764090e+001 -1.600710e+002 -4.852139e+001 -1.594128e+002 -1.966931e+000 -1.666284e+002
22989837500 -6.656031e+000 1.304968e+001 -4.776269e+001 -1.607790e+002 -4.879953e+001 -1.608398e+002 -1.965731e+000 -1.672983e+002
23008581250 -6.675098e+000 1.206755e+001 -4.762575e+001 -1.586013e+002 -4.877707e+001 -1.606612e+002 -1.958227e+000 -1.680229e+002
23027325000 -6.693179e+000 1.103919e+001 -4.764180e+001 -1.590264e+002 -4.898841e+001 -1.610533e+002 -1.949130e+000 -1.686443e+002
23046068750 -6.712470e+000 1.001691e+001 -4.769242e+001 -1.608961e+002 -4.952692e+001 -1.581942e+002 -1.949057e+000 -1.692715e+002
23064812500 -6.740893e+000 9.002331e+000 -4.787685e+001 -1.594498e+002 -4.934037e+001 -1.604351e+002 -1.942707e+000 -1.699263e+002
23083556250 -6.767235e+000 7.864011e+000 -4.839217e+001 -1.595350e+002 -4.931938e+001 -1.610806e+002 -1.935000e+000 -1.705463e+002
23102300000 -6.786579e+000 6.797065e+000 -4.827323e+001 -1.604318e+002 -4.949739e+001 -1.620019e+002 -1.932454e+000 -1.711541e+002
23121043750 -6.804544e+000 5.759984e+000 -4.842145e+001 -1.595296e+002 -4.975237e+001 -1.611672e+002 -1.929631e+000 -1.717924e+002
23139787500 -6.823872e+000 4.743144e+000 -4.883457e+001 -1.619357e+002 -5.064925e+001 -1.634967e+002 -1.926357e+000 -1.724013e+002
23158531250 -6.845373e+000 3.708685e+000 -4.889106e+001 -1.635891e+002 -5.124500e+001 -1.624374e+002 -1.925279e+000 -1.730181e+002
23177275000 -6.872025e+000 2.683980e+000 -4.893424e+001 -1.654821e+002 -5.130644e+001 -1.644936e+002 -1.921916e+000 -1.736330e+002
23196018750 -6.892566e+000 1.579782e+000 -4.881249e+001 -1.673951e+002 -5.151467e+001 -1.665125e+002 -1.917303e+000 -1.742287e+002
23214762500 -6.899559e+000 4.919820e-001 -4.912652e+001 -1.700146e+002 -5.179544e+001 -1.681295e+002 -1.911916e+000 -1.748331e+002
23233506250 -6.915278e+000 -5.478305e-001 -4.927826e+001 -1.717969e+002 -5.201373e+001 -1.649690e+002 -1.907291e+000 -1.754334e+002
23252250000 -6.932661e+000 -1.589162e+000 -4.952717e+001 -1.783892e+002 -5.193711e+001 -1.645368e+002 -1.903100e+000 -1.760152e+002
23270993750 -6.957055e+000 -2.602778e+000 -4.986064e+001 -1.770914e+002 -5.227206e+001 -1.667802e+002 -1.905252e+000 -1.765905e+002
23289737500 -6.980362e+000 -3.671245e+000 -5.017675e+001 -1.749687e+002 -5.248956e+001 -1.667148e+002 -1.901269e+000 -1.771711e+002
23308481250 -7.002769e+000 -4.789670e+000 -5.043763e+001 -1.754432e+002 -5.316014e+001 -1.657265e+002 -1.898520e+000 -1.777648e+002
23327225000 -7.013499e+000 -5.877194e+000 -5.088182e+001 -1.781166e+002 -5.376580e+001 -1.689650e+002 -1.898510e+000 -1.783251e+002
23345968750 -7.021475e+000 -6.951831e+000 -5.107055e+001 -1.763829e+002 -5.378259e+001 -1.721144e+002 -1.893411e+000 -1.789090e+002
23364712500 -7.037704e+000 -7.986562e+000 -5.108066e+001 -1.755791e+002 -5.336823e+001 -1.720229e+002 -1.887598e+000 -1.794778e+002
23383456250 -7.055109e+000 -9.010401e+000 -5.159853e+001 -1.724643e+002 -5.340976e+001 -1.681779e+002 -1.886709e+000 1.799592e+002
23402200000 -7.074741e+000 -1.011027e+001 -5.212664e+001 -1.746742e+002 -5.345250e+001 -1.654031e+002 -1.884132e+000 1.793867e+002
23420943750 -7.086400e+000 -1.125173e+001 -5.194423e+001 -1.743343e+002 -5.379615e+001 -1.625783e+002 -1.880468e+000 1.788586e+002
23439687500 -7.097191e+000 -1.234951e+001 -5.225286e+001 -1.734536e+002 -5.387675e+001 -1.644023e+002 -1.883034e+000 1.783065e+002
23458431250 -7.112081e+000 -1.343064e+001 -5.250410e+001 -1.751934e+002 -5.392540e+001 -1.662895e+002 -1.878019e+000 1.777349e+002
23477175000 -7.124957e+000 -1.448103e+001 -5.352096e+001 1.792248e+002 -5.374109e+001 -1.665645e+002 -1.874368e+000 1.771947e+002
23495918750 -7.135273e+000 -1.552852e+001 -5.414610e+001 1.756871e+002 -5.381583e+001 -1.636859e+002 -1.875173e+000 1.766403e+002
23514662500 -7.152922e+000 -1.663251e+001 -5.421668e+001 1.753288e+002 -5.431777e+001 -1.631247e+002 -1.870105e+000 1.760804e+002
23533406250 -7.156380e+000 -1.774488e+001 -5.484998e+001 1.767461e+002 -5.413066e+001 -1.615836e+002 -1.866846e+000 1.755609e+002
23552150000 -7.163404e+000 -1.886350e+001 -5.552069e+001 -1.784419e+002 -5.413294e+001 -1.622512e+002 -1.868602e+000 1.750021e+002
23570893750 -7.171644e+000 -1.999584e+001 -5.541894e+001 -1.781011e+002 -5.323802e+001 -1.603381e+002 -1.863085e+000 1.744532e+002
23589637500 -7.176506e+000 -2.108057e+001 -5.546022e+001 -1.770648e+002 -5.301670e+001 -1.615725e+002 -1.860573e+000 1.739534e+002
23608381250 -7.188443e+000 -2.216839e+001 -5.531462e+001 -1.748858e+002 -5.331354e+001 -1.589727e+002 -1.861323e+000 1.733908e+002
23627125000 -7.198434e+000 -2.331341e+001 -5.525511e+001 -1.750227e+002 -5.329582e+001 -1.555518e+002 -1.852777e+000 1.728378e+002
23645868750 -7.206539e+000 -2.444845e+001 -5.530264e+001 -1.724471e+002 -5.314241e+001 -1.515746e+002 -1.853870e+000 1.723340e+002
23664612500 -7.212918e+000 -2.556769e+001 -5.528455e+001 -1.699908e+002 -5.325108e+001 -1.578169e+002 -1.852403e+000 1.717746e+002
23683356250 -7.220737e+000 -2.671515e+001 -5.532109e+001 -1.635862e+002 -5.385530e+001 -1.531622e+002 -1.845959e+000 1.712358e+002
23702100000 -7.221981e+000 -2.781443e+001 -5.537351e+001 -1.631820e+002 -5.357225e+001 -1.509396e+002 -1.843245e+000 1.707217e+002
23720843750 -7.230495e+000 -2.888094e+001 -5.521566e+001 -1.654606e+002 -5.352994e+001 -1.493951e+002 -1.842772e+000 1.701488e+002
23739587500 -7.237213e+000 -3.004725e+001 -5.512385e+001 -1.697079e+002 -5.296949e+001 -1.498145e+002 -1.834650e+000 1.696326e+002
23758331250 -7.241336e+000 -3.120805e+001 -5.514026e+001 -1.703297e+002 -5.262711e+001 -1.482851e+002 -1.835716e+000 1.691007e+002
23777075000 -7.250259e+000 -3.234283e+001 -5.513412e+001 -1.753059e+002 -5.250032e+001 -1.483053e+002 -1.835739e+000 1.685411e+002
23795818750 -7.250309e+000 -3.350271e+001 -5.509899e+001 -1.746327e+002 -5.257315e+001 -1.492747e+002 -1.830399e+000 1.680102e+002
23814562500 -7.248507e+000 -3.460896e+001 -5.494365e+001 -1.770324e+002 -5.288317e+001 -1.541387e+002 -1.832109e+000 1.674644e+002
23833306250 -7.255756e+000 -3.571879e+001 -5.490670e+001 -1.736934e+002 -5.273442e+001 -1.556147e+002 -1.827703e+000 1.668910e+002
23852050000 -7.262494e+000 -3.686450e+001 -5.537093e+001 -1.744861e+002 -5.258234e+001 -1.601436e+002 -1.820793e+000 1.663671e+002
23870793750 -7.265315e+000 -3.801925e+001 -5.573495e+001 -1.741484e+002 -5.302876e+001 -1.558303e+002 -1.819668e+000 1.658459e+002
23889537500 -7.261600e+000 -3.914706e+001 -5.563453e+001 -1.710510e+002 -5.287632e+001 -1.521466e+002 -1.820114e+000 1.652854e+002
23908281250 -7.266053e+000 -4.027517e+001 -5.467702e+001 -1.633601e+002 -5.316259e+001 -1.449895e+002 -1.815976e+000 1.647793e+002
23927025000 -7.272007e+000 -4.142812e+001 -5.415481e+001 -1.652291e+002 -5.352868e+001 -1.452072e+002 -1.819848e+000 1.642454e+002
23945768750 -7.276793e+000 -4.252377e+001 -5.374070e+001 -1.655578e+002 -5.329557e+001 -1.443256e+002 -1.819191e+000 1.636679e+002
23964512500 -7.282608e+000 -4.370232e+001 -5.332966e+001 -1.664706e+002 -5.324126e+001 -1.436542e+002 -1.811066e+000 1.631506e+002
23983256250 -7.282909e+000 -4.486951e+001 -5.280257e+001 -1.694865e+002 -5.320776e+001 -1.413501e+002 -1.813253e+000 1.626116e+002
24002000000 -7.283153e+000 -4.598624e+001 -5.273120e+001 -1.670982e+002 -5.345024e+001 -1.404383e+002 -1.806804e+000 1.620380e+002
24020743750 -7.284910e+000 -4.713553e+001 -5.268528e+001 -1.656775e+002 -5.330247e+001 -1.365452e+002 -1.807419e+000 1.615158e+002
24039487500 -7.283329e+000 -4.824178e+001 -5.291875e+001 -1.660288e+002 -5.320270e+001 -1.382722e+002 -1.813011e+000 1.609575e+002
24058231250 -7.292848e+000 -4.933459e+001 -5.277928e+001 -1.643301e+002 -5.314444e+001 -1.374563e+002 -1.811255e+000 1.603879e+002
24076975000 -7.297524e+000 -5.052399e+001 -5.259556e+001 -1.673603e+002 -5.320612e+001 -1.362375e+002 -1.809249e+000 1.598764e+002
24095718750 -7.287380e+000 -5.166370e+001 -5.238765e+001 -1.665283e+002 -5.284557e+001 -1.330474e+002 -1.818099e+000 1.593465e+002
24114462500 -7.282253e+000 -5.280824e+001 -5.249012e+001 -1.644417e+002 -5.258165e+001 -1.358070e+002 -1.819547e+000 1.587982e+002
24133206250 -7.277636e+000 -5.395714e+001 -5.240253e+001 -1.643919e+002 -5.276669e+001 -1.368445e+002 -1.816137e+000 1.583076e+002
24151950000 -7.275378e+000 -5.509633e+001 -5.277276e+001 -1.642696e+002 -5.263203e+001 -1.360599e+002 -1.822532e+000 1.577635e+002
24170693750 -7.279106e+000 -5.623855e+001 -5.306815e+001 -1.605891e+002 -5.266671e+001 -1.369225e+002 -1.823020e+000 1.572110e+002
24189437500 -7.275102e+000 -5.740007e+001 -5.306649e+001 -1.592866e+002 -5.272049e+001 -1.325169e+002 -1.823095e+000 1.567188e+002
24208181250 -7.264939e+000 -5.854652e+001 -5.318167e+001 -1.533374e+002 -5.317590e+001 -1.362632e+002 -1.830005e+000 1.561866e+002
24226925000 -7.256772e+000 -5.967775e+001 -5.343744e+001 -1.560670e+002 -5.316312e+001 -1.398064e+002 -1.829275e+000 1.556568e+002
24245668750 -7.249651e+000 -6.081021e+001 -5.372614e+001 -1.559509e+002 -5.265255e+001 -1.370735e+002 -1.834076e+000 1.551881e+002
24264412500 -7.243610e+000 -6.194353e+001 -5.370500e+001 -1.586956e+002 -5.267220e+001 -1.374934e+002 -1.843063e+000 1.546563e+002
24283156250 -7.239827e+000 -6.309650e+001 -5.357277e+001 -1.602930e+002 -5.226431e+001 -1.366833e+002 -1.842075e+000 1.541203e+002
24301900000 -7.230600e+000 -6.426191e+001 -5.349612e+001 -1.629152e+002 -5.173215e+001 -1.373535e+002 -1.845639e+000 1.536509e+002
24320643750 -7.219805e+000 -6.542982e+001 -5.352242e+001 -1.608483e+002 -5.180083e+001 -1.406281e+002 -1.853882e+000 1.531077e+002
24339387500 -7.207900e+000 -6.655494e+001 -5.354668e+001 -1.627115e+002 -5.132937e+001 -1.529270e+002 -1.850755e+000 1.526085e+002
24358131250 -7.197157e+000 -6.767332e+001 -5.330550e+001 -1.582238e+002 -5.116177e+001 -1.547000e+002 -1.856530e+000 1.521292e+002
24376875000 -7.189391e+000 -6.880034e+001 -5.350407e+001 -1.614503e+002 -5.112271e+001 -1.553712e+002 -1.859871e+000 1.516011e+002
24395618750 -7.184871e+000 -6.995837e+001 -5.344102e+001 -1.577020e+002 -5.140135e+001 -1.578738e+002 -1.858447e+000 1.510808e+002
24414362500 -7.170962e+000 -7.109476e+001 -5.355961e+001 -1.594421e+002 -5.144897e+001 -1.598603e+002 -1.864039e+000 1.506218e+002
24433106250 -7.161198e+000 -7.219127e+001 -5.357948e+001 -1.600524e+002 -5.182933e+001 -1.570138e+002 -1.871396e+000 1.500925e+002
24451850000 -7.147368e+000 -7.331382e+001 -5.390544e+001 -1.623385e+002 -5.190819e+001 -1.594953e+002 -1.865756e+000 1.495965e+002
24470593750 -7.133449e+000 -7.442874e+001 -5.424583e+001 -1.608068e+002 -5.181157e+001 -1.557430e+002 -1.869912e+000 1.491460e+002
24489337500 -7.122351e+000 -7.555392e+001 -5.464462e+001 -1.638138e+002 -5.164859e+001 -1.569736e+002 -1.875338e+000 1.486154e+002
24508081250 -7.108436e+000 -7.668781e+001 -5.470921e+001 -1.607770e+002 -5.188643e+001 -1.564053e+002 -1.872690e+000 1.481192e+002
24526825000 -7.095043e+000 -7.786594e+001 -5.492432e+001 -1.649026e+002 -5.210646e+001 -1.564580e+002 -1.875658e+000 1.476498e+002
24545568750 -7.079195e+000 -7.897157e+001 -5.466613e+001 -1.641400e+002 -5.208091e+001 -1.566599e+002 -1.875768e+000 1.471181e+002
24564312500 -7.063354e+000 -8.008310e+001 -5.477380e+001 -1.625369e+002 -5.206863e+001 -1.575679e+002 -1.874204e+000 1.466165e+002
24583056250 -7.049622e+000 -8.119173e+001 -5.522289e+001 -1.558416e+002 -5.231412e+001 -1.591866e+002 -1.878096e+000 1.461422e+002
24601800000 -7.034646e+000 -8.226720e+001 -5.487171e+001 -1.571506e+002 -5.232290e+001 -1.583234e+002 -1.876882e+000 1.455981e+002
24620543750 -7.022648e+000 -8.342191e+001 -5.483213e+001 -1.560946e+002 -5.245315e+001 -1.571129e+002 -1.876102e+000 1.451157e+002
24639287500 -7.005196e+000 -8.454262e+001 -5.474958e+001 -1.585022e+002 -5.239286e+001 -1.498584e+002 -1.879689e+000 1.446446e+002
24658031250 -6.990378e+000 -8.565720e+001 -5.491589e+001 -1.576641e+002 -5.267678e+001 -1.491110e+002 -1.881631e+000 1.440827e+002
24676775000 -6.975248e+000 -8.678994e+001 -5.435921e+001 -1.561474e+002 -5.276431e+001 -1.508092e+002 -1.877163e+000 1.435984e+002
24695518750 -6.957819e+000 -8.787122e+001 -5.452588e+001 -1.582873e+002 -5.321475e+001 -1.534599e+002 -1.883262e+000 1.431114e+002
24714262500 -6.947178e+000 -8.896094e+001 -5.462753e+001 -1.548503e+002 -5.366864e+001 -1.541043e+002 -1.882703e+000 1.425737e+002
24733006250 -6.928768e+000 -9.008327e+001 -5.474048e+001 -1.534347e+002 -5.382102e+001 -1.533038e+002 -1.877184e+000 1.421028e+002
24751750000 -6.912518e+000 -9.117014e+001 -5.464838e+001 -1.541496e+002 -5.420152e+001 -1.527527e+002 -1.879415e+000 1.416412e+002
24770493750 -6.895733e+000 -9.226542e+001 -5.478331e+001 -1.561005e+002 -5.406600e+001 -1.494706e+002 -1.877418e+000 1.411101e+002
24789237500 -6.878036e+000 -9.334085e+001 -5.485197e+001 -1.530186e+002 -5.372566e+001 -1.484254e+002 -1.875638e+000 1.406721e+002
24807981250 -6.855134e+000 -9.442178e+001 -5.500505e+001 -1.469003e+002 -5.376779e+001 -1.476083e+002 -1.885458e+000 1.401892e+002
24826725000 -6.837444e+000 -9.550225e+001 -5.520818e+001 -1.507362e+002 -5.368239e+001 -1.454733e+002 -1.884629e+000 1.396438e+002
24845468750 -6.821473e+000 -9.661841e+001 -5.502491e+001 -1.485184e+002 -5.368254e+001 -1.429924e+002 -1.882532e+000 1.391805e+002
24864212500 -6.794674e+000 -9.773218e+001 -5.527009e+001 -1.499571e+002 -5.341999e+001 -1.447785e+002 -1.886278e+000 1.386812e+002
24882956250 -6.777934e+000 -9.879518e+001 -5.484787e+001 -1.470393e+002 -5.337515e+001 -1.445672e+002 -1.880883e+000 1.381593e+002
24901700000 -6.760321e+000 -9.987971e+001 -5.450347e+001 -1.487304e+002 -5.351723e+001 -1.480196e+002 -1.876870e+000 1.376962e+002
24920443750 -6.743614e+000 -1.009379e+002 -5.422275e+001 -1.457362e+002 -5.373413e+001 -1.468626e+002 -1.879777e+000 1.371963e+002
24939187500 -6.726388e+000 -1.020304e+002 -5.437703e+001 -1.438145e+002 -5.339110e+001 -1.492439e+002 -1.870065e+000 1.366754e+002
24957931250 -6.709067e+000 -1.031334e+002 -5.433031e+001 -1.424045e+002 -5.328778e+001 -1.480443e+002 -1.864014e+000 1.361805e+002
24976675000 -6.684027e+000 -1.041913e+002 -5.465174e+001 -1.433066e+002 -5.326128e+001 -1.478445e+002 -1.867383e+000 1.356565e+002
24995418750 -6.661303e+000 -1.052671e+002 -5.460293e+001 -1.462647e+002 -5.319841e+001 -1.462763e+002 -1.859326e+000 1.351105e+002
25014162500 -6.636364e+000 -1.063030e+002 -5.372197e+001 -1.533500e+002 -5.296278e+001 -1.428886e+002 -1.860504e+000 1.346004e+002
25032906250 -6.617388e+000 -1.073605e+002 -5.363372e+001 -1.530769e+002 -5.301334e+001 -1.424151e+002 -1.862536e+000 1.340378e+002
25051650000 -6.598542e+000 -1.083963e+002 -5.352966e+001 -1.487248e+002 -5.279524e+001 -1.458933e+002 -1.847401e+000 1.334720e+002
25070393750 -6.575388e+000 -1.094588e+002 -5.340136e+001 -1.499097e+002 -5.264524e+001 -1.459085e+002 -1.847957e+000 1.329809e+002
25089137500 -6.555714e+000 -1.105116e+002 -5.308804e+001 -1.503991e+002 -5.230867e+001 -1.437767e+002 -1.847828e+000 1.324608e+002
25107881250 -6.533602e+000 -1.115166e+002 -5.321727e+001 -1.506164e+002 -5.280829e+001 -1.379478e+002 -1.842201e+000 1.319503e+002
25126625000 -6.510807e+000 -1.125411e+002 -5.274537e+001 -1.490891e+002 -5.251006e+001 -1.347908e+002 -1.842893e+000 1.314481e+002
25145368750 -6.490599e+000 -1.135635e+002 -5.239041e+001 -1.499321e+002 -5.208178e+001 -1.337402e+002 -1.847389e+000 1.308633e+002
25164112500 -6.473031e+000 -1.146132e+002 -5.171786e+001 -1.507430e+002 -5.181307e+001 -1.376662e+002 -1.843306e+000 1.303111e+002
25182856250 -6.450926e+000 -1.156433e+002 -5.160057e+001 -1.524578e+002 -5.149957e+001 -1.365772e+002 -1.847296e+000 1.297757e+002
25201600000 -6.424393e+000 -1.166723e+002 -5.145547e+001 -1.478478e+002 -5.153006e+001 -1.367245e+002 -1.849262e+000 1.292072e+002
25220343750 -6.401197e+000 -1.176776e+002 -5.152419e+001 -1.505387e+002 -5.163087e+001 -1.381217e+002 -1.847503e+000 1.286700e+002
25239087500 -6.381127e+000 -1.186769e+002 -5.118671e+001 -1.523490e+002 -5.149614e+001 -1.405491e+002 -1.851878e+000 1.281747e+002
25257831250 -6.362812e+000 -1.196818e+002 -5.088214e+001 -1.508040e+002 -5.130089e+001 -1.416819e+002 -1.861988e+000 1.276351e+002
25276575000 -6.342642e+000 -1.207124e+002 -5.079375e+001 -1.563195e+002 -5.110607e+001 -1.433279e+002 -1.858002e+000 1.271049e+002
25295318750 -6.320283e+000 -1.217318e+002 -5.031788e+001 -1.566323e+002 -5.065984e+001 -1.452273e+002 -1.863191e+000 1.265921e+002
25314062500 -6.294875e+000 -1.227315e+002 -5.029631e+001 -1.575625e+002 -5.069500e+001 -1.477129e+002 -1.867443e+000 1.260541e+002
25332806250 -6.269590e+000 -1.237084e+002 -5.012856e+001 -1.585165e+002 -5.052248e+001 -1.478482e+002 -1.869987e+000 1.255874e+002
25351550000 -6.247487e+000 -1.246809e+002 -4.997770e+001 -1.596971e+002 -5.031171e+001 -1.502648e+002 -1.884051e+000 1.251057e+002
25370293750 -6.230381e+000 -1.256181e+002 -4.989211e+001 -1.625763e+002 -5.008677e+001 -1.533077e+002 -1.896268e+000 1.245765e+002
25389037500 -6.209841e+000 -1.265719e+002 -4.969666e+001 -1.612857e+002 -4.994256e+001 -1.575161e+002 -1.907257e+000 1.240605e+002
25407781250 -6.191205e+000 -1.275395e+002 -4.935632e+001 -1.637012e+002 -4.979956e+001 -1.626214e+002 -1.912371e+000 1.236242e+002
25426525000 -6.169037e+000 -1.284946e+002 -4.952646e+001 -1.657791e+002 -4.989785e+001 -1.661295e+002 -1.931964e+000 1.231499e+002
25445268750 -6.146023e+000 -1.294695e+002 -4.955939e+001 -1.676001e+002 -4.980239e+001 -1.717576e+002 -1.935083e+000 1.227095e+002
25464012500 -6.125356e+000 -1.303791e+002 -4.963367e+001 -1.701489e+002 -4.964749e+001 -1.749619e+002 -1.952409e+000 1.223286e+002
25482756250 -6.107510e+000 -1.313858e+002 -4.960991e+001 -1.775885e+002 -4.979437e+001 -1.741210e+002 -1.982090e+000 1.218973e+002
25501500000 -6.085032e+000 -1.323365e+002 -4.975045e+001 -1.765743e+002 -4.954369e+001 -1.793857e+002 -1.985767e+000 1.213623e+002
25520243750 -6.063512e+000 -1.332635e+002 -4.953146e+001 -1.755899e+002 -4.980313e+001 -1.787617e+002 -1.993227e+000 1.209789e+002
25538987500 -6.037330e+000 -1.342590e+002 -4.961805e+001 -1.774982e+002 -4.940580e+001 1.755619e+002 -2.013633e+000 1.205278e+002
25557731250 -6.012379e+000 -1.351672e+002 -4.960435e+001 -1.704135e+002 -4.969132e+001 1.719023e+002 -2.018757e+000 1.200628e+002
25576475000 -5.998129e+000 -1.360881e+002 -5.035695e+001 -1.584338e+002 -4.989200e+001 1.735264e+002 -2.030658e+000 1.197270e+002
25595218750 -5.978862e+000 -1.370564e+002 -5.059264e+001 -1.484497e+002 -5.025607e+001 1.729290e+002 -2.056211e+000 1.192529e+002
25613962500 -5.956052e+000 -1.379834e+002 -5.088366e+001 -1.342282e+002 -5.020530e+001 1.717970e+002 -2.058078e+000 1.187822e+002
25632706250 -5.936385e+000 -1.389338e+002 -5.103344e+001 -1.275253e+002 -5.046095e+001 1.731297e+002 -2.072221e+000 1.184192e+002
25651450000 -5.903994e+000 -1.398777e+002 -5.124020e+001 -1.265867e+002 -5.057006e+001 1.693842e+002 -2.089799e+000 1.179605e+002
25670193750 -5.881048e+000 -1.407301e+002 -5.121011e+001 -1.299702e+002 -5.072495e+001 1.637682e+002 -2.094184e+000 1.175059e+002
25688937500 -5.867579e+000 -1.416388e+002 -5.131758e+001 -1.319750e+002 -5.116374e+001 1.607677e+002 -2.108211e+000 1.171436e+002
25707681250 -5.845407e+000 -1.425909e+002 -5.245192e+001 -1.370812e+002 -5.156798e+001 1.563932e+002 -2.125718e+000 1.166728e+002
25726425000 -5.826925e+000 -1.434975e+002 -5.302486e+001 -1.506994e+002 -5.222058e+001 1.547242e+002 -2.136606e+000 1.162475e+002
25745168750 -5.807194e+000 -1.444473e+002 -5.321141e+001 -1.727380e+002 -5.231129e+001 1.592949e+002 -2.154234e+000 1.158744e+002
25763912500 -5.775317e+000 -1.453518e+002 -5.399026e+001 1.593725e+002 -5.247877e+001 1.591222e+002 -2.173388e+000 1.153785e+002
25782656250 -5.750827e+000 -1.461934e+002 -5.423175e+001 1.272595e+002 -5.320306e+001 1.564729e+002 -2.178277e+000 1.149592e+002
25801400000 -5.737702e+000 -1.470897e+002 -5.398911e+001 9.392104e+001 -5.330237e+001 1.589367e+002 -2.197764e+000 1.145819e+002
25820143750 -5.714700e+000 -1.479976e+002 -5.431342e+001 5.933950e+001 -5.405001e+001 1.605358e+002 -2.213881e+000 1.141398e+002
25838887500 -5.691524e+000 -1.489051e+002 -5.445042e+001 2.511798e+001 -5.412804e+001 1.593402e+002 -2.226183e+000 1.136848e+002
25857631250 -5.673397e+000 -1.498558e+002 -5.478550e+001 -7.577083e+000 -5.401579e+001 1.637830e+002 -2.233930e+000 1.132640e+002
25876375000 -5.649076e+000 -1.507043e+002 -5.637238e+001 -3.614631e+001 -5.407147e+001 1.635015e+002 -2.252792e+000 1.128251e+002
25895118750 -5.630564e+000 -1.515300e+002 -5.661605e+001 -6.445490e+001 -5.472002e+001 1.608832e+002 -2.259947e+000 1.123877e+002
25913862500 -5.618889e+000 -1.523747e+002 -5.710206e+001 -8.839062e+001 -5.464984e+001 1.539627e+002 -2.269730e+000 1.119750e+002
25932606250 -5.597449e+000 -1.532739e+002 -5.736898e+001 -1.206317e+002 -5.475591e+001 1.564196e+002 -2.291005e+000 1.115720e+002
25951350000 -5.579834e+000 -1.541465e+002 -5.732274e+001 -1.555833e+002 -5.450631e+001 1.571718e+002 -2.308872e+000 1.110844e+002
25970093750 -5.560325e+000 -1.550330e+002 -5.738282e+001 1.738243e+002 -5.464613e+001 1.606633e+002 -2.319731e+000 1.106695e+002
25988837500 -5.533998e+000 -1.558999e+002 -5.791914e+001 1.414855e+002 -5.486305e+001 1.598591e+002 -2.336675e+000 1.102606e+002
26007581250 -5.509122e+000 -1.567123e+002 -5.778349e+001 9.963927e+001 -5.484459e+001 1.561203e+002 -2.353076e+000 1.097814e+002
26026325000 -5.493608e+000 -1.575607e+002 -5.796817e+001 5.822985e+001 -5.474309e+001 1.535039e+002 -2.360156e+000 1.093663e+002
26045068750 -5.472737e+000 -1.584164e+002 -5.806076e+001 7.794890e+000 -5.483089e+001 1.529762e+002 -2.387385e+000 1.089484e+002
26063812500 -5.456285e+000 -1.592620e+002 -5.800255e+001 -3.376564e+001 -5.507383e+001 1.530406e+002 -2.401360e+000 1.084697e+002
26082556250 -5.440287e+000 -1.601374e+002 -5.791476e+001 -6.563384e+001 -5.518161e+001 1.611517e+002 -2.413367e+000 1.080694e+002
26101300000 -5.415143e+000 -1.609440e+002 -5.801443e+001 -9.198619e+001 -5.482486e+001 1.681236e+002 -2.438028e+000 1.076404e+002
26120043750 -5.394578e+000 -1.617352e+002 -5.797396e+001 -1.196851e+002 -5.432259e+001 1.735729e+002 -2.451298e+000 1.071899e+002
26138787500 -5.377000e+000 -1.625269e+002 -5.715343e+001 -1.418187e+002 -5.396622e+001 1.795146e+002 -2.469593e+000 1.067812e+002
26157531250 -5.355990e+000 -1.633507e+002 -5.692757e+001 -1.597965e+002 -5.382892e+001 -1.677506e+002 -2.491619e+000 1.063366e+002
26176275000 -5.339365e+000 -1.641645e+002 -5.698142e+001 -1.694369e+002 -5.364126e+001 -1.548914e+002 -2.507622e+000 1.058517e+002
26195018750 -5.321388e+000 -1.650066e+002 -5.675462e+001 -1.765127e+002 -5.382550e+001 -1.305373e+002 -2.523744e+000 1.054603e+002
26213762500 -5.297822e+000 -1.658164e+002 -5.668344e+001 -1.736595e+002 -5.326105e+001 -1.118373e+002 -2.549234e+000 1.050263e+002
26232506250 -5.280777e+000 -1.666028e+002 -5.677911e+001 -1.724132e+002 -5.351490e+001 -9.855685e+001 -2.563849e+000 1.045541e+002
26251250000 -5.264512e+000 -1.674451e+002 -5.656830e+001 -1.706085e+002 -5.307553e+001 -8.099411e+001 -2.580083e+000 1.041348e+002
26269993750 -5.247894e+000 -1.682529e+002 -5.677465e+001 -1.624082e+002 -5.315300e+001 -6.068772e+001 -2.598943e+000 1.036676e+002
26288737500 -5.229267e+000 -1.690371e+002 -5.666690e+001 -1.496502e+002 -5.343159e+001 -4.494445e+001 -2.612676e+000 1.032357e+002
26307481250 -5.205520e+000 -1.698613e+002 -5.550728e+001 -1.352125e+002 -5.390464e+001 -3.114866e+001 -2.629591e+000 1.027991e+002
26326225000 -5.180269e+000 -1.706287e+002 -5.566352e+001 -1.228417e+002 -5.365006e+001 -1.907600e+001 -2.654626e+000 1.023111e+002
26344968750 -5.160423e+000 -1.713661e+002 -5.566221e+001 -1.107587e+002 -5.480707e+001 -1.259500e+000 -2.671349e+000 1.018170e+002
26363712500 -5.143031e+000 -1.721646e+002 -5.574225e+001 -1.006676e+002 -5.479975e+001 1.924989e+001 -2.690020e+000 1.013603e+002
26382456250 -5.122729e+000 -1.729423e+002 -5.633742e+001 -8.341703e+001 -5.512662e+001 3.391184e+001 -2.713189e+000 1.008826e+002
26401200000 -5.105814e+000 -1.737148e+002 -5.622393e+001 -7.004316e+001 -5.500414e+001 4.693913e+001 -2.725415e+000 1.003999e+002
26419943750 -5.079867e+000 -1.745168e+002 -5.569246e+001 -6.190304e+001 -5.434233e+001 6.639362e+001 -2.750645e+000 9.995559e+001
26438687500 -5.062881e+000 -1.752250e+002 -5.536430e+001 -4.522659e+001 -5.422151e+001 8.426244e+001 -2.776306e+000 9.950568e+001
26457431250 -5.049863e+000 -1.759477e+002 -5.500087e+001 -3.128923e+001 -5.403878e+001 1.028223e+002 -2.799037e+000 9.903059e+001
26476175000 -5.035473e+000 -1.767339e+002 -5.506915e+001 -1.285201e+001 -5.386909e+001 1.176399e+002 -2.823210e+000 9.856023e+001
26494918750 -5.019429e+000 -1.774879e+002 -5.526857e+001 2.113274e+000 -5.352312e+001 1.316987e+002 -2.847507e+000 9.804308e+001
26513662500 -5.002987e+000 -1.782623e+002 -5.561586e+001 1.501256e+001 -5.339249e+001 1.412647e+002 -2.866074e+000 9.753128e+001
26532406250 -4.980798e+000 -1.790464e+002 -5.607189e+001 3.100452e+001 -5.489389e+001 1.542325e+002 -2.880934e+000 9.708601e+001
26551150000 -4.965354e+000 -1.797277e+002 -5.612819e+001 4.288279e+001 -5.497517e+001 1.674918e+002 -2.901610e+000 9.658823e+001
26569893750 -4.954525e+000 1.795040e+002 -5.619421e+001 5.169674e+001 -5.544779e+001 -1.765560e+002 -2.921870e+000 9.612304e+001
26588637500 -4.937799e+000 1.787472e+002 -5.606392e+001 6.864697e+001 -5.519965e+001 -1.722577e+002 -2.942852e+000 9.566205e+001
26607381250 -4.921779e+000 1.780275e+002 -5.627443e+001 8.416238e+001 -5.499148e+001 -1.729959e+002 -2.965618e+000 9.513682e+001
26626125000 -4.904697e+000 1.772482e+002 -5.631363e+001 9.902915e+001 -5.467900e+001 1.766001e+002 -2.982878e+000 9.460883e+001
26644868750 -4.885616e+000 1.765175e+002 -5.660146e+001 1.138100e+002 -5.496571e+001 1.728871e+002 -3.002890e+000 9.411959e+001
26663612500 -4.864576e+000 1.758274e+002 -5.669675e+001 1.262187e+002 -5.475121e+001 1.784388e+002 -3.023136e+000 9.359927e+001
26682356250 -4.854107e+000 1.751072e+002 -5.678703e+001 1.433667e+002 -5.455646e+001 1.767865e+002 -3.041228e+000 9.309799e+001
26701100000 -4.837084e+000 1.743824e+002 -5.666689e+001 1.522674e+002 -5.451619e+001 1.711124e+002 -3.071312e+000 9.263003e+001
26719843750 -4.826361e+000 1.736662e+002 -5.622849e+001 1.584477e+002 -5.442946e+001 1.689861e+002 -3.096149e+000 9.205942e+001
26738587500 -4.809978e+000 1.729037e+002 -5.587324e+001 1.604605e+002 -5.425856e+001 1.715827e+002 -3.112818e+000 9.155981e+001
26757331250 -4.788167e+000 1.721930e+002 -5.584663e+001 1.595462e+002 -5.410132e+001 1.792387e+002 -3.131259e+000 9.106133e+001
26776075000 -4.773622e+000 1.715147e+002 -5.531730e+001 1.560999e+002 -5.276966e+001 -1.753140e+002 -3.150729e+000 9.055857e+001
26794818750 -4.766022e+000 1.708104e+002 -5.497267e+001 1.633673e+002 -5.288595e+001 1.794714e+002 -3.167966e+000 9.007917e+001
26813562500 -4.749328e+000 1.700857e+002 -5.468200e+001 1.591690e+002 -5.254701e+001 1.776800e+002 -3.188021e+000 8.957701e+001
26832306250 -4.737111e+000 1.693785e+002 -5.468827e+001 1.612533e+002 -5.266417e+001 1.704698e+002 -3.207538e+000 8.903741e+001
26851050000 -4.723475e+000 1.686689e+002 -5.486564e+001 1.611748e+002 -5.289572e+001 1.559537e+002 -3.221815e+000 8.855423e+001
26869793750 -4.698648e+000 1.679751e+002 -5.463859e+001 1.537342e+002 -5.288187e+001 1.495197e+002 -3.239003e+000 8.802785e+001
26888537500 -4.689340e+000 1.673114e+002 -5.467527e+001 1.445915e+002 -5.286222e+001 1.487143e+002 -3.254895e+000 8.752607e+001
26907281250 -4.676874e+000 1.666231e+002 -5.434581e+001 1.406220e+002 -5.324796e+001 1.493895e+002 -3.265759e+000 8.705790e+001
26926025000 -4.659788e+000 1.659697e+002 -5.412951e+001 1.439916e+002 -5.349294e+001 1.484705e+002 -3.285699e+000 8.655456e+001
26944768750 -4.651157e+000 1.653038e+002 -5.368607e+001 1.416245e+002 -5.358189e+001 1.521357e+002 -3.299123e+000 8.603856e+001
26963512500 -4.631898e+000 1.645932e+002 -5.349251e+001 1.373108e+002 -5.227890e+001 1.543961e+002 -3.317939e+000 8.550896e+001
26982256250 -4.609488e+000 1.639464e+002 -5.387949e+001 1.360333e+002 -5.215148e+001 1.532842e+002 -3.338788e+000 8.497725e+001
27001000000 -4.598870e+000 1.633361e+002 -5.373820e+001 1.376722e+002 -5.176364e+001 1.490182e+002 -3.356673e+000 8.441756e+001
27019743750 -4.584922e+000 1.626644e+002 -5.401872e+001 1.360099e+002 -5.189980e+001 1.494020e+002 -3.372191e+000 8.387662e+001
27038487500 -4.570055e+000 1.620022e+002 -5.438219e+001 1.388907e+002 -5.221597e+001 1.456539e+002 -3.390087e+000 8.337919e+001
27057231250 -4.562034e+000 1.613388e+002 -5.423845e+001 1.411278e+002 -5.220299e+001 1.490233e+002 -3.401050e+000 8.284644e+001
27075975000 -4.538384e+000 1.606849e+002 -5.400177e+001 1.367247e+002 -5.185234e+001 1.508615e+002 -3.413763e+000 8.235369e+001
27094718750 -4.522278e+000 1.600890e+002 -5.462132e+001 1.407737e+002 -5.181227e+001 1.463976e+002 -3.432000e+000 8.183538e+001
27113462500 -4.511454e+000 1.594751e+002 -5.464330e+001 1.370859e+002 -5.189808e+001 1.474552e+002 -3.447901e+000 8.133473e+001
27132206250 -4.498130e+000 1.588181e+002 -5.491403e+001 1.363742e+002 -5.221162e+001 1.569986e+002 -3.463009e+000 8.079195e+001
27150950000 -4.483118e+000 1.581875e+002 -5.549207e+001 1.334070e+002 -5.202329e+001 1.677832e+002 -3.481702e+000 8.026106e+001
27169693750 -4.470729e+000 1.575344e+002 -5.560440e+001 1.309279e+002 -5.224215e+001 -1.775889e+002 -3.496805e+000 7.973138e+001
27188437500 -4.451820e+000 1.568573e+002 -5.518888e+001 1.323996e+002 -5.248041e+001 -1.610633e+002 -3.513235e+000 7.925427e+001
27207181250 -4.432794e+000 1.562860e+002 -5.521804e+001 1.356616e+002 -5.302942e+001 -1.451253e+002 -3.526172e+000 7.871468e+001
27225925000 -4.423819e+000 1.556621e+002 -5.518992e+001 1.331821e+002 -5.340936e+001 -1.310349e+002 -3.538909e+000 7.818726e+001
27244668750 -4.409409e+000 1.550387e+002 -5.521873e+001 1.357020e+002 -5.329063e+001 -1.132624e+002 -3.555452e+000 7.765839e+001
27263412500 -4.397272e+000 1.544274e+002 -5.528258e+001 1.320104e+002 -5.305771e+001 -9.201304e+001 -3.573893e+000 7.715460e+001
27282156250 -4.387474e+000 1.537546e+002 -5.478354e+001 1.340345e+002 -5.299047e+001 -6.771329e+001 -3.583453e+000 7.662138e+001
27300900000 -4.367049e+000 1.531066e+002 -5.551970e+001 1.340683e+002 -5.301984e+001 -4.875554e+001 -3.599234e+000 7.612714e+001
27319643750 -4.346954e+000 1.525397e+002 -5.551662e+001 1.416912e+002 -5.347531e+001 -3.216938e+001 -3.612274e+000 7.560428e+001
27338387500 -4.336681e+000 1.518990e+002 -5.589932e+001 1.444487e+002 -5.290842e+001 -1.921239e+001 -3.623995e+000 7.510296e+001
27357131250 -4.324224e+000 1.512550e+002 -5.580859e+001 1.398913e+002 -5.261828e+001 -3.393469e+000 -3.635509e+000 7.460189e+001
27375875000 -4.312957e+000 1.506245e+002 -5.579609e+001 1.408753e+002 -5.227733e+001 6.765217e+000 -3.648086e+000 7.407397e+001
27394618750 -4.306722e+000 1.499452e+002 -5.580563e+001 1.364494e+002 -5.256904e+001 1.818941e+001 -3.659714e+000 7.360620e+001
27413362500 -4.282117e+000 1.493074e+002 -5.582079e+001 1.371106e+002 -5.273223e+001 3.300418e+001 -3.676865e+000 7.314346e+001
27432106250 -4.271010e+000 1.487640e+002 -5.588606e+001 1.382865e+002 -5.243529e+001 4.600151e+001 -3.684659e+000 7.265117e+001
27450850000 -4.265639e+000 1.481410e+002 -5.587913e+001 1.340878e+002 -5.298236e+001 6.257855e+001 -3.696766e+000 7.217904e+001
27469593750 -4.249375e+000 1.475185e+002 -5.512346e+001 1.279752e+002 -5.301133e+001 8.091903e+001 -3.714546e+000 7.166280e+001
27488337500 -4.241121e+000 1.468838e+002 -5.492270e+001 1.283099e+002 -5.298226e+001 9.062662e+001 -3.726548e+000 7.114787e+001
27507081250 -4.230781e+000 1.462038e+002 -5.545823e+001 1.284445e+002 -5.296429e+001 1.013001e+002 -3.738352e+000 7.067950e+001
27525825000 -4.210699e+000 1.455972e+002 -5.504348e+001 1.251365e+002 -5.324932e+001 1.114844e+002 -3.746889e+000 7.021127e+001
27544568750 -4.204621e+000 1.450611e+002 -5.459756e+001 1.239347e+002 -5.320164e+001 1.220423e+002 -3.753567e+000 6.970176e+001
27563312500 -4.195609e+000 1.444374e+002 -5.416611e+001 1.226708e+002 -5.323895e+001 1.261216e+002 -3.757202e+000 6.927029e+001
27582056250 -4.180982e+000 1.438508e+002 -5.381687e+001 1.263721e+002 -5.347130e+001 1.271779e+002 -3.765230e+000 6.883334e+001
27600800000 -4.178390e+000 1.432406e+002 -5.359892e+001 1.228973e+002 -5.296161e+001 1.261083e+002 -3.771260e+000 6.834582e+001
27619543750 -4.165346e+000 1.426017e+002 -5.349648e+001 1.218667e+002 -5.291637e+001 1.237610e+002 -3.774734e+000 6.786169e+001
27638287500 -4.141001e+000 1.420223e+002 -5.345356e+001 1.150234e+002 -5.262675e+001 1.190464e+002 -3.783182e+000 6.739459e+001
27657031250 -4.135165e+000 1.414758e+002 -5.331536e+001 1.146800e+002 -5.195628e+001 1.191133e+002 -3.785060e+000 6.692737e+001
27675775000 -4.124938e+000 1.408575e+002 -5.300917e+001 1.137852e+002 -5.201068e+001 1.130891e+002 -3.784725e+000 6.651406e+001
27694518750 -4.113725e+000 1.402830e+002 -5.283270e+001 1.119975e+002 -5.195219e+001 1.104126e+002 -3.787472e+000 6.603080e+001
27713262500 -4.111980e+000 1.396776e+002 -5.301978e+001 1.052197e+002 -5.170445e+001 1.133204e+002 -3.791765e+000 6.556224e+001
27732006250 -4.100375e+000 1.390169e+002 -5.243290e+001 1.059578e+002 -5.168241e+001 1.111732e+002 -3.790630e+000 6.511690e+001
27750750000 -4.083514e+000 1.384629e+002 -5.267522e+001 1.034250e+002 -5.122412e+001 1.072703e+002 -3.797630e+000 6.466063e+001
27769493750 -4.083978e+000 1.379078e+002 -5.218578e+001 1.013665e+002 -5.158210e+001 1.077883e+002 -3.798812e+000 6.415092e+001
27788237500 -4.070868e+000 1.373151e+002 -5.256769e+001 1.028210e+002 -5.223346e+001 1.007773e+002 -3.805302e+000 6.371368e+001
27806981250 -4.057811e+000 1.367581e+002 -5.263426e+001 1.002676e+002 -5.230696e+001 1.001178e+002 -3.812280e+000 6.321772e+001
27825725000 -4.053838e+000 1.361396e+002 -5.254008e+001 1.012371e+002 -5.226469e+001 9.730280e+001 -3.814392e+000 6.272330e+001
27844468750 -4.037462e+000 1.355088e+002 -5.208953e+001 9.736079e+001 -5.304162e+001 9.379500e+001 -3.813391e+000 6.221441e+001
27863212500 -4.020749e+000 1.349625e+002 -5.179211e+001 9.400824e+001 -5.339737e+001 9.244969e+001 -3.815269e+000 6.173105e+001
27881956250 -4.019839e+000 1.343996e+002 -5.171876e+001 8.977447e+001 -5.258144e+001 8.536909e+001 -3.812205e+000 6.123564e+001
27900700000 -4.009492e+000 1.337815e+002 -5.207083e+001 8.701778e+001 -5.298477e+001 8.144432e+001 -3.807205e+000 6.079697e+001
27919443750 -4.005612e+000 1.332554e+002 -5.248516e+001 8.013851e+001 -5.283418e+001 7.780580e+001 -3.815543e+000 6.034944e+001
27938187500 -4.003213e+000 1.326346e+002 -5.215314e+001 7.642590e+001 -5.269897e+001 7.842911e+001 -3.814826e+000 5.981558e+001
27956931250 -3.982839e+000 1.320132e+002 -5.220187e+001 7.435354e+001 -5.264260e+001 7.911738e+001 -3.818994e+000 5.931843e+001
27975675000 -3.965915e+000 1.314841e+002 -5.250194e+001 7.154931e+001 -5.285761e+001 7.995318e+001 -3.823729e+000 5.882978e+001
27994418750 -3.965367e+000 1.309272e+002 -5.276609e+001 6.414697e+001 -5.285438e+001 7.926987e+001 -3.824584e+000 5.829416e+001
28013162500 -3.955126e+000 1.303423e+002 -5.246648e+001 5.846475e+001 -5.303315e+001 7.719585e+001 -3.827630e+000 5.780656e+001
28031906250 -3.951565e+000 1.297935e+002 -5.272831e+001 5.563260e+001 -5.356788e+001 7.439533e+001 -3.833466e+000 5.734800e+001
28050650000 -3.947971e+000 1.291468e+002 -5.284944e+001 5.204007e+001 -5.342918e+001 6.329993e+001 -3.843280e+000 5.685175e+001
28069393750 -3.937054e+000 1.284960e+002 -5.338079e+001 5.109957e+001 -5.320193e+001 5.728536e+001 -3.852646e+000 5.633744e+001
28088137500 -3.924319e+000 1.279844e+002 -5.365330e+001 4.896666e+001 -5.310789e+001 5.188266e+001 -3.866274e+000 5.579836e+001
28106881250 -3.926371e+000 1.274046e+002 -5.425074e+001 4.694742e+001 -5.323634e+001 4.812418e+001 -3.876035e+000 5.524296e+001
28125625000 -3.913885e+000 1.268417e+002 -5.462268e+001 4.073000e+001 -5.344278e+001 4.378379e+001 -3.883838e+000 5.476170e+001
28144368750 -3.911799e+000 1.262927e+002 -5.445766e+001 4.038359e+001 -5.360406e+001 4.079667e+001 -3.895363e+000 5.421852e+001
28163112500 -3.906280e+000 1.256701e+002 -5.441345e+001 3.707457e+001 -5.360572e+001 3.712141e+001 -3.911091e+000 5.368430e+001
28181856250 -3.887988e+000 1.250912e+002 -5.427081e+001 3.443998e+001 -5.396153e+001 3.408474e+001 -3.924711e+000 5.313513e+001
28200600000 -3.876027e+000 1.246305e+002 -5.441904e+001 3.387928e+001 -5.379538e+001 2.986629e+001 -3.941120e+000 5.259786e+001
28219343750 -3.873506e+000 1.240350e+002 -5.414977e+001 2.978864e+001 -5.410735e+001 3.638964e+001 -3.949574e+000 5.203874e+001
28238087500 -3.865639e+000 1.234923e+002 -5.422702e+001 2.841882e+001 -5.425528e+001 3.432174e+001 -3.959225e+000 5.154495e+001
28256831250 -3.864495e+000 1.229685e+002 -5.418792e+001 2.542215e+001 -5.392638e+001 3.468903e+001 -3.975849e+000 5.101472e+001
28275575000 -3.864076e+000 1.223518e+002 -5.439714e+001 2.145074e+001 -5.343713e+001 3.253317e+001 -3.991974e+000 5.046587e+001
28294318750 -3.845751e+000 1.218104e+002 -5.453490e+001 1.809621e+001 -5.363488e+001 3.335284e+001 -4.013728e+000 4.992207e+001
28313062500 -3.837446e+000 1.213272e+002 -5.471261e+001 1.942493e+001 -5.386894e+001 3.186196e+001 -4.034993e+000 4.935058e+001
28331806250 -3.837689e+000 1.208128e+002 -5.450124e+001 1.969934e+001 -5.348561e+001 2.979459e+001 -4.046559e+000 4.875058e+001
28350550000 -3.827617e+000 1.203115e+002 -5.435224e+001 2.045243e+001 -5.362869e+001 2.802057e+001 -4.062581e+000 4.820148e+001
28369293750 -3.831425e+000 1.197486e+002 -5.403771e+001 2.317833e+001 -5.420922e+001 2.223144e+001 -4.084852e+000 4.762878e+001
28388037500 -3.824814e+000 1.191327e+002 -5.364686e+001 2.019369e+001 -5.399363e+001 2.034639e+001 -4.111461e+000 4.704833e+001
28406781250 -3.810004e+000 1.186035e+002 -5.369028e+001 1.915195e+001 -5.359367e+001 1.720434e+001 -4.140463e+000 4.645143e+001
28425525000 -3.803102e+000 1.181207e+002 -5.346667e+001 2.301969e+001 -5.317487e+001 1.698170e+001 -4.165991e+000 4.582060e+001
28444268750 -3.798450e+000 1.176116e+002 -5.362971e+001 1.907782e+001 -5.282275e+001 1.444661e+001 -4.188269e+000 4.519376e+001
28463012500 -3.791213e+000 1.171325e+002 -5.352139e+001 1.891602e+001 -5.218250e+001 1.234666e+001 -4.214011e+000 4.459379e+001
28481756250 -3.796781e+000 1.166167e+002 -5.374826e+001 1.809705e+001 -5.215287e+001 1.596778e+001 -4.239943e+000 4.398774e+001
28500500000 -3.789996e+000 1.160594e+002 -5.309691e+001 1.756979e+001 -5.215496e+001 1.681370e+001 -4.268623e+000 4.341160e+001
28519243750 -3.779149e+000 1.155675e+002 -5.298220e+001 1.460756e+001 -5.266951e+001 1.757291e+001 -4.297867e+000 4.280053e+001
28537987500 -3.771196e+000 1.151110e+002 -5.254527e+001 1.066350e+001 -5.254306e+001 1.801333e+001 -4.329877e+000 4.215398e+001
28556731250 -3.767880e+000 1.145788e+002 -5.213180e+001 1.179169e+001 -5.241473e+001 1.914184e+001 -4.357247e+000 4.149551e+001
28575475000 -3.760962e+000 1.141332e+002 -5.228201e+001 1.037740e+001 -5.239967e+001 1.633532e+001 -4.390521e+000 4.087709e+001
28594218750 -3.763201e+000 1.136199e+002 -5.216327e+001 8.110166e+000 -5.242693e+001 1.601627e+001 -4.422649e+000 4.023989e+001
28612962500 -3.756343e+000 1.130370e+002 -5.220602e+001 7.721637e+000 -5.228357e+001 1.393255e+001 -4.451861e+000 3.961575e+001
28631706250 -3.743817e+000 1.125605e+002 -5.198687e+001 3.103857e+000 -5.220470e+001 1.247385e+001 -4.485671e+000 3.896583e+001
28650450000 -3.742731e+000 1.121010e+002 -5.181882e+001 -2.590711e-001 -5.119018e+001 5.217344e+000 -4.520264e+000 3.827149e+001
28669193750 -3.735090e+000 1.116108e+002 -5.159913e+001 -3.017973e+000 -5.100188e+001 1.373428e+000 -4.553690e+000 3.763880e+001
28687937500 -3.730556e+000 1.111702e+002 -5.137309e+001 -5.023057e+000 -5.110254e+001 2.755459e-002 -4.592423e+000 3.696441e+001
28706681250 -3.733185e+000 1.106553e+002 -5.102161e+001 -5.371718e+000 -5.100817e+001 -2.429201e+000 -4.632236e+000 3.629856e+001
28725425000 -3.725765e+000 1.101022e+002 -5.089661e+001 -5.014071e+000 -5.090011e+001 -5.266443e+000 -4.672187e+000 3.561538e+001
28744168750 -3.714274e+000 1.096154e+002 -5.046286e+001 -7.691679e+000 -5.054661e+001 -6.344517e+000 -4.717328e+000 3.492847e+001
28762912500 -3.708975e+000 1.091414e+002 -5.027411e+001 -1.312619e+001 -5.028062e+001 -9.928434e+000 -4.760901e+000 3.423744e+001
28781656250 -3.699414e+000 1.086648e+002 -4.995563e+001 -1.417642e+001 -5.046347e+001 -6.724918e+000 -4.796541e+000 3.355089e+001
28800400000 -3.695162e+000 1.082247e+002 -5.007775e+001 -1.834535e+001 -4.985958e+001 -4.745754e+000 -4.841811e+000 3.288273e+001
28819143750 -3.698920e+000 1.077147e+002 -5.012276e+001 -2.018994e+001 -4.994543e+001 -7.983218e+000 -4.883690e+000 3.218749e+001
28837887500 -3.690098e+000 1.071871e+002 -5.004974e+001 -2.314300e+001 -4.998816e+001 -1.056591e+001 -4.927080e+000 3.150328e+001
28856631250 -3.682850e+000 1.067080e+002 -4.997770e+001 -2.578690e+001 -5.004871e+001 -1.286288e+001 -4.979215e+000 3.076224e+001
28875375000 -3.678539e+000 1.062151e+002 -4.969693e+001 -2.682005e+001 -5.001351e+001 -1.376991e+001 -5.025793e+000 3.001966e+001
28894118750 -3.672608e+000 1.057546e+002 -4.957117e+001 -2.959945e+001 -5.024796e+001 -1.544705e+001 -5.071939e+000 2.927841e+001
28912862500 -3.668527e+000 1.052862e+002 -4.931199e+001 -3.214058e+001 -5.017490e+001 -1.520268e+001 -5.120836e+000 2.854645e+001
28931606250 -3.667401e+000 1.047724e+002 -4.941246e+001 -3.314398e+001 -5.016776e+001 -1.636910e+001 -5.169365e+000 2.778934e+001
28950350000 -3.656106e+000 1.042628e+002 -4.924130e+001 -3.502425e+001 -5.013614e+001 -1.959107e+001 -5.224016e+000 2.707591e+001
28969093750 -3.645737e+000 1.037925e+002 -4.905247e+001 -3.618863e+001 -5.027288e+001 -1.944538e+001 -5.277508e+000 2.631726e+001
28987837500 -3.634369e+000 1.033444e+002 -4.903635e+001 -3.598392e+001 -5.014392e+001 -2.211759e+001 -5.333272e+000 2.553254e+001
29006581250 -3.627627e+000 1.028761e+002 -4.916660e+001 -3.700792e+001 -5.002165e+001 -2.525471e+001 -5.388492e+000 2.476758e+001
29025325000 -3.625702e+000 1.024182e+002 -4.926445e+001 -3.732712e+001 -4.992308e+001 -2.656760e+001 -5.445397e+000 2.395182e+001
29044068750 -3.625932e+000 1.019064e+002 -4.957343e+001 -3.769554e+001 -4.973115e+001 -2.646456e+001 -5.503179e+000 2.313749e+001
29062812500 -3.615950e+000 1.013660e+002 -4.965234e+001 -3.945071e+001 -4.981232e+001 -2.924746e+001 -5.565888e+000 2.237259e+001
29081556250 -3.605703e+000 1.008763e+002 -4.955202e+001 -4.030284e+001 -4.978669e+001 -3.202052e+001 -5.628699e+000 2.154588e+001
29100300000 -3.599108e+000 1.003840e+002 -4.948359e+001 -4.176550e+001 -4.976900e+001 -3.242111e+001 -5.688447e+000 2.069131e+001
29119043750 -3.596475e+000 9.993039e+001 -4.940486e+001 -4.300347e+001 -4.962101e+001 -3.369773e+001 -5.745461e+000 1.990789e+001
29137787500 -3.596588e+000 9.942729e+001 -4.966356e+001 -4.096439e+001 -4.927706e+001 -3.375887e+001 -5.809330e+000 1.908379e+001
29156531250 -3.595120e+000 9.887431e+001 -4.958399e+001 -4.330025e+001 -4.919096e+001 -3.672416e+001 -5.869955e+000 1.826701e+001
29175275000 -3.584930e+000 9.834149e+001 -4.949686e+001 -4.226062e+001 -4.939948e+001 -3.922229e+001 -5.938317e+000 1.744402e+001
29194018750 -3.576782e+000 9.782839e+001 -4.947571e+001 -4.190186e+001 -4.957358e+001 -4.061728e+001 -6.010103e+000 1.654111e+001
29212762500 -3.570305e+000 9.732214e+001 -4.930737e+001 -4.252417e+001 -4.914519e+001 -4.413414e+001 -6.074834e+000 1.564001e+001
29231506250 -3.566500e+000 9.684595e+001 -4.899929e+001 -4.530521e+001 -4.915189e+001 -4.571979e+001 -6.142622e+000 1.479908e+001
29250250000 -3.570808e+000 9.633042e+001 -4.909982e+001 -4.862526e+001 -4.894311e+001 -4.659519e+001 -6.212059e+000 1.390193e+001
29268993750 -3.568587e+000 9.575588e+001 -4.905104e+001 -4.793377e+001 -4.901500e+001 -4.767370e+001 -6.281339e+000 1.302740e+001
29287737500 -3.562153e+000 9.522189e+001 -4.897451e+001 -4.806702e+001 -4.877066e+001 -4.766861e+001 -6.359507e+000 1.220532e+001
29306481250 -3.559354e+000 9.471121e+001 -4.902533e+001 -4.898413e+001 -4.866833e+001 -4.927291e+001 -6.438245e+000 1.130925e+001
29325225000 -3.552124e+000 9.420145e+001 -4.897506e+001 -4.975709e+001 -4.855698e+001 -5.043568e+001 -6.513051e+000 1.043525e+001
29343968750 -3.558654e+000 9.371980e+001 -4.889012e+001 -5.054455e+001 -4.828106e+001 -5.251630e+001 -6.594564e+000 9.562525e+000
29362712500 -3.565030e+000 9.318815e+001 -4.869540e+001 -5.345134e+001 -4.811959e+001 -5.528115e+001 -6.674564e+000 8.667521e+000
29381456250 -3.563636e+000 9.260600e+001 -4.856154e+001 -5.505735e+001 -4.753715e+001 -5.622398e+001 -6.753615e+000 7.797739e+000
29400200000 -3.566707e+000 9.205616e+001 -4.861659e+001 -5.597676e+001 -4.727320e+001 -5.888465e+001 -6.845982e+000 6.921174e+000
29418943750 -3.573433e+000 9.150255e+001 -4.849599e+001 -5.768916e+001 -4.729668e+001 -6.080046e+001 -6.933528e+000 6.033860e+000
29437687500 -3.576241e+000 9.099453e+001 -4.814532e+001 -5.940735e+001 -4.718367e+001 -6.049457e+001 -7.018813e+000 5.186738e+000
29456431250 -3.589001e+000 9.050343e+001 -4.780901e+001 -6.083503e+001 -4.709702e+001 -6.255696e+001 -7.116199e+000 4.332724e+000
29475175000 -3.599418e+000 8.996687e+001 -4.703694e+001 -6.399940e+001 -4.674991e+001 -6.476392e+001 -7.213887e+000 3.465961e+000
29493918750 -3.609956e+000 8.940516e+001 -4.684751e+001 -6.436243e+001 -4.649421e+001 -6.519487e+001 -7.314127e+000 2.590380e+000
29512662500 -3.619150e+000 8.889892e+001 -4.673192e+001 -6.658772e+001 -4.638390e+001 -6.467491e+001 -7.423405e+000 1.703956e+000
29531406250 -3.629041e+000 8.841449e+001 -4.658086e+001 -6.689271e+001 -4.620965e+001 -6.636610e+001 -7.525546e+000 8.511913e-001
29550150000 -3.638877e+000 8.794277e+001 -4.665757e+001 -6.835345e+001 -4.625914e+001 -6.920231e+001 -7.636401e+000 1.589582e-002
29568893750 -3.658643e+000 8.749388e+001 -4.619023e+001 -7.227459e+001 -4.620560e+001 -7.173370e+001 -7.754947e+000 -7.933782e-001
29587637500 -3.674047e+000 8.699575e+001 -4.595549e+001 -7.329005e+001 -4.572453e+001 -7.462273e+001 -7.873315e+000 -1.590049e+000
29606381250 -3.687878e+000 8.652033e+001 -4.571363e+001 -7.609514e+001 -4.536681e+001 -7.588972e+001 -7.997331e+000 -2.352584e+000
29625125000 -3.703873e+000 8.606220e+001 -4.538873e+001 -7.847804e+001 -4.503089e+001 -7.776704e+001 -8.128922e+000 -3.104067e+000
29643868750 -3.716230e+000 8.560853e+001 -4.524575e+001 -8.183810e+001 -4.491011e+001 -8.069437e+001 -8.262018e+000 -3.849785e+000
29662612500 -3.733959e+000 8.521928e+001 -4.508553e+001 -8.359448e+001 -4.477617e+001 -8.339690e+001 -8.398226e+000 -4.560090e+000
29681356250 -3.759420e+000 8.481067e+001 -4.469273e+001 -8.398985e+001 -4.462405e+001 -8.597435e+001 -8.536656e+000 -5.216653e+000
29700100000 -3.781600e+000 8.436273e+001 -4.436714e+001 -8.821656e+001 -4.441218e+001 -8.825300e+001 -8.675873e+000 -5.833642e+000
29718843750 -3.803694e+000 8.396122e+001 -4.412357e+001 -9.091744e+001 -4.428466e+001 -9.100327e+001 -8.821109e+000 -6.363088e+000
29737587500 -3.824208e+000 8.355725e+001 -4.384538e+001 -9.373814e+001 -4.394180e+001 -9.379655e+001 -8.970626e+000 -6.893940e+000
29756331250 -3.844882e+000 8.318745e+001 -4.365271e+001 -9.715412e+001 -4.367365e+001 -9.663921e+001 -9.126036e+000 -7.360492e+000
29775075000 -3.865047e+000 8.288303e+001 -4.341645e+001 -1.002624e+002 -4.360547e+001 -1.001580e+002 -9.279830e+000 -7.766039e+000
29793818750 -3.895138e+000 8.257150e+001 -4.339720e+001 -1.032481e+002 -4.350171e+001 -1.029275e+002 -9.439845e+000 -8.090109e+000
29812562500 -3.931377e+000 8.224207e+001 -4.332504e+001 -1.068609e+002 -4.347106e+001 -1.060287e+002 -9.593491e+000 -8.409873e+000
29831306250 -3.960834e+000 8.192608e+001 -4.315897e+001 -1.102402e+002 -4.338802e+001 -1.090566e+002 -9.737677e+000 -8.632072e+000
29850050000 -3.991611e+000 8.163420e+001 -4.308613e+001 -1.135986e+002 -4.325210e+001 -1.119459e+002 -9.888195e+000 -8.849100e+000
29868793750 -4.015819e+000 8.131152e+001 -4.303325e+001 -1.164068e+002 -4.325021e+001 -1.157641e+002 -1.003048e+001 -9.100039e+000
29887537500 -4.031465e+000 8.107883e+001 -4.304373e+001 -1.199438e+002 -4.316304e+001 -1.180992e+002 -1.015637e+001 -9.251453e+000
29906281250 -4.058103e+000 8.090234e+001 -4.305130e+001 -1.231948e+002 -4.321007e+001 -1.212688e+002 -1.028240e+001 -9.367356e+000
29925025000 -4.084151e+000 8.070921e+001 -4.302929e+001 -1.260715e+002 -4.326886e+001 -1.242728e+002 -1.039787e+001 -9.448413e+000
29943768750 -4.107641e+000 8.051751e+001 -4.296981e+001 -1.284017e+002 -4.316426e+001 -1.285452e+002 -1.050800e+001 -9.410371e+000
29962512500 -4.133204e+000 8.030209e+001 -4.300462e+001 -1.316008e+002 -4.318573e+001 -1.311979e+002 -1.062854e+001 -9.447937e+000
29981256250 -4.146653e+000 8.007571e+001 -4.284146e+001 -1.340240e+002 -4.295476e+001 -1.337101e+002 -1.072971e+001 -9.504561e+000
30000000000 -4.154903e+000 7.995666e+001 -4.291226e+001 -1.370257e+002 -4.292098e+001 -1.359897e+002 -1.081587e+001 -9.489968e+000
