!Agilent Technologies,E8364B,MY43040894,A.07.50.67
!Agilent E8364B: A.07.50.67
!Date: Tuesday, May 12, 2020 09:50:50
!Correction: S11(Full 2 Port(1,2)) 
!S21(Full 2 Port(1,2)) 
!S12(Full 2 Port(1,2)) 
!S22(Full 2 Port(1,2)) 
!S2P File: Measurements: S11, S21, S12, S22:
# Hz S  dB   R 50
10000000 -1.911245e-001 -6.428428e+000 -5.252314e+001 -1.588495e+001 -4.971819e+001 -5.238182e+001 1.082731e-002 -1.663065e+000
28743750 -2.065214e-001 -7.359509e+000 -5.311927e+001 -2.258897e+001 -5.029927e+001 -7.503236e+001 7.172242e-003 -1.977316e+000
47487500 -2.235984e-001 -8.384788e+000 -5.376347e+001 -3.433123e+001 -5.142614e+001 -1.026967e+002 2.724614e-003 -2.325003e+000
66231250 -2.371029e-001 -9.463590e+000 -5.443932e+001 -4.801330e+001 -5.235347e+001 -1.297424e+002 -8.304392e-004 -2.682549e+000
84975000 -2.563760e-001 -1.062821e+001 -5.487677e+001 -5.483853e+001 -5.314073e+001 -1.613668e+002 -4.615956e-003 -3.085152e+000
103718750 -2.784341e-001 -1.186977e+001 -5.564579e+001 -6.284147e+001 -5.389445e+001 1.621672e+002 -6.411831e-003 -3.507779e+000
122462500 -3.002816e-001 -1.316627e+001 -5.636201e+001 -6.711141e+001 -5.482447e+001 1.284744e+002 -8.137382e-003 -3.938477e+000
141206250 -3.211085e-001 -1.453824e+001 -5.691166e+001 -7.099087e+001 -5.579997e+001 9.251823e+001 -1.162144e-002 -4.407995e+000
159950000 -3.460710e-001 -1.599012e+001 -5.743412e+001 -7.248401e+001 -5.661878e+001 5.552053e+001 -1.461776e-002 -4.891668e+000
178693750 -3.708254e-001 -1.750950e+001 -5.781796e+001 -8.047808e+001 -5.763408e+001 2.002821e+001 -1.732157e-002 -5.386909e+000
197437500 -3.952704e-001 -1.910728e+001 -5.919864e+001 -8.619939e+001 -5.862191e+001 -1.693402e+001 -1.797240e-002 -5.918660e+000
216181250 -4.239981e-001 -2.075332e+001 -5.953421e+001 -8.752397e+001 -5.964215e+001 -5.322592e+001 -1.840209e-002 -6.475295e+000
234925000 -4.525633e-001 -2.248695e+001 -6.023407e+001 -8.323415e+001 -6.035366e+001 -8.932057e+001 -1.999318e-002 -7.057501e+000
253668750 -4.778996e-001 -2.419584e+001 -6.043765e+001 -6.681385e+001 -5.989084e+001 -1.226195e+002 -1.661607e-002 -7.599451e+000
272412500 -5.011793e-001 -2.588141e+001 -6.037833e+001 -5.055096e+001 -6.085100e+001 -1.617531e+002 -1.120971e-002 -8.137438e+000
291156250 -5.271536e-001 -2.758459e+001 -6.084385e+001 -2.845999e+001 -6.106800e+001 1.647577e+002 -7.189159e-003 -8.685905e+000
309900000 -5.526928e-001 -2.927864e+001 -6.131687e+001 -2.672946e+000 -6.078457e+001 1.384902e+002 -3.527031e-003 -9.241884e+000
328643750 -5.793005e-001 -3.093188e+001 -6.229754e+001 2.984088e+001 -6.119290e+001 1.221554e+002 2.596725e-003 -9.777466e+000
347387500 -6.071767e-001 -3.259940e+001 -6.233522e+001 6.119290e+001 -6.181826e+001 1.151352e+002 9.354821e-003 -1.032920e+001
366131250 -6.312367e-001 -3.423663e+001 -6.286186e+001 9.378940e+001 -6.222173e+001 1.120743e+002 1.461038e-002 -1.086793e+001
384875000 -6.587756e-001 -3.585548e+001 -6.297421e+001 1.267263e+002 -6.208623e+001 1.129409e+002 1.723806e-002 -1.140735e+001
403618750 -6.867140e-001 -3.749744e+001 -6.287358e+001 1.543377e+002 -6.257980e+001 1.080377e+002 2.117919e-002 -1.196646e+001
422362500 -7.121184e-001 -3.910993e+001 -6.337467e+001 -1.764000e+002 -6.326562e+001 1.146413e+002 2.562228e-002 -1.250037e+001
441106250 -7.398691e-001 -4.071114e+001 -6.362014e+001 -1.381222e+002 -6.314646e+001 1.207335e+002 3.060414e-002 -1.302877e+001
459850000 -7.681032e-001 -4.232065e+001 -6.365014e+001 -9.245753e+001 -6.354097e+001 1.327116e+002 3.504853e-002 -1.357686e+001
478593750 -7.948750e-001 -4.389443e+001 -6.435914e+001 -4.773413e+001 -6.323826e+001 1.549732e+002 4.017657e-002 -1.410608e+001
497337500 -8.246796e-001 -4.547683e+001 -6.425935e+001 4.626706e+000 -6.337951e+001 1.733244e+002 4.408725e-002 -1.466082e+001
516081250 -8.506621e-001 -4.703133e+001 -6.444098e+001 5.322393e+001 -6.367427e+001 -1.609156e+002 4.788150e-002 -1.519622e+001
534825000 -8.754669e-001 -4.859342e+001 -6.428544e+001 1.090321e+002 -6.386564e+001 -1.316224e+002 5.011043e-002 -1.572615e+001
553568750 -9.013695e-001 -5.015493e+001 -6.425111e+001 1.571781e+002 -6.416407e+001 -1.073910e+002 5.101401e-002 -1.628244e+001
572312500 -9.283047e-001 -5.169483e+001 -6.406188e+001 -1.529201e+002 -6.399613e+001 -7.782143e+001 5.402546e-002 -1.681779e+001
591056250 -9.527944e-001 -5.323261e+001 -6.431185e+001 -1.074874e+002 -6.410831e+001 -4.353222e+001 5.447415e-002 -1.736720e+001
609800000 -9.776803e-001 -5.476389e+001 -6.496181e+001 -5.281803e+001 -6.417255e+001 -1.305872e+001 5.633974e-002 -1.793541e+001
628543750 -1.004528e+000 -5.627463e+001 -6.400027e+001 -2.917653e+000 -6.419467e+001 1.895739e+001 5.839866e-002 -1.848594e+001
647287500 -1.028762e+000 -5.780981e+001 -6.420190e+001 4.512165e+001 -6.445366e+001 4.536844e+001 5.876001e-002 -1.903815e+001
666031250 -1.053151e+000 -5.931303e+001 -6.490874e+001 8.465434e+001 -6.434771e+001 7.489470e+001 5.901030e-002 -1.960192e+001
684775000 -1.080011e+000 -6.080370e+001 -6.479709e+001 1.207698e+002 -6.431798e+001 1.071553e+002 5.801867e-002 -2.016691e+001
703518750 -1.106512e+000 -6.232945e+001 -6.503288e+001 1.532224e+002 -6.417133e+001 1.361058e+002 5.541252e-002 -2.073992e+001
722262500 -1.131176e+000 -6.380757e+001 -6.541573e+001 -1.768289e+002 -6.411631e+001 1.691213e+002 5.549427e-002 -2.129800e+001
741006250 -1.155201e+000 -6.529593e+001 -6.530907e+001 -1.565045e+002 -6.487627e+001 -1.543819e+002 5.325104e-002 -2.185715e+001
759750000 -1.180165e+000 -6.678195e+001 -6.444649e+001 -1.404147e+002 -6.454886e+001 -1.269858e+002 5.057974e-002 -2.242007e+001
778493750 -1.202944e+000 -6.824105e+001 -6.509742e+001 -1.267943e+002 -6.404691e+001 -1.078012e+002 4.690460e-002 -2.298156e+001
797237500 -1.227530e+000 -6.970886e+001 -6.515582e+001 -1.088826e+002 -6.422387e+001 -9.449312e+001 4.372461e-002 -2.354838e+001
815981250 -1.251935e+000 -7.118124e+001 -6.558376e+001 -9.348329e+001 -6.439210e+001 -7.591680e+001 4.051316e-002 -2.412093e+001
834725000 -1.273076e+000 -7.263000e+001 -6.577490e+001 -7.451297e+001 -6.440282e+001 -5.920966e+001 3.776990e-002 -2.468514e+001
853468750 -1.297043e+000 -7.406681e+001 -6.600397e+001 -5.031059e+001 -6.409066e+001 -4.939842e+001 3.325875e-002 -2.525776e+001
872212500 -1.318944e+000 -7.551060e+001 -6.582784e+001 -2.360984e+001 -6.421941e+001 -3.863046e+001 2.724995e-002 -2.584634e+001
890956250 -1.341352e+000 -7.693606e+001 -6.593407e+001 1.071991e+000 -6.416246e+001 -3.320017e+001 2.069284e-002 -2.642041e+001
909700000 -1.362773e+000 -7.836659e+001 -6.518339e+001 2.772967e+001 -6.438950e+001 -3.314883e+001 1.421495e-002 -2.700814e+001
928443750 -1.387055e+000 -7.979969e+001 -6.525577e+001 4.169704e+001 -6.430647e+001 -2.979514e+001 7.381366e-003 -2.757344e+001
947187500 -1.409976e+000 -8.122257e+001 -6.519401e+001 4.723130e+001 -6.446498e+001 -2.489379e+001 2.412909e-003 -2.814495e+001
965931250 -1.430556e+000 -8.262909e+001 -6.517905e+001 4.494764e+001 -6.449197e+001 -2.106718e+001 -4.009761e-003 -2.872509e+001
984675000 -1.452560e+000 -8.404211e+001 -6.552570e+001 4.194798e+001 -6.468279e+001 -9.379531e+000 -9.522947e-003 -2.930274e+001
1003418750 -1.476247e+000 -8.544427e+001 -6.659176e+001 4.287023e+001 -6.479306e+001 -8.158965e+000 -1.330225e-002 -2.988716e+001
1022162500 -1.496773e+000 -8.683958e+001 -6.663153e+001 4.473651e+001 -6.485954e+001 -1.224637e+001 -1.833192e-002 -3.047034e+001
1040906250 -1.519527e+000 -8.822349e+001 -6.604705e+001 3.897959e+001 -6.495709e+001 -1.137330e+001 -2.513500e-002 -3.104342e+001
1059650000 -1.542170e+000 -8.960800e+001 -6.646164e+001 3.102357e+001 -6.609142e+001 -5.877453e+000 -3.335989e-002 -3.161121e+001
1078393750 -1.563078e+000 -9.097009e+001 -6.639445e+001 1.306380e+001 -6.635042e+001 1.177826e+001 -4.173517e-002 -3.218451e+001
1097137500 -1.586398e+000 -9.233822e+001 -6.588847e+001 2.712115e+000 -6.680574e+001 2.804471e+001 -4.923549e-002 -3.273270e+001
1115881250 -1.606898e+000 -9.370635e+001 -6.592434e+001 -1.281944e+001 -6.696689e+001 4.033955e+001 -5.531964e-002 -3.329295e+001
1134625000 -1.625560e+000 -9.505199e+001 -6.594560e+001 -3.406358e+001 -6.689843e+001 5.835556e+001 -6.058356e-002 -3.385664e+001
1153368750 -1.645868e+000 -9.641367e+001 -6.611171e+001 -5.357443e+001 -6.674501e+001 7.091203e+001 -6.624897e-002 -3.443305e+001
1172112500 -1.667403e+000 -9.772845e+001 -6.607205e+001 -6.556921e+001 -6.611337e+001 7.621436e+001 -7.181225e-002 -3.500300e+001
1190856250 -1.687845e+000 -9.905784e+001 -6.613531e+001 -8.073721e+001 -6.608102e+001 8.762435e+001 -7.756392e-002 -3.558734e+001
1209600000 -1.706974e+000 -1.003802e+002 -6.569511e+001 -9.895034e+001 -6.589935e+001 1.008860e+002 -8.459833e-002 -3.616363e+001
1228343750 -1.726897e+000 -1.017128e+002 -6.567495e+001 -1.143521e+002 -6.602625e+001 1.168143e+002 -9.076882e-002 -3.673172e+001
1247087500 -1.746186e+000 -1.030390e+002 -6.579878e+001 -1.325387e+002 -6.617294e+001 1.230969e+002 -9.485761e-002 -3.729284e+001
1265831250 -1.765811e+000 -1.043535e+002 -6.591124e+001 -1.483362e+002 -6.681231e+001 1.248662e+002 -9.868295e-002 -3.783258e+001
1284575000 -1.784322e+000 -1.056569e+002 -6.598246e+001 -1.708761e+002 -6.705240e+001 1.266591e+002 -1.022404e-001 -3.840335e+001
1303318750 -1.805941e+000 -1.069516e+002 -6.659829e+001 1.567044e+002 -6.700345e+001 1.270351e+002 -1.061884e-001 -3.895231e+001
1322062500 -1.825469e+000 -1.082496e+002 -6.626643e+001 1.205915e+002 -6.739249e+001 1.302502e+002 -1.089679e-001 -3.950956e+001
1340806250 -1.845311e+000 -1.095281e+002 -6.633353e+001 8.909702e+001 -6.745594e+001 1.335093e+002 -1.133627e-001 -4.006879e+001
1359550000 -1.863967e+000 -1.108007e+002 -6.640253e+001 6.825983e+001 -6.734068e+001 1.312939e+002 -1.161834e-001 -4.062764e+001
1378293750 -1.883750e+000 -1.120944e+002 -6.629855e+001 4.925222e+001 -6.778787e+001 1.317183e+002 -1.193677e-001 -4.118511e+001
1397037500 -1.904728e+000 -1.133756e+002 -6.612940e+001 3.076645e+001 -6.787238e+001 1.333018e+002 -1.200798e-001 -4.174123e+001
1415781250 -1.924435e+000 -1.146487e+002 -6.575862e+001 2.070619e+001 -6.776730e+001 1.216554e+002 -1.196292e-001 -4.229500e+001
1434525000 -1.943846e+000 -1.159148e+002 -6.475120e+001 2.538023e+000 -6.800877e+001 1.202876e+002 -1.222010e-001 -4.285560e+001
1453268750 -1.965159e+000 -1.171603e+002 -6.482753e+001 -1.292987e+001 -6.840034e+001 1.258564e+002 -1.238121e-001 -4.340028e+001
1472012500 -1.983605e+000 -1.184100e+002 -6.510439e+001 -2.798432e+001 -6.830740e+001 1.237466e+002 -1.253290e-001 -4.394518e+001
1490756250 -2.001119e+000 -1.196668e+002 -6.484298e+001 -3.086729e+001 -6.745669e+001 1.180423e+002 -1.272041e-001 -4.449830e+001
1509500000 -2.019009e+000 -1.209298e+002 -6.499500e+001 -2.173539e+001 -6.695541e+001 1.016159e+002 -1.248655e-001 -4.505452e+001
1528243750 -2.037487e+000 -1.221850e+002 -6.456238e+001 -9.896608e+000 -6.691365e+001 8.270599e+001 -1.204235e-001 -4.562721e+001
1546987500 -2.055718e+000 -1.234233e+002 -6.452090e+001 1.899590e+000 -6.728455e+001 7.127332e+001 -1.182055e-001 -4.619632e+001
1565731250 -2.074604e+000 -1.246536e+002 -6.451917e+001 1.646499e+001 -6.737060e+001 5.338127e+001 -1.173001e-001 -4.675559e+001
1584475000 -2.091879e+000 -1.258739e+002 -6.421706e+001 3.686085e+001 -6.761546e+001 4.074070e+001 -1.178216e-001 -4.730180e+001
1603218750 -2.109103e+000 -1.271131e+002 -6.412981e+001 5.229121e+001 -6.748289e+001 2.990621e+001 -1.167834e-001 -4.784471e+001
1621962500 -2.126474e+000 -1.283386e+002 -6.429451e+001 7.056489e+001 -6.750690e+001 1.496707e+001 -1.148826e-001 -4.838070e+001
1640706250 -2.144932e+000 -1.295765e+002 -6.464217e+001 9.168420e+001 -6.774004e+001 -3.983859e+000 -1.097446e-001 -4.892167e+001
1659450000 -2.162916e+000 -1.307854e+002 -6.459087e+001 1.070657e+002 -6.741963e+001 -3.041958e+001 -1.054115e-001 -4.948528e+001
1678193750 -2.180995e+000 -1.319787e+002 -6.424992e+001 1.235865e+002 -6.706554e+001 -5.098355e+001 -1.027718e-001 -5.004861e+001
1696937500 -2.198489e+000 -1.331744e+002 -6.449559e+001 1.337591e+002 -6.639458e+001 -6.793489e+001 -1.020557e-001 -5.062235e+001
1715681250 -2.218511e+000 -1.343811e+002 -6.438787e+001 1.522052e+002 -6.586533e+001 -8.539776e+001 -1.012258e-001 -5.115215e+001
1734425000 -2.235621e+000 -1.355855e+002 -6.375000e+001 1.683317e+002 -6.590961e+001 -1.040047e+002 -9.902957e-002 -5.168929e+001
1753168750 -2.252259e+000 -1.367653e+002 -6.426700e+001 -1.763005e+002 -6.582744e+001 -1.264658e+002 -9.642924e-002 -5.224162e+001
1771912500 -2.269362e+000 -1.379655e+002 -6.414047e+001 -1.590915e+002 -6.554239e+001 -1.477346e+002 -9.100707e-002 -5.279183e+001
1790656250 -2.287515e+000 -1.391613e+002 -6.479642e+001 -1.515409e+002 -6.614320e+001 -1.673525e+002 -8.792146e-002 -5.335591e+001
1809400000 -2.303945e+000 -1.403348e+002 -6.507934e+001 -1.458302e+002 -6.592126e+001 1.709972e+002 -8.623965e-002 -5.391723e+001
1828143750 -2.318583e+000 -1.414908e+002 -6.546674e+001 -1.318019e+002 -6.587304e+001 1.493192e+002 -8.612365e-002 -5.445713e+001
1846887500 -2.333720e+000 -1.426498e+002 -6.569493e+001 -1.179129e+002 -6.551646e+001 1.349272e+002 -8.756293e-002 -5.499427e+001
1865631250 -2.347931e+000 -1.438318e+002 -6.616622e+001 -1.062767e+002 -6.507362e+001 1.177110e+002 -8.538530e-002 -5.552591e+001
1884375000 -2.364005e+000 -1.450062e+002 -6.595935e+001 -9.382841e+001 -6.490282e+001 1.020765e+002 -8.281116e-002 -5.606426e+001
1903118750 -2.380123e+000 -1.461634e+002 -6.592603e+001 -7.394695e+001 -6.459928e+001 9.729118e+001 -7.878777e-002 -5.661816e+001
1921862500 -2.396636e+000 -1.473055e+002 -6.585400e+001 -6.162984e+001 -6.440805e+001 8.657242e+001 -7.852338e-002 -5.718351e+001
1940606250 -2.413596e+000 -1.484524e+002 -6.620040e+001 -5.128342e+001 -6.445009e+001 7.221164e+001 -8.003893e-002 -5.772257e+001
1959350000 -2.429543e+000 -1.495827e+002 -6.638755e+001 -5.589595e+001 -6.424216e+001 5.833797e+001 -8.332656e-002 -5.825380e+001
1978093750 -2.445824e+000 -1.507261e+002 -6.662376e+001 -5.329224e+001 -6.352277e+001 4.128827e+001 -8.485916e-002 -5.877798e+001
1996837500 -2.460543e+000 -1.518662e+002 -6.650562e+001 -5.004355e+001 -6.434120e+001 2.638650e+001 -8.359808e-002 -5.933265e+001
2015581250 -2.479321e+000 -1.530091e+002 -6.651299e+001 -5.870393e+001 -6.417567e+001 4.580127e+000 -8.289010e-002 -5.988176e+001
2034325000 -2.495737e+000 -1.541373e+002 -6.703317e+001 -6.274072e+001 -6.413998e+001 -1.984662e+001 -8.438490e-002 -6.044734e+001
2053068750 -2.509979e+000 -1.552725e+002 -6.757545e+001 -6.691245e+001 -6.384885e+001 -3.951948e+001 -8.880949e-002 -6.100101e+001
2071812500 -2.525599e+000 -1.563841e+002 -6.715246e+001 -7.312109e+001 -6.364901e+001 -5.071185e+001 -9.351480e-002 -6.155114e+001
2090556250 -2.541336e+000 -1.575086e+002 -6.757324e+001 -7.229106e+001 -6.354150e+001 -6.206238e+001 -9.698673e-002 -6.208916e+001
2109300000 -2.557244e+000 -1.586215e+002 -6.782342e+001 -7.449810e+001 -6.400557e+001 -7.912302e+001 -1.009995e-001 -6.262928e+001
2128043750 -2.574018e+000 -1.597439e+002 -6.767700e+001 -6.970707e+001 -6.380929e+001 -9.344022e+001 -1.026327e-001 -6.316852e+001
2146787500 -2.588311e+000 -1.608397e+002 -6.782967e+001 -7.828931e+001 -6.414167e+001 -1.097548e+002 -1.061645e-001 -6.373138e+001
2165531250 -2.600980e+000 -1.619550e+002 -6.802893e+001 -8.767667e+001 -6.409415e+001 -1.283551e+002 -1.093998e-001 -6.428929e+001
2184275000 -2.615346e+000 -1.630831e+002 -6.773566e+001 -1.010133e+002 -6.402580e+001 -1.417328e+002 -1.142809e-001 -6.482681e+001
2203018750 -2.630178e+000 -1.641701e+002 -6.751483e+001 -1.221465e+002 -6.498887e+001 -1.639397e+002 -1.196284e-001 -6.536595e+001
2221762500 -2.641253e+000 -1.652586e+002 -6.659275e+001 -1.345887e+002 -6.445585e+001 -1.778239e+002 -1.218220e-001 -6.590643e+001
2240506250 -2.654728e+000 -1.663486e+002 -6.672794e+001 -1.488059e+002 -6.387373e+001 1.642627e+002 -1.232720e-001 -6.643924e+001
2259250000 -2.672267e+000 -1.674384e+002 -6.652048e+001 -1.694669e+002 -6.396014e+001 1.529698e+002 -1.273625e-001 -6.700778e+001
2277993750 -2.684921e+000 -1.685328e+002 -6.618531e+001 1.694280e+002 -6.410400e+001 1.378401e+002 -1.305399e-001 -6.756727e+001
2296737500 -2.698968e+000 -1.696183e+002 -6.561986e+001 1.514781e+002 -6.423122e+001 1.220882e+002 -1.373011e-001 -6.811699e+001
2315481250 -2.711752e+000 -1.707069e+002 -6.539938e+001 1.372249e+002 -6.387841e+001 9.912795e+001 -1.418509e-001 -6.866882e+001
2334225000 -2.724600e+000 -1.717896e+002 -6.546172e+001 1.149387e+002 -6.400089e+001 6.756271e+001 -1.482197e-001 -6.920739e+001
2352968750 -2.738183e+000 -1.728722e+002 -6.555951e+001 9.878817e+001 -6.368860e+001 3.545022e+001 -1.501133e-001 -6.975004e+001
2371712500 -2.750902e+000 -1.739506e+002 -6.527052e+001 8.047813e+001 -6.350043e+001 1.140781e+001 -1.515241e-001 -7.031106e+001
2390456250 -2.762144e+000 -1.750240e+002 -6.576283e+001 6.877564e+001 -6.434306e+001 -1.976416e+001 -1.547705e-001 -7.086922e+001
2409200000 -2.774137e+000 -1.761008e+002 -6.567783e+001 5.333940e+001 -6.494890e+001 -5.200583e+001 -1.623327e-001 -7.142325e+001
2427943750 -2.787715e+000 -1.771740e+002 -6.555809e+001 3.421714e+001 -6.378983e+001 -8.245267e+001 -1.684401e-001 -7.196471e+001
2446687500 -2.797692e+000 -1.782351e+002 -6.550249e+001 1.834696e+001 -6.409541e+001 -1.049811e+002 -1.713327e-001 -7.252002e+001
2465431250 -2.808827e+000 -1.793121e+002 -6.508923e+001 2.860161e+000 -6.445519e+001 -1.177806e+002 -1.728065e-001 -7.305015e+001
2484175000 -2.822147e+000 1.796446e+002 -6.500897e+001 -1.803491e+001 -6.488094e+001 -1.338988e+002 -1.753317e-001 -7.360896e+001
2502918750 -2.834278e+000 1.785881e+002 -6.508436e+001 -3.360653e+001 -6.479573e+001 -1.472590e+002 -1.798307e-001 -7.416267e+001
2521662500 -2.845196e+000 1.775267e+002 -6.470893e+001 -5.289480e+001 -6.475197e+001 -1.525404e+002 -1.843463e-001 -7.470124e+001
2540406250 -2.857409e+000 1.764563e+002 -6.513172e+001 -6.734426e+001 -6.424814e+001 -1.575733e+002 -1.883975e-001 -7.524978e+001
2559150000 -2.869667e+000 1.753952e+002 -6.560456e+001 -9.342149e+001 -6.422875e+001 -1.681466e+002 -1.940682e-001 -7.579126e+001
2577893750 -2.881783e+000 1.743292e+002 -6.552275e+001 -1.199993e+002 -6.428721e+001 -1.786533e+002 -1.956185e-001 -7.632510e+001
2596637500 -2.895388e+000 1.732894e+002 -6.569662e+001 -1.422381e+002 -6.425104e+001 1.730898e+002 -1.979193e-001 -7.686997e+001
2615381250 -2.906964e+000 1.722583e+002 -6.609600e+001 -1.623274e+002 -6.408713e+001 1.558723e+002 -2.003923e-001 -7.742542e+001
2634125000 -2.917524e+000 1.712000e+002 -6.667267e+001 -1.780448e+002 -6.296553e+001 1.448560e+002 -2.036550e-001 -7.796626e+001
2652868750 -2.929572e+000 1.701376e+002 -6.664783e+001 1.652487e+002 -6.295223e+001 1.318897e+002 -2.081172e-001 -7.851076e+001
2671612500 -2.942729e+000 1.690913e+002 -6.641591e+001 1.505827e+002 -6.288633e+001 1.129939e+002 -2.154250e-001 -7.905932e+001
2690356250 -2.954124e+000 1.680344e+002 -6.701974e+001 1.311104e+002 -6.335929e+001 9.472336e+001 -2.175593e-001 -7.958963e+001
2709100000 -2.969481e+000 1.669952e+002 -6.780290e+001 1.051018e+002 -6.339405e+001 7.704825e+001 -2.205764e-001 -8.012871e+001
2727843750 -2.981000e+000 1.659658e+002 -6.799365e+001 8.507674e+001 -6.371469e+001 6.278774e+001 -2.235579e-001 -8.066880e+001
2746587500 -2.991827e+000 1.649339e+002 -6.826225e+001 5.177815e+001 -6.454497e+001 4.553114e+001 -2.279246e-001 -8.122092e+001
2765331250 -3.002949e+000 1.638803e+002 -6.777575e+001 2.400483e+001 -6.463639e+001 3.100620e+001 -2.330519e-001 -8.176826e+001
2784075000 -3.014961e+000 1.628234e+002 -6.892308e+001 -4.908714e+000 -6.482586e+001 2.270839e+001 -2.364421e-001 -8.231529e+001
2802818750 -3.026623e+000 1.617915e+002 -6.896626e+001 -3.705300e+001 -6.539816e+001 1.954288e+001 -2.429874e-001 -8.284518e+001
2821562500 -3.037815e+000 1.607540e+002 -6.862508e+001 -6.349982e+001 -6.494086e+001 1.893836e+001 -2.466255e-001 -8.338458e+001
2840306250 -3.048697e+000 1.597292e+002 -6.890388e+001 -8.515630e+001 -6.447390e+001 1.723445e+001 -2.473765e-001 -8.392284e+001
2859050000 -3.060131e+000 1.587045e+002 -6.930213e+001 -9.892134e+001 -6.479634e+001 1.764352e+001 -2.499432e-001 -8.445098e+001
2877793750 -3.066374e+000 1.576683e+002 -7.027403e+001 -1.090853e+002 -6.449146e+001 7.111200e+000 -2.527077e-001 -8.500769e+001
2896537500 -3.079240e+000 1.566707e+002 -7.054305e+001 -1.150455e+002 -6.438312e+001 -5.266758e+000 -2.579449e-001 -8.555634e+001
2915281250 -3.093132e+000 1.556063e+002 -7.002880e+001 -1.121408e+002 -6.466766e+001 -2.411797e+001 -2.635141e-001 -8.609614e+001
2934025000 -3.100170e+000 1.545885e+002 -7.042445e+001 -1.150576e+002 -6.493813e+001 -4.447270e+001 -2.627482e-001 -8.664856e+001
2952768750 -3.114120e+000 1.535846e+002 -7.063786e+001 -1.152369e+002 -6.519358e+001 -6.187777e+001 -2.660728e-001 -8.717773e+001
2971512500 -3.124940e+000 1.525350e+002 -7.050620e+001 -1.140862e+002 -6.551323e+001 -7.835939e+001 -2.718458e-001 -8.772717e+001
2990256250 -3.129938e+000 1.515441e+002 -6.980923e+001 -1.091022e+002 -6.585152e+001 -9.228145e+001 -2.728047e-001 -8.828883e+001
3009000000 -3.143732e+000 1.505446e+002 -6.966899e+001 -9.628334e+001 -6.577726e+001 -9.885513e+001 -2.786473e-001 -8.883566e+001
3027743750 -3.152941e+000 1.494905e+002 -6.956958e+001 -8.009606e+001 -6.595203e+001 -1.001710e+002 -2.876576e-001 -8.940181e+001
3046487500 -3.160254e+000 1.485078e+002 -6.922916e+001 -6.371351e+001 -6.615298e+001 -1.048730e+002 -2.893343e-001 -8.994910e+001
3065231250 -3.176461e+000 1.474863e+002 -6.883070e+001 -4.833230e+001 -6.675140e+001 -1.045152e+002 -2.936549e-001 -9.048098e+001
3083975000 -3.184272e+000 1.464367e+002 -6.971551e+001 -2.955247e+001 -6.695425e+001 -1.132870e+002 -3.005362e-001 -9.102355e+001
3102718750 -3.188230e+000 1.454647e+002 -6.952981e+001 -1.129051e+001 -6.737021e+001 -1.105599e+002 -3.025050e-001 -9.156039e+001
3121462500 -3.203406e+000 1.444368e+002 -6.875214e+001 1.116083e+001 -6.717054e+001 -1.156399e+002 -3.076462e-001 -9.210033e+001
3140206250 -3.206146e+000 1.433712e+002 -6.814760e+001 3.863140e+001 -6.732888e+001 -1.162437e+002 -3.139726e-001 -9.263963e+001
3158950000 -3.213308e+000 1.424140e+002 -6.874181e+001 6.148553e+001 -6.699252e+001 -1.198062e+002 -3.163549e-001 -9.317949e+001
3177693750 -3.232115e+000 1.413793e+002 -6.889322e+001 9.104156e+001 -6.653812e+001 -1.275270e+002 -3.213305e-001 -9.371715e+001
3196437500 -3.238880e+000 1.403307e+002 -6.957854e+001 1.191639e+002 -6.642698e+001 -1.305989e+002 -3.252997e-001 -9.425162e+001
3215181250 -3.244394e+000 1.393895e+002 -6.847513e+001 1.433043e+002 -6.661649e+001 -1.277793e+002 -3.327155e-001 -9.479290e+001
3233925000 -3.258313e+000 1.383476e+002 -6.856116e+001 1.775130e+002 -6.608110e+001 -1.300947e+002 -3.369424e-001 -9.535684e+001
3252668750 -3.261768e+000 1.372766e+002 -6.827907e+001 -1.595194e+002 -6.586828e+001 -1.337751e+002 -3.417659e-001 -9.588646e+001
3271412500 -3.269958e+000 1.362997e+002 -6.790875e+001 -1.423057e+002 -6.583796e+001 -1.334480e+002 -3.454333e-001 -9.641865e+001
3290156250 -3.283801e+000 1.352570e+002 -6.767533e+001 -1.276369e+002 -6.603255e+001 -1.290732e+002 -3.525079e-001 -9.697165e+001
3308900000 -3.291706e+000 1.342230e+002 -6.710909e+001 -1.184176e+002 -6.617245e+001 -1.129093e+002 -3.557879e-001 -9.746384e+001
3327643750 -3.297712e+000 1.332210e+002 -6.680661e+001 -1.157154e+002 -6.593810e+001 -9.709058e+001 -3.619066e-001 -9.798847e+001
3346387500 -3.306273e+000 1.322113e+002 -6.667989e+001 -1.173139e+002 -6.567618e+001 -7.402754e+001 -3.648861e-001 -9.853026e+001
3365131250 -3.314570e+000 1.311826e+002 -6.677394e+001 -1.173818e+002 -6.541718e+001 -6.056686e+001 -3.718775e-001 -9.904478e+001
3383875000 -3.318802e+000 1.301835e+002 -6.642622e+001 -1.193650e+002 -6.506595e+001 -4.842478e+001 -3.798930e-001 -9.959543e+001
3402618750 -3.329617e+000 1.291725e+002 -6.660915e+001 -1.248144e+002 -6.523497e+001 -2.742230e+001 -3.858253e-001 -1.001468e+002
3421362500 -3.337554e+000 1.281483e+002 -6.684428e+001 -1.217783e+002 -6.498107e+001 -1.034966e+001 -3.892942e-001 -1.006542e+002
3440106250 -3.342624e+000 1.271394e+002 -6.718489e+001 -1.250416e+002 -6.474572e+001 1.551583e-001 -3.962304e-001 -1.011927e+002
3458850000 -3.352104e+000 1.261256e+002 -6.699263e+001 -1.290734e+002 -6.442078e+001 1.315790e+001 -3.997539e-001 -1.017240e+002
3477593750 -3.358480e+000 1.250727e+002 -6.672609e+001 -1.349724e+002 -6.435797e+001 3.140325e+001 -4.041152e-001 -1.022470e+002
3496337500 -3.362622e+000 1.240806e+002 -6.688434e+001 -1.370666e+002 -6.458283e+001 4.042686e+001 -4.121770e-001 -1.027776e+002
3515081250 -3.372586e+000 1.230696e+002 -6.652193e+001 -1.422915e+002 -6.430424e+001 4.979361e+001 -4.182442e-001 -1.033182e+002
3533825000 -3.379735e+000 1.220391e+002 -6.703925e+001 -1.481372e+002 -6.392670e+001 4.687539e+001 -4.204636e-001 -1.038504e+002
3552568750 -3.383723e+000 1.210546e+002 -6.726591e+001 -1.586353e+002 -6.401162e+001 5.221527e+001 -4.291764e-001 -1.043859e+002
3571312500 -3.391205e+000 1.200394e+002 -6.747807e+001 -1.773447e+002 -6.341510e+001 6.147817e+001 -4.339017e-001 -1.049514e+002
3590056250 -3.398981e+000 1.189680e+002 -6.705458e+001 1.648588e+002 -6.363580e+001 6.581164e+001 -4.407828e-001 -1.054910e+002
3608800000 -3.396071e+000 1.179615e+002 -6.643015e+001 1.474550e+002 -6.380634e+001 8.249943e+001 -4.437740e-001 -1.060214e+002
3627543750 -3.407045e+000 1.169960e+002 -6.619668e+001 1.275204e+002 -6.428996e+001 9.095419e+001 -4.460101e-001 -1.065621e+002
3646287500 -3.414731e+000 1.159374e+002 -6.627115e+001 1.010777e+002 -6.434389e+001 9.810379e+001 -4.482878e-001 -1.070872e+002
3665031250 -3.413481e+000 1.149610e+002 -6.627199e+001 6.761884e+001 -6.470187e+001 1.080855e+002 -4.521146e-001 -1.076105e+002
3683775000 -3.425122e+000 1.140203e+002 -6.742387e+001 4.389111e+001 -6.477568e+001 1.279000e+002 -4.565890e-001 -1.081302e+002
3702518750 -3.434069e+000 1.129447e+002 -6.782692e+001 1.604971e+001 -6.474762e+001 1.381512e+002 -4.667767e-001 -1.086718e+002
3721262500 -3.426386e+000 1.119574e+002 -6.800987e+001 -2.189405e+001 -6.500932e+001 1.420065e+002 -4.650541e-001 -1.092410e+002
3740006250 -3.438746e+000 1.109954e+002 -6.829156e+001 -5.442240e+001 -6.539962e+001 1.395616e+002 -4.733798e-001 -1.097415e+002
3758750000 -3.444548e+000 1.099103e+002 -6.839365e+001 -8.337059e+001 -6.532653e+001 1.373947e+002 -4.802091e-001 -1.103074e+002
3777493750 -3.442618e+000 1.089291e+002 -6.838850e+001 -1.144335e+002 -6.534692e+001 1.333556e+002 -4.800897e-001 -1.108611e+002
3796237500 -3.454517e+000 1.079305e+002 -6.809128e+001 -1.406870e+002 -6.540012e+001 1.387155e+002 -4.819924e-001 -1.113564e+002
3814981250 -3.459805e+000 1.068049e+002 -6.880643e+001 -1.622245e+002 -6.543554e+001 1.346579e+002 -4.900223e-001 -1.119100e+002
3833725000 -3.454593e+000 1.058339e+002 -6.856107e+001 -1.761499e+002 -6.526895e+001 1.247865e+002 -4.861882e-001 -1.124471e+002
3852468750 -3.467521e+000 1.048235e+002 -6.827370e+001 1.621361e+002 -6.548171e+001 1.191025e+002 -4.924299e-001 -1.129456e+002
3871212500 -3.467306e+000 1.037238e+002 -6.799637e+001 1.465020e+002 -6.506482e+001 1.169287e+002 -4.970329e-001 -1.134928e+002
3889956250 -3.464837e+000 1.027394e+002 -6.821037e+001 1.240331e+002 -6.499236e+001 1.101386e+002 -4.968570e-001 -1.140341e+002
3908700000 -3.477178e+000 1.017177e+002 -6.885529e+001 1.086745e+002 -6.488210e+001 1.060182e+002 -5.013367e-001 -1.145363e+002
3927443750 -3.476716e+000 1.006189e+002 -6.897487e+001 9.617896e+001 -6.444589e+001 1.017889e+002 -5.059580e-001 -1.150996e+002
3946187500 -3.475285e+000 9.964474e+001 -6.892088e+001 8.361523e+001 -6.438968e+001 1.001705e+002 -5.053232e-001 -1.156419e+002
3964931250 -3.489082e+000 9.859979e+001 -6.863319e+001 7.515524e+001 -6.462968e+001 1.094021e+002 -5.107870e-001 -1.161505e+002
3983675000 -3.482572e+000 9.751039e+001 -6.876550e+001 6.859898e+001 -6.447885e+001 1.080808e+002 -5.153846e-001 -1.166952e+002
4002418750 -3.484786e+000 9.655375e+001 -6.887861e+001 7.440164e+001 -6.448339e+001 9.468583e+001 -5.154194e-001 -1.172226e+002
4021162500 -3.493416e+000 9.552212e+001 -6.907425e+001 8.538440e+001 -6.449119e+001 8.378059e+001 -5.203178e-001 -1.177256e+002
4039906250 -3.491651e+000 9.447146e+001 -6.964304e+001 1.012288e+002 -6.408392e+001 6.892883e+001 -5.249627e-001 -1.182733e+002
4058650000 -3.489957e+000 9.344803e+001 -6.985023e+001 1.145715e+002 -6.401048e+001 5.056970e+001 -5.284722e-001 -1.188292e+002
4077393750 -3.497029e+000 9.242028e+001 -7.011185e+001 1.276093e+002 -6.403179e+001 2.733027e+001 -5.343703e-001 -1.193331e+002
4096137500 -3.497772e+000 9.134586e+001 -7.081078e+001 1.390650e+002 -6.378946e+001 -7.381312e+000 -5.372816e-001 -1.198827e+002
4114881250 -3.496454e+000 9.030984e+001 -6.996113e+001 1.467658e+002 -6.357875e+001 -4.953585e+001 -5.423722e-001 -1.204413e+002
4133625000 -3.497568e+000 8.930435e+001 -6.986611e+001 1.557959e+002 -6.390166e+001 -8.022004e+001 -5.447492e-001 -1.209437e+002
4152368750 -3.502224e+000 8.823296e+001 -6.996759e+001 1.770336e+002 -6.395303e+001 -1.177928e+002 -5.530862e-001 -1.214741e+002
4171112500 -3.499833e+000 8.718581e+001 -6.951485e+001 -1.568678e+002 -6.403823e+001 -1.568968e+002 -5.559918e-001 -1.220665e+002
4189856250 -3.503011e+000 8.617453e+001 -6.964186e+001 -1.279034e+002 -6.419831e+001 1.536256e+002 -5.601687e-001 -1.225758e+002
4208600000 -3.503521e+000 8.510796e+001 -7.022465e+001 -1.034574e+002 -6.406770e+001 1.070836e+002 -5.674043e-001 -1.231105e+002
4227343750 -3.501413e+000 8.406892e+001 -7.069459e+001 -7.940565e+001 -6.422722e+001 5.579807e+001 -5.728239e-001 -1.236665e+002
4246087500 -3.500907e+000 8.307597e+001 -7.006656e+001 -5.926841e+001 -6.490209e+001 5.969478e+000 -5.779689e-001 -1.241602e+002
4264831250 -3.502053e+000 8.199483e+001 -6.984384e+001 -3.860271e+001 -6.527457e+001 -3.806543e+001 -5.852365e-001 -1.247061e+002
4283575000 -3.499535e+000 8.095844e+001 -7.001563e+001 -1.200727e+001 -6.555327e+001 -8.628329e+001 -5.875158e-001 -1.252558e+002
4302318750 -3.500368e+000 7.996377e+001 -6.959444e+001 1.565487e+001 -6.625103e+001 -1.409699e+002 -5.892113e-001 -1.257801e+002
4321062500 -3.502830e+000 7.890511e+001 -7.004421e+001 5.597947e+001 -6.673009e+001 1.604001e+002 -5.965996e-001 -1.262841e+002
4339806250 -3.495260e+000 7.784631e+001 -6.948145e+001 8.832786e+001 -6.679008e+001 9.722616e+001 -6.044714e-001 -1.268460e+002
4358550000 -3.495022e+000 7.685109e+001 -6.952256e+001 1.191240e+002 -6.767979e+001 4.377472e+001 -6.063648e-001 -1.273754e+002
4377293750 -3.494689e+000 7.579861e+001 -6.948759e+001 1.487803e+002 -6.796034e+001 -1.122991e+001 -6.135018e-001 -1.279326e+002
4396037500 -3.487787e+000 7.474805e+001 -7.003345e+001 -1.792432e+002 -6.838574e+001 -6.558620e+001 -6.172987e-001 -1.284618e+002
4414781250 -3.491760e+000 7.370671e+001 -7.001633e+001 -1.395024e+002 -6.813806e+001 -1.177155e+002 -6.226928e-001 -1.289885e+002
4433525000 -3.488338e+000 7.262522e+001 -7.007952e+001 -1.013219e+002 -6.811208e+001 -1.633726e+002 -6.295870e-001 -1.295327e+002
4452268750 -3.482712e+000 7.158731e+001 -6.983175e+001 -7.020951e+001 -6.825649e+001 1.513694e+002 -6.312048e-001 -1.300832e+002
4471012500 -3.484771e+000 7.050957e+001 -6.971484e+001 -4.122091e+001 -6.812434e+001 1.062872e+002 -6.397738e-001 -1.305915e+002
4489756250 -3.481469e+000 6.944118e+001 -6.992449e+001 -7.244182e+000 -6.789309e+001 6.611535e+001 -6.459561e-001 -1.311413e+002
4508500000 -3.473782e+000 6.837605e+001 -6.946083e+001 3.306668e+001 -6.780602e+001 2.818730e+001 -6.501225e-001 -1.316632e+002
4527243750 -3.472863e+000 6.729907e+001 -6.868826e+001 7.715297e+001 -6.817615e+001 2.589825e+000 -6.605914e-001 -1.321737e+002
4545987500 -3.466900e+000 6.622139e+001 -6.853795e+001 1.234315e+002 -6.871006e+001 -2.321883e+001 -6.661780e-001 -1.327326e+002
4564731250 -3.460219e+000 6.515108e+001 -6.863088e+001 1.672611e+002 -6.846578e+001 -5.500046e+001 -6.677896e-001 -1.332780e+002
4583475000 -3.461553e+000 6.407436e+001 -6.847710e+001 -1.540709e+002 -6.815446e+001 -7.911328e+001 -6.780045e-001 -1.337936e+002
4602218750 -3.456700e+000 6.297404e+001 -6.831748e+001 -1.190862e+002 -6.772543e+001 -1.013469e+002 -6.848933e-001 -1.343313e+002
4620962500 -3.448990e+000 6.190174e+001 -6.833505e+001 -8.824895e+001 -6.794689e+001 -1.180516e+002 -6.869202e-001 -1.348685e+002
4639706250 -3.446917e+000 6.083803e+001 -6.879518e+001 -5.735878e+001 -6.828786e+001 -1.359140e+002 -6.943761e-001 -1.353701e+002
4658450000 -3.439603e+000 5.972791e+001 -6.848212e+001 -3.472339e+001 -6.812536e+001 -1.539342e+002 -7.042277e-001 -1.359202e+002
4677193750 -3.432898e+000 5.865454e+001 -6.850557e+001 -1.654228e+001 -6.799124e+001 -1.646412e+002 -7.015675e-001 -1.364650e+002
4695937500 -3.433333e+000 5.759369e+001 -6.876401e+001 -2.257987e+000 -6.751166e+001 1.726257e+002 -7.148783e-001 -1.369887e+002
4714681250 -3.423556e+000 5.647743e+001 -6.879865e+001 1.380680e+001 -6.732082e+001 1.585457e+002 -7.223904e-001 -1.375589e+002
4733425000 -3.416915e+000 5.538588e+001 -6.879801e+001 2.823106e+001 -6.728284e+001 1.484681e+002 -7.279708e-001 -1.380835e+002
4752168750 -3.412969e+000 5.429586e+001 -6.811298e+001 3.935634e+001 -6.721072e+001 1.489181e+002 -7.383680e-001 -1.386442e+002
4770912500 -3.408499e+000 5.320069e+001 -6.835839e+001 5.888246e+001 -6.712645e+001 1.483009e+002 -7.406053e-001 -1.391893e+002
4789656250 -3.402476e+000 5.209147e+001 -6.800681e+001 6.899989e+001 -6.599711e+001 1.444552e+002 -7.447176e-001 -1.396991e+002
4808400000 -3.399498e+000 5.100246e+001 -6.803111e+001 7.620541e+001 -6.597015e+001 1.436089e+002 -7.573912e-001 -1.402132e+002
4827143750 -3.391766e+000 4.989088e+001 -6.785455e+001 8.945319e+001 -6.563575e+001 1.367257e+002 -7.619694e-001 -1.407900e+002
4845887500 -3.380847e+000 4.881187e+001 -6.835182e+001 1.026584e+002 -6.572152e+001 1.343471e+002 -7.656006e-001 -1.413060e+002
4864631250 -3.379344e+000 4.774011e+001 -6.760556e+001 1.038521e+002 -6.597003e+001 1.285391e+002 -7.757500e-001 -1.418270e+002
4883375000 -3.371531e+000 4.660614e+001 -6.741718e+001 1.017149e+002 -6.634098e+001 1.308754e+002 -7.801132e-001 -1.423938e+002
4902118750 -3.361344e+000 4.554407e+001 -6.755649e+001 1.012618e+002 -6.653316e+001 1.356870e+002 -7.836447e-001 -1.429174e+002
4920862500 -3.356970e+000 4.444474e+001 -6.698480e+001 1.008659e+002 -6.641173e+001 1.502780e+002 -7.947319e-001 -1.434438e+002
4939606250 -3.348702e+000 4.331278e+001 -6.709460e+001 9.997618e+001 -6.622263e+001 1.553934e+002 -7.953619e-001 -1.440173e+002
4958350000 -3.339659e+000 4.224707e+001 -6.708315e+001 9.746238e+001 -6.615683e+001 1.517251e+002 -7.997801e-001 -1.445420e+002
4977093750 -3.337641e+000 4.115856e+001 -6.700533e+001 8.930862e+001 -6.555567e+001 1.465312e+002 -8.082063e-001 -1.450567e+002
4995837500 -3.330481e+000 4.002328e+001 -6.679520e+001 8.988477e+001 -6.575301e+001 1.433623e+002 -8.096501e-001 -1.456274e+002
5014581250 -3.318426e+000 3.894254e+001 -6.712080e+001 9.773325e+001 -6.652264e+001 1.384697e+002 -8.154186e-001 -1.461228e+002
5033325000 -3.311515e+000 3.783089e+001 -6.708657e+001 9.578979e+001 -6.651383e+001 1.302695e+002 -8.248714e-001 -1.466813e+002
5052068750 -3.300280e+000 3.670910e+001 -6.676955e+001 9.091814e+001 -6.650369e+001 1.301378e+002 -8.272263e-001 -1.472186e+002
5070812500 -3.290893e+000 3.560404e+001 -6.582631e+001 8.745991e+001 -6.610300e+001 1.284158e+002 -8.347034e-001 -1.477455e+002
5089556250 -3.284297e+000 3.449422e+001 -6.561534e+001 9.396207e+001 -6.647873e+001 1.258837e+002 -8.400652e-001 -1.482986e+002
5108300000 -3.274559e+000 3.337323e+001 -6.551179e+001 1.009563e+002 -6.628315e+001 1.227113e+002 -8.459419e-001 -1.488357e+002
5127043750 -3.261714e+000 3.225764e+001 -6.532886e+001 1.070714e+002 -6.632819e+001 1.247692e+002 -8.505608e-001 -1.493346e+002
5145787500 -3.256148e+000 3.112374e+001 -6.555707e+001 1.075926e+002 -6.626920e+001 1.246549e+002 -8.602934e-001 -1.498822e+002
5164531250 -3.245821e+000 2.999165e+001 -6.616582e+001 1.062558e+002 -6.634370e+001 1.271393e+002 -8.656822e-001 -1.504210e+002
5183275000 -3.233808e+000 2.889719e+001 -6.646569e+001 9.982702e+001 -6.643549e+001 1.157203e+002 -8.713553e-001 -1.509366e+002
5202018750 -3.227613e+000 2.775822e+001 -6.667159e+001 9.326392e+001 -6.616460e+001 1.149183e+002 -8.797309e-001 -1.514775e+002
5220762500 -3.213905e+000 2.664326e+001 -6.696628e+001 9.212373e+001 -6.636884e+001 1.166449e+002 -8.864020e-001 -1.520314e+002
5239506250 -3.204665e+000 2.551465e+001 -6.688978e+001 8.542229e+001 -6.634045e+001 1.173076e+002 -8.901469e-001 -1.525485e+002
5258250000 -3.195407e+000 2.435902e+001 -6.623781e+001 7.856621e+001 -6.615144e+001 1.177524e+002 -8.992260e-001 -1.530919e+002
5276993750 -3.184053e+000 2.323783e+001 -6.547565e+001 6.429449e+001 -6.601727e+001 1.147712e+002 -9.028239e-001 -1.536387e+002
5295737500 -3.172442e+000 2.210647e+001 -6.575761e+001 6.049690e+001 -6.592783e+001 1.174625e+002 -9.087045e-001 -1.541557e+002
5314481250 -3.161448e+000 2.095115e+001 -6.601282e+001 6.380940e+001 -6.541258e+001 1.097150e+002 -9.161723e-001 -1.546861e+002
5333225000 -3.148378e+000 1.981916e+001 -6.571304e+001 6.636375e+001 -6.552686e+001 9.475821e+001 -9.207637e-001 -1.552438e+002
5351968750 -3.137192e+000 1.868576e+001 -6.558696e+001 6.470694e+001 -6.601878e+001 7.437270e+001 -9.274391e-001 -1.557583e+002
5370712500 -3.128960e+000 1.752757e+001 -6.570411e+001 6.412666e+001 -6.614479e+001 6.458980e+001 -9.357750e-001 -1.563081e+002
5389456250 -3.113398e+000 1.639284e+001 -6.585847e+001 6.159664e+001 -6.579754e+001 5.265904e+001 -9.408247e-001 -1.568371e+002
5408200000 -3.103118e+000 1.524774e+001 -6.577779e+001 6.323675e+001 -6.586024e+001 5.015182e+001 -9.472573e-001 -1.573688e+002
5426943750 -3.093283e+000 1.407563e+001 -6.543667e+001 5.998175e+001 -6.588289e+001 4.908692e+001 -9.563178e-001 -1.578880e+002
5445687500 -3.079581e+000 1.292912e+001 -6.491502e+001 5.368946e+001 -6.493102e+001 4.588919e+001 -9.595673e-001 -1.584160e+002
5464431250 -3.070111e+000 1.177636e+001 -6.501942e+001 5.147989e+001 -6.489642e+001 4.828789e+001 -9.662935e-001 -1.589263e+002
5483175000 -3.060213e+000 1.059665e+001 -6.557793e+001 4.769130e+001 -6.495874e+001 4.231300e+001 -9.738341e-001 -1.594739e+002
5501918750 -3.046297e+000 9.433110e+000 -6.591010e+001 5.171647e+001 -6.517660e+001 3.616775e+001 -9.788954e-001 -1.600121e+002
5520662500 -3.038859e+000 8.266091e+000 -6.588475e+001 4.914580e+001 -6.498835e+001 3.346226e+001 -9.871632e-001 -1.605414e+002
5539406250 -3.028251e+000 7.084141e+000 -6.593980e+001 4.884103e+001 -6.502917e+001 2.303112e+001 -9.941049e-001 -1.610850e+002
5558150000 -3.014066e+000 5.921618e+000 -6.626008e+001 4.602731e+001 -6.470821e+001 1.890611e+001 -9.972683e-001 -1.616099e+002
5576893750 -3.005944e+000 4.750765e+000 -6.592771e+001 4.448088e+001 -6.452190e+001 1.664362e+001 -1.003539e+000 -1.621307e+002
5595637500 -2.995079e+000 3.560665e+000 -6.546249e+001 4.808413e+001 -6.476164e+001 1.599782e+001 -1.009860e+000 -1.626754e+002
5614381250 -2.980129e+000 2.375759e+000 -6.552081e+001 4.879004e+001 -6.555341e+001 2.003310e+001 -1.013434e+000 -1.632034e+002
5633125000 -2.972183e+000 1.196859e+000 -6.524128e+001 4.858898e+001 -6.574496e+001 1.629259e+001 -1.021072e+000 -1.637373e+002
5651868750 -2.959627e+000 -3.271110e-003 -6.516354e+001 5.689613e+001 -6.583447e+001 1.208314e+001 -1.027203e+000 -1.642719e+002
5670612500 -2.943982e+000 -1.171665e+000 -6.512255e+001 7.923072e+001 -6.638795e+001 6.677279e+000 -1.031631e+000 -1.647879e+002
5689356250 -2.936893e+000 -2.341398e+000 -6.543278e+001 9.408737e+001 -6.613292e+001 7.267385e+000 -1.040705e+000 -1.653125e+002
5708100000 -2.923517e+000 -3.551518e+000 -6.612685e+001 1.114683e+002 -6.656733e+001 5.603202e+000 -1.047941e+000 -1.658599e+002
5726843750 -2.911335e+000 -4.740100e+000 -6.577426e+001 1.263440e+002 -6.650174e+001 4.019090e+000 -1.052703e+000 -1.663878e+002
5745587500 -2.903763e+000 -5.919443e+000 -6.555004e+001 1.394513e+002 -6.640324e+001 3.268317e+000 -1.060525e+000 -1.669044e+002
5764331250 -2.890554e+000 -7.128016e+000 -6.540900e+001 1.490344e+002 -6.611235e+001 1.220997e+001 -1.067822e+000 -1.674307e+002
5783075000 -2.876130e+000 -8.321263e+000 -6.539602e+001 1.634655e+002 -6.552527e+001 1.664436e+001 -1.071861e+000 -1.679495e+002
5801818750 -2.861191e+000 -9.505299e+000 -6.534547e+001 1.762317e+002 -6.567583e+001 1.659009e+001 -1.082699e+000 -1.684669e+002
5820562500 -2.853879e+000 -1.071535e+001 -6.516759e+001 -1.708198e+002 -6.568930e+001 2.111120e+001 -1.089721e+000 -1.690144e+002
5839306250 -2.839560e+000 -1.194961e+001 -6.503521e+001 -1.563471e+002 -6.586369e+001 2.356126e+001 -1.093703e+000 -1.695455e+002
5858050000 -2.824937e+000 -1.312572e+001 -6.510932e+001 -1.416646e+002 -6.607096e+001 3.141184e+001 -1.103234e+000 -1.700763e+002
5876793750 -2.820267e+000 -1.430436e+001 -6.516838e+001 -1.289961e+002 -6.661950e+001 4.786692e+001 -1.110743e+000 -1.706222e+002
5895537500 -2.807872e+000 -1.554380e+001 -6.530112e+001 -1.124085e+002 -6.650999e+001 6.310273e+001 -1.116419e+000 -1.711404e+002
5914281250 -2.790409e+000 -1.674483e+001 -6.486092e+001 -9.411686e+001 -6.644032e+001 7.950323e+001 -1.126766e+000 -1.716679e+002
5933025000 -2.785312e+000 -1.793159e+001 -6.448280e+001 -8.212128e+001 -6.625208e+001 9.559826e+001 -1.132202e+000 -1.722106e+002
5951768750 -2.767725e+000 -1.917857e+001 -6.445534e+001 -6.797340e+001 -6.709487e+001 1.171013e+002 -1.136961e+000 -1.727337e+002
5970512500 -2.751658e+000 -2.037708e+001 -6.450816e+001 -5.202430e+001 -6.778322e+001 1.459942e+002 -1.145935e+000 -1.732662e+002
5989256250 -2.747951e+000 -2.159216e+001 -6.426532e+001 -3.679931e+001 -6.796010e+001 1.639074e+002 -1.151242e+000 -1.738047e+002
6008000000 -2.729312e+000 -2.284327e+001 -6.415848e+001 -2.216188e+001 -6.800242e+001 1.797693e+002 -1.158220e+000 -1.743335e+002
6026743750 -2.714315e+000 -2.406076e+001 -6.422011e+001 -1.011243e+001 -6.733425e+001 -1.693097e+002 -1.167741e+000 -1.748691e+002
6045487500 -2.712483e+000 -2.526965e+001 -6.385585e+001 6.022546e+000 -6.621797e+001 -1.549858e+002 -1.173510e+000 -1.754108e+002
6064231250 -2.691012e+000 -2.652399e+001 -6.392997e+001 1.528191e+001 -6.651752e+001 -1.382773e+002 -1.181308e+000 -1.759325e+002
6082975000 -2.682680e+000 -2.774581e+001 -6.355717e+001 1.935875e+001 -6.614559e+001 -1.251859e+002 -1.189258e+000 -1.764678e+002
6101718750 -2.676618e+000 -2.899928e+001 -6.320377e+001 1.870241e+001 -6.531798e+001 -1.066106e+002 -1.195305e+000 -1.770122e+002
6120462500 -2.654979e+000 -3.028466e+001 -6.301932e+001 2.011663e+001 -6.604247e+001 -9.635305e+001 -1.204618e+000 -1.775346e+002
6139206250 -2.648411e+000 -3.149698e+001 -6.259715e+001 1.996728e+001 -6.570502e+001 -8.124910e+001 -1.211642e+000 -1.780843e+002
6157950000 -2.641699e+000 -3.276674e+001 -6.255634e+001 1.948827e+001 -6.568359e+001 -6.659831e+001 -1.219402e+000 -1.786221e+002
6176693750 -2.620704e+000 -3.406130e+001 -6.270116e+001 1.854706e+001 -6.547765e+001 -5.086880e+001 -1.230785e+000 -1.791613e+002
6195437500 -2.616537e+000 -3.530837e+001 -6.276055e+001 1.478307e+001 -6.549168e+001 -4.138286e+001 -1.238176e+000 -1.797079e+002
6214181250 -2.606777e+000 -3.661090e+001 -6.286144e+001 1.083041e+001 -6.535487e+001 -2.890441e+001 -1.244125e+000 1.797481e+002
6232925000 -2.595985e+000 -3.787464e+001 -6.302589e+001 8.161266e+000 -6.502937e+001 -1.428471e+001 -1.251674e+000 1.792082e+002
6251668750 -2.585623e+000 -3.914253e+001 -6.289187e+001 6.092799e+000 -6.506007e+001 1.226097e+000 -1.259212e+000 1.786597e+002
6270412500 -2.579524e+000 -4.044080e+001 -6.384823e+001 6.960727e+000 -6.508945e+001 1.466417e+001 -1.267668e+000 1.781524e+002
6289156250 -2.562541e+000 -4.172397e+001 -6.396954e+001 9.980917e+000 -6.495432e+001 2.169844e+001 -1.278965e+000 1.775876e+002
6307900000 -2.554180e+000 -4.299300e+001 -6.390227e+001 7.741086e+000 -6.423836e+001 2.009633e+001 -1.283482e+000 1.770106e+002
6326643750 -2.547715e+000 -4.428356e+001 -6.354269e+001 5.642894e+000 -6.449019e+001 1.530052e+001 -1.288504e+000 1.764980e+002
6345387500 -2.539657e+000 -4.556750e+001 -6.327781e+001 3.999927e+000 -6.469257e+001 8.351429e+000 -1.299305e+000 1.759260e+002
6364131250 -2.531060e+000 -4.683650e+001 -6.332624e+001 5.342416e+000 -6.467945e+001 6.786344e+000 -1.305197e+000 1.753618e+002
6382875000 -2.526178e+000 -4.813191e+001 -6.345681e+001 4.153031e+000 -6.352950e+001 -2.066624e+000 -1.311489e+000 1.748443e+002
6401618750 -2.516950e+000 -4.942876e+001 -6.360042e+001 -2.804317e+000 -6.284779e+001 -9.840110e+000 -1.325229e+000 1.742645e+002
6420362500 -2.508974e+000 -5.070856e+001 -6.317885e+001 -2.784506e+000 -6.285781e+001 -1.237321e+001 -1.330889e+000 1.737044e+002
6439106250 -2.505292e+000 -5.202723e+001 -6.291449e+001 -5.600857e+000 -6.288805e+001 -1.435397e+001 -1.337886e+000 1.731930e+002
6457850000 -2.497108e+000 -5.331291e+001 -6.265506e+001 -8.084907e+000 -6.303026e+001 -1.394744e+001 -1.352496e+000 1.726234e+002
6476593750 -2.486311e+000 -5.462954e+001 -6.264656e+001 -9.105492e+000 -6.293024e+001 -1.536687e+001 -1.356301e+000 1.720669e+002
6495337500 -2.483531e+000 -5.593761e+001 -6.311412e+001 -1.018998e+001 -6.258863e+001 -2.009827e+001 -1.364630e+000 1.715404e+002
6514081250 -2.474449e+000 -5.723520e+001 -6.331303e+001 -1.245961e+001 -6.302379e+001 -2.093667e+001 -1.378824e+000 1.709600e+002
6532825000 -2.470535e+000 -5.856081e+001 -6.355459e+001 -1.635820e+001 -6.325715e+001 -2.639400e+001 -1.381631e+000 1.704033e+002
6551568750 -2.468791e+000 -5.986708e+001 -6.383257e+001 -2.089227e+001 -6.260995e+001 -2.700780e+001 -1.389963e+000 1.698723e+002
6570312500 -2.460381e+000 -6.119316e+001 -6.363739e+001 -2.245049e+001 -6.238882e+001 -3.002351e+001 -1.402870e+000 1.692901e+002
6589056250 -2.454812e+000 -6.253110e+001 -6.374886e+001 -2.363486e+001 -6.237526e+001 -3.389476e+001 -1.405418e+000 1.687283e+002
6607800000 -2.452680e+000 -6.382849e+001 -6.367931e+001 -2.839457e+001 -6.268000e+001 -3.626104e+001 -1.415023e+000 1.681915e+002
6626543750 -2.448156e+000 -6.513237e+001 -6.342527e+001 -2.741773e+001 -6.252892e+001 -3.598790e+001 -1.425177e+000 1.675858e+002
6645287500 -2.451735e+000 -6.647164e+001 -6.360671e+001 -2.445608e+001 -6.249006e+001 -3.792245e+001 -1.429069e+000 1.670390e+002
6664031250 -2.445325e+000 -6.783198e+001 -6.312457e+001 -2.589616e+001 -6.246959e+001 -4.109039e+001 -1.442570e+000 1.664911e+002
6682775000 -2.445529e+000 -6.914935e+001 -6.303103e+001 -2.662851e+001 -6.222036e+001 -4.368617e+001 -1.451671e+000 1.658846e+002
6701518750 -2.442809e+000 -7.049132e+001 -6.207237e+001 -3.201711e+001 -6.217720e+001 -4.541009e+001 -1.456631e+000 1.653110e+002
6720262500 -2.445596e+000 -7.184516e+001 -6.203680e+001 -3.619990e+001 -6.197852e+001 -4.888187e+001 -1.465251e+000 1.647745e+002
6739006250 -2.441977e+000 -7.320507e+001 -6.200486e+001 -3.674744e+001 -6.219682e+001 -5.008076e+001 -1.477123e+000 1.641868e+002
6757750000 -2.442628e+000 -7.456572e+001 -6.202668e+001 -4.055994e+001 -6.196144e+001 -5.021976e+001 -1.483801e+000 1.636141e+002
6776493750 -2.443259e+000 -7.591877e+001 -6.219466e+001 -4.255643e+001 -6.163932e+001 -4.663171e+001 -1.494913e+000 1.630641e+002
6795237500 -2.441625e+000 -7.730410e+001 -6.201719e+001 -4.552304e+001 -6.155811e+001 -4.776882e+001 -1.504371e+000 1.624693e+002
6813981250 -2.442569e+000 -7.867680e+001 -6.194068e+001 -4.697353e+001 -6.156581e+001 -4.800269e+001 -1.511477e+000 1.619052e+002
6832725000 -2.446681e+000 -8.004232e+001 -6.166383e+001 -4.470427e+001 -6.152416e+001 -4.771292e+001 -1.519719e+000 1.613445e+002
6851468750 -2.448512e+000 -8.143394e+001 -6.160191e+001 -4.834087e+001 -6.127084e+001 -5.220873e+001 -1.528605e+000 1.607336e+002
6870212500 -2.451442e+000 -8.282083e+001 -6.187700e+001 -5.073437e+001 -6.135294e+001 -5.276920e+001 -1.535092e+000 1.601752e+002
6888956250 -2.457951e+000 -8.420810e+001 -6.223560e+001 -5.326388e+001 -6.115340e+001 -5.506581e+001 -1.543230e+000 1.596043e+002
6907700000 -2.461632e+000 -8.561665e+001 -6.234035e+001 -5.711545e+001 -6.086983e+001 -5.746699e+001 -1.553380e+000 1.589917e+002
6926443750 -2.467169e+000 -8.701829e+001 -6.179674e+001 -5.469376e+001 -6.109596e+001 -5.815466e+001 -1.558472e+000 1.584208e+002
6945187500 -2.476596e+000 -8.841860e+001 -6.181882e+001 -5.476493e+001 -6.073792e+001 -6.090704e+001 -1.567287e+000 1.578247e+002
6963931250 -2.479266e+000 -8.984075e+001 -6.170480e+001 -5.562491e+001 -6.071881e+001 -6.113636e+001 -1.575160e+000 1.572267e+002
6982675000 -2.489917e+000 -9.125640e+001 -6.170066e+001 -5.590548e+001 -6.082825e+001 -6.205754e+001 -1.580525e+000 1.566482e+002
7001418750 -2.500372e+000 -9.267859e+001 -6.144693e+001 -5.853144e+001 -6.091041e+001 -6.161089e+001 -1.593894e+000 1.560775e+002
7020162500 -2.504599e+000 -9.411036e+001 -6.149844e+001 -6.070760e+001 -6.090621e+001 -6.259523e+001 -1.603684e+000 1.554875e+002
7038906250 -2.517922e+000 -9.553004e+001 -6.178426e+001 -6.092858e+001 -6.091992e+001 -6.155959e+001 -1.606730e+000 1.549061e+002
7057650000 -2.528017e+000 -9.696698e+001 -6.227792e+001 -6.262685e+001 -6.123204e+001 -6.523430e+001 -1.620383e+000 1.543327e+002
7076393750 -2.534149e+000 -9.842120e+001 -6.229609e+001 -6.596972e+001 -6.160520e+001 -6.707691e+001 -1.628366e+000 1.537352e+002
7095137500 -2.551460e+000 -9.985177e+001 -6.255543e+001 -6.717149e+001 -6.149979e+001 -6.783159e+001 -1.632563e+000 1.531517e+002
7113881250 -2.561926e+000 -1.013095e+002 -6.260348e+001 -6.820589e+001 -6.195996e+001 -7.065336e+001 -1.645890e+000 1.525705e+002
7132625000 -2.570700e+000 -1.027654e+002 -6.280381e+001 -6.942898e+001 -6.167487e+001 -7.248339e+001 -1.651780e+000 1.519691e+002
7151368750 -2.588273e+000 -1.041998e+002 -6.271236e+001 -7.080158e+001 -6.162216e+001 -7.785522e+001 -1.659928e+000 1.513963e+002
7170112500 -2.602872e+000 -1.056768e+002 -6.273584e+001 -7.436030e+001 -6.168559e+001 -7.763010e+001 -1.672415e+000 1.508135e+002
7188856250 -2.613654e+000 -1.071439e+002 -6.292285e+001 -7.512315e+001 -6.168202e+001 -7.948189e+001 -1.677833e+000 1.502009e+002
7207600000 -2.635237e+000 -1.085978e+002 -6.287561e+001 -7.367842e+001 -6.155886e+001 -8.091393e+001 -1.685213e+000 1.496399e+002
7226343750 -2.652129e+000 -1.101004e+002 -6.321024e+001 -7.466145e+001 -6.191075e+001 -8.378423e+001 -1.698349e+000 1.490451e+002
7245087500 -2.667835e+000 -1.115548e+002 -6.307760e+001 -7.713921e+001 -6.212785e+001 -8.581647e+001 -1.704924e+000 1.484384e+002
7263831250 -2.689091e+000 -1.130237e+002 -6.298931e+001 -7.804166e+001 -6.217424e+001 -9.163780e+001 -1.713627e+000 1.478695e+002
7282575000 -2.708080e+000 -1.145377e+002 -6.314670e+001 -7.737489e+001 -6.248179e+001 -9.133042e+001 -1.726395e+000 1.472737e+002
7301318750 -2.726732e+000 -1.160146e+002 -6.321823e+001 -7.927827e+001 -6.232745e+001 -9.689265e+001 -1.732301e+000 1.466615e+002
7320062500 -2.750558e+000 -1.175224e+002 -6.298246e+001 -7.985384e+001 -6.318282e+001 -9.629993e+001 -1.742225e+000 1.460860e+002
7338806250 -2.771849e+000 -1.190281e+002 -6.310297e+001 -7.561152e+001 -6.342025e+001 -9.890538e+001 -1.753895e+000 1.454793e+002
7357550000 -2.793409e+000 -1.205155e+002 -6.282110e+001 -8.023609e+001 -6.344707e+001 -1.000637e+002 -1.760773e+000 1.448778e+002
7376293750 -2.818331e+000 -1.220494e+002 -6.283688e+001 -8.148893e+001 -6.345858e+001 -9.863005e+001 -1.774066e+000 1.443223e+002
7395037500 -2.843709e+000 -1.235727e+002 -6.318740e+001 -7.879361e+001 -6.341517e+001 -9.899147e+001 -1.787975e+000 1.437333e+002
7413781250 -2.866670e+000 -1.250783e+002 -6.294593e+001 -7.844885e+001 -6.369599e+001 -9.907687e+001 -1.798102e+000 1.430969e+002
7432525000 -2.893652e+000 -1.266246e+002 -6.318237e+001 -8.105291e+001 -6.398513e+001 -1.042497e+002 -1.799287e+000 1.425273e+002
7451268750 -2.922686e+000 -1.281546e+002 -6.327467e+001 -8.425664e+001 -6.406299e+001 -1.056600e+002 -1.812840e+000 1.419301e+002
7470012500 -2.950166e+000 -1.296895e+002 -6.292112e+001 -8.628201e+001 -6.407401e+001 -1.101875e+002 -1.826542e+000 1.413358e+002
7488756250 -2.981446e+000 -1.312720e+002 -6.248464e+001 -8.894024e+001 -6.421994e+001 -1.066351e+002 -1.832243e+000 1.407361e+002
7507500000 -3.011383e+000 -1.327928e+002 -6.226178e+001 -9.416193e+001 -6.401404e+001 -1.069081e+002 -1.842705e+000 1.401293e+002
7526243750 -3.041451e+000 -1.343595e+002 -6.250507e+001 -9.464143e+001 -6.422205e+001 -1.077626e+002 -1.855060e+000 1.395285e+002
7544987500 -3.073452e+000 -1.359592e+002 -6.251743e+001 -9.551778e+001 -6.387563e+001 -1.088282e+002 -1.859009e+000 1.389185e+002
7563731250 -3.106984e+000 -1.375036e+002 -6.249043e+001 -9.681056e+001 -6.388121e+001 -1.103558e+002 -1.870618e+000 1.382948e+002
7582475000 -3.141783e+000 -1.391085e+002 -6.272829e+001 -9.945396e+001 -6.402212e+001 -1.068108e+002 -1.880248e+000 1.376915e+002
7601218750 -3.176780e+000 -1.407198e+002 -6.280006e+001 -9.881081e+001 -6.381643e+001 -1.090820e+002 -1.886724e+000 1.370845e+002
7619962500 -3.213778e+000 -1.422731e+002 -6.284027e+001 -9.816946e+001 -6.387770e+001 -1.104404e+002 -1.899821e+000 1.364827e+002
7638706250 -3.252417e+000 -1.439057e+002 -6.294759e+001 -1.016663e+002 -6.453278e+001 -1.125936e+002 -1.907684e+000 1.358757e+002
7657450000 -3.289225e+000 -1.455206e+002 -6.355179e+001 -9.458688e+001 -6.403065e+001 -1.080474e+002 -1.917757e+000 1.352682e+002
7676193750 -3.327593e+000 -1.471147e+002 -6.346655e+001 -9.458307e+001 -6.424889e+001 -1.046939e+002 -1.928875e+000 1.346423e+002
7694937500 -3.368858e+000 -1.487580e+002 -6.378340e+001 -9.827396e+001 -6.390525e+001 -1.049342e+002 -1.939108e+000 1.340486e+002
7713681250 -3.406847e+000 -1.503948e+002 -6.381034e+001 -9.871870e+001 -6.385805e+001 -1.059199e+002 -1.950681e+000 1.334280e+002
7732425000 -3.451889e+000 -1.519998e+002 -6.369889e+001 -9.747814e+001 -6.408760e+001 -1.044336e+002 -1.960025e+000 1.328025e+002
7751168750 -3.493244e+000 -1.536659e+002 -6.374517e+001 -9.279836e+001 -6.351049e+001 -1.086080e+002 -1.965782e+000 1.322015e+002
7769912500 -3.536283e+000 -1.553272e+002 -6.361045e+001 -9.176414e+001 -6.346815e+001 -1.097836e+002 -1.978307e+000 1.315894e+002
7788656250 -3.584207e+000 -1.569624e+002 -6.383583e+001 -8.954704e+001 -6.331546e+001 -1.115094e+002 -1.987292e+000 1.309686e+002
7807400000 -3.628609e+000 -1.586276e+002 -6.371031e+001 -9.136414e+001 -6.326667e+001 -1.165763e+002 -1.991256e+000 1.303730e+002
7826143750 -3.673737e+000 -1.602931e+002 -6.347131e+001 -9.511703e+001 -6.364828e+001 -1.185836e+002 -2.003246e+000 1.297131e+002
7844887500 -3.727076e+000 -1.619589e+002 -6.402588e+001 -9.638052e+001 -6.330787e+001 -1.229955e+002 -2.009320e+000 1.291277e+002
7863631250 -3.773503e+000 -1.636626e+002 -6.398556e+001 -9.519749e+001 -6.324041e+001 -1.282628e+002 -2.024163e+000 1.285075e+002
7882375000 -3.821696e+000 -1.653461e+002 -6.431676e+001 -9.333631e+001 -6.326400e+001 -1.427634e+002 -2.035247e+000 1.278508e+002
7901118750 -3.877085e+000 -1.670380e+002 -6.486432e+001 -9.246043e+001 -6.305718e+001 -1.561056e+002 -2.037901e+000 1.272019e+002
7919862500 -3.924417e+000 -1.687470e+002 -6.516862e+001 -9.428739e+001 -6.262807e+001 -1.776642e+002 -2.049745e+000 1.266176e+002
7938606250 -3.977051e+000 -1.704431e+002 -6.550518e+001 -9.314112e+001 -6.253667e+001 1.657306e+002 -2.063432e+000 1.259597e+002
7957350000 -4.036347e+000 -1.721705e+002 -6.567061e+001 -8.820255e+001 -6.245963e+001 1.489423e+002 -2.065979e+000 1.253408e+002
7976093750 -4.086114e+000 -1.739078e+002 -6.560439e+001 -8.923301e+001 -6.230443e+001 1.308572e+002 -2.080281e+000 1.247546e+002
7994837500 -4.143432e+000 -1.756316e+002 -6.597878e+001 -8.968366e+001 -6.285381e+001 1.127163e+002 -2.094607e+000 1.241123e+002
8013581250 -4.203691e+000 -1.773753e+002 -6.600536e+001 -9.035577e+001 -6.264545e+001 9.270782e+001 -2.098861e+000 1.234717e+002
8032325000 -4.254532e+000 -1.791234e+002 -6.660954e+001 -9.212671e+001 -6.264723e+001 7.757883e+001 -2.112710e+000 1.228743e+002
8051068750 -4.316837e+000 1.791303e+002 -6.680595e+001 -9.210648e+001 -6.312614e+001 6.375878e+001 -2.125746e+000 1.221973e+002
8069812500 -4.378818e+000 1.773388e+002 -6.686259e+001 -9.166444e+001 -6.282884e+001 4.921271e+001 -2.131939e+000 1.215591e+002
8088556250 -4.432564e+000 1.755479e+002 -6.634279e+001 -9.959058e+001 -6.292680e+001 2.961433e+001 -2.146068e+000 1.209575e+002
8107300000 -4.495705e+000 1.737839e+002 -6.638377e+001 -1.041176e+002 -6.291127e+001 9.798934e+000 -2.157887e+000 1.202889e+002
8126043750 -4.559553e+000 1.719755e+002 -6.637704e+001 -1.038340e+002 -6.310498e+001 -8.979431e+000 -2.160569e+000 1.196520e+002
8144787500 -4.615153e+000 1.701853e+002 -6.644861e+001 -1.053023e+002 -6.313474e+001 -2.750229e+001 -2.174094e+000 1.190611e+002
8163531250 -4.682286e+000 1.683952e+002 -6.705815e+001 -1.041361e+002 -6.367019e+001 -4.446778e+001 -2.189786e+000 1.183885e+002
8182275000 -4.748881e+000 1.665484e+002 -6.712862e+001 -1.072544e+002 -6.376149e+001 -5.930620e+001 -2.198408e+000 1.177503e+002
8201018750 -4.807143e+000 1.647137e+002 -6.717751e+001 -1.111770e+002 -6.389626e+001 -7.204194e+001 -2.211621e+000 1.171267e+002
8219762500 -4.873577e+000 1.628815e+002 -6.703588e+001 -1.101232e+002 -6.390975e+001 -8.886118e+001 -2.225183e+000 1.164497e+002
8238506250 -4.939922e+000 1.610008e+002 -6.715060e+001 -1.026062e+002 -6.407315e+001 -1.037853e+002 -2.234736e+000 1.158142e+002
8257250000 -5.002735e+000 1.591590e+002 -6.709039e+001 -1.027087e+002 -6.366544e+001 -1.183061e+002 -2.248456e+000 1.151966e+002
8275993750 -5.070845e+000 1.572830e+002 -6.656787e+001 -1.019499e+002 -6.395909e+001 -1.271375e+002 -2.260443e+000 1.145179e+002
8294737500 -5.137840e+000 1.553701e+002 -6.653856e+001 -1.002359e+002 -6.387816e+001 -1.328709e+002 -2.269556e+000 1.138934e+002
8313481250 -5.202585e+000 1.534893e+002 -6.619141e+001 -9.978743e+001 -6.392402e+001 -1.356930e+002 -2.282662e+000 1.132397e+002
8332225000 -5.269808e+000 1.515816e+002 -6.593645e+001 -9.769904e+001 -6.407319e+001 -1.372898e+002 -2.296726e+000 1.125815e+002
8350968750 -5.334888e+000 1.496652e+002 -6.584291e+001 -9.640830e+001 -6.426223e+001 -1.324908e+002 -2.308764e+000 1.119374e+002
8369712500 -5.402376e+000 1.477589e+002 -6.539158e+001 -9.389697e+001 -6.492493e+001 -1.290844e+002 -2.326215e+000 1.112947e+002
8388456250 -5.471766e+000 1.458230e+002 -6.542349e+001 -9.988588e+001 -6.505035e+001 -1.271569e+002 -2.340726e+000 1.105978e+002
8407200000 -5.539182e+000 1.438805e+002 -6.544940e+001 -9.879517e+001 -6.552292e+001 -1.146573e+002 -2.353361e+000 1.099555e+002
8425943750 -5.605733e+000 1.419399e+002 -6.521577e+001 -9.567948e+001 -6.522620e+001 -9.572895e+001 -2.368382e+000 1.092847e+002
8444687500 -5.673946e+000 1.399608e+002 -6.525003e+001 -9.546601e+001 -6.518910e+001 -7.820457e+001 -2.379769e+000 1.086083e+002
8463431250 -5.740370e+000 1.379817e+002 -6.467959e+001 -9.228102e+001 -6.535838e+001 -6.129228e+001 -2.390593e+000 1.079743e+002
8482175000 -5.806540e+000 1.360069e+002 -6.422310e+001 -9.241235e+001 -6.494160e+001 -4.403225e+001 -2.407281e+000 1.073193e+002
8500918750 -5.872229e+000 1.339897e+002 -6.416055e+001 -9.034824e+001 -6.496997e+001 -2.134059e+001 -2.420391e+000 1.066378e+002
8519662500 -5.937570e+000 1.319907e+002 -6.400983e+001 -9.031656e+001 -6.536116e+001 1.808591e+000 -2.431370e+000 1.059875e+002
8538406250 -6.004377e+000 1.299633e+002 -6.421994e+001 -8.647343e+001 -6.525657e+001 1.785032e+001 -2.450800e+000 1.053143e+002
8557150000 -6.069866e+000 1.279110e+002 -6.417645e+001 -8.317368e+001 -6.521307e+001 3.828424e+001 -2.465551e+000 1.046223e+002
8575893750 -6.137229e+000 1.258768e+002 -6.402970e+001 -8.218587e+001 -6.501400e+001 5.910951e+001 -2.478222e+000 1.039625e+002
8594637500 -6.202479e+000 1.238220e+002 -6.368391e+001 -8.202834e+001 -6.416336e+001 7.849256e+001 -2.497190e+000 1.032796e+002
8613381250 -6.266525e+000 1.217330e+002 -6.368822e+001 -8.392766e+001 -6.421743e+001 9.092268e+001 -2.511438e+000 1.025866e+002
8632125000 -6.331820e+000 1.196737e+002 -6.408721e+001 -8.266058e+001 -6.446758e+001 1.056892e+002 -2.523474e+000 1.019181e+002
8650868750 -6.393900e+000 1.175718e+002 -6.464381e+001 -8.428811e+001 -6.416719e+001 1.273161e+002 -2.542069e+000 1.012172e+002
8669612500 -6.452854e+000 1.154782e+002 -6.464342e+001 -8.997601e+001 -6.426027e+001 1.471559e+002 -2.555013e+000 1.005132e+002
8688356250 -6.516001e+000 1.133909e+002 -6.450053e+001 -8.966734e+001 -6.425652e+001 1.637580e+002 -2.568806e+000 9.984048e+001
8707100000 -6.576291e+000 1.112715e+002 -6.428981e+001 -9.019287e+001 -6.381238e+001 1.768553e+002 -2.590451e+000 9.914306e+001
8725843750 -6.633940e+000 1.091462e+002 -6.410948e+001 -9.062247e+001 -6.367554e+001 -1.686956e+002 -2.606005e+000 9.841671e+001
8744587500 -6.694142e+000 1.070147e+002 -6.392094e+001 -9.139309e+001 -6.397481e+001 -1.482474e+002 -2.621395e+000 9.773641e+001
8763331250 -6.746764e+000 1.048659e+002 -6.367006e+001 -9.117030e+001 -6.382797e+001 -1.302628e+002 -2.639948e+000 9.702148e+001
8782075000 -6.801886e+000 1.027053e+002 -6.378003e+001 -8.902021e+001 -6.366652e+001 -1.158252e+002 -2.651279e+000 9.628970e+001
8800818750 -6.857096e+000 1.005287e+002 -6.373131e+001 -8.889670e+001 -6.303006e+001 -1.013339e+002 -2.664680e+000 9.559352e+001
8819562500 -6.905895e+000 9.834856e+001 -6.291495e+001 -8.688739e+001 -6.267492e+001 -8.641441e+001 -2.682830e+000 9.489703e+001
8838306250 -6.959016e+000 9.615649e+001 -6.273798e+001 -8.517374e+001 -6.213735e+001 -7.779210e+001 -2.697457e+000 9.416951e+001
8857050000 -7.008347e+000 9.394865e+001 -6.245044e+001 -8.460572e+001 -6.178613e+001 -7.589148e+001 -2.712117e+000 9.346378e+001
8875793750 -7.051013e+000 9.175242e+001 -6.218495e+001 -8.129538e+001 -6.182839e+001 -7.279151e+001 -2.732644e+000 9.272025e+001
8894537500 -7.100353e+000 8.955653e+001 -6.183472e+001 -8.133970e+001 -6.177260e+001 -7.329604e+001 -2.747857e+000 9.197713e+001
8913281250 -7.144573e+000 8.732703e+001 -6.170279e+001 -8.159019e+001 -6.139328e+001 -7.482853e+001 -2.764878e+000 9.125404e+001
8932025000 -7.184445e+000 8.512471e+001 -6.138119e+001 -8.335543e+001 -6.085071e+001 -7.982391e+001 -2.785277e+000 9.051350e+001
8950768750 -7.229585e+000 8.288011e+001 -6.097855e+001 -8.138644e+001 -6.024735e+001 -8.574823e+001 -2.797573e+000 8.976730e+001
8969512500 -7.265742e+000 8.063057e+001 -6.067173e+001 -7.924264e+001 -6.007443e+001 -8.433606e+001 -2.812137e+000 8.903537e+001
8988256250 -7.299245e+000 7.840099e+001 -6.028307e+001 -7.961206e+001 -5.971757e+001 -8.311131e+001 -2.828060e+000 8.827259e+001
9007000000 -7.339326e+000 7.614932e+001 -6.005023e+001 -7.936691e+001 -5.962810e+001 -8.434843e+001 -2.840678e+000 8.751885e+001
9025743750 -7.367651e+000 7.386945e+001 -5.955936e+001 -8.005748e+001 -5.949196e+001 -8.457743e+001 -2.857636e+000 8.678136e+001
9044487500 -7.397091e+000 7.166239e+001 -5.912579e+001 -8.063181e+001 -5.887849e+001 -7.831921e+001 -2.874934e+000 8.600749e+001
9063231250 -7.429136e+000 6.938643e+001 -5.829352e+001 -8.295850e+001 -5.824311e+001 -7.612955e+001 -2.890308e+000 8.524920e+001
9081975000 -7.449541e+000 6.712564e+001 -5.733531e+001 -8.279110e+001 -5.813426e+001 -7.738481e+001 -2.909738e+000 8.450051e+001
9100718750 -7.475487e+000 6.489120e+001 -5.686906e+001 -8.303017e+001 -5.773065e+001 -7.983834e+001 -2.927522e+000 8.369212e+001
9119462500 -7.500153e+000 6.259321e+001 -5.649803e+001 -8.283562e+001 -5.739102e+001 -7.901469e+001 -2.941647e+000 8.292293e+001
9138206250 -7.514067e+000 6.032872e+001 -5.621635e+001 -8.360585e+001 -5.715561e+001 -8.000739e+001 -2.959651e+000 8.215314e+001
9156950000 -7.535066e+000 5.810223e+001 -5.596579e+001 -8.394858e+001 -5.674224e+001 -8.066518e+001 -2.975955e+000 8.136627e+001
9175693750 -7.551254e+000 5.578706e+001 -5.563836e+001 -8.366746e+001 -5.608167e+001 -8.344395e+001 -2.989728e+000 8.059550e+001
9194437500 -7.559978e+000 5.352462e+001 -5.518123e+001 -8.561327e+001 -5.561617e+001 -8.375872e+001 -3.009582e+000 7.982938e+001
9213181250 -7.576507e+000 5.128957e+001 -5.464394e+001 -8.537982e+001 -5.535498e+001 -8.457376e+001 -3.027604e+000 7.904033e+001
9231925000 -7.585761e+000 4.900282e+001 -5.426548e+001 -8.532166e+001 -5.502339e+001 -8.611192e+001 -3.042929e+000 7.825491e+001
9250668750 -7.588080e+000 4.678303e+001 -5.397483e+001 -8.583385e+001 -5.478756e+001 -8.705015e+001 -3.064442e+000 7.747087e+001
9269412500 -7.598782e+000 4.452359e+001 -5.368002e+001 -8.709882e+001 -5.451509e+001 -8.821403e+001 -3.081624e+000 7.665087e+001
9288156250 -7.598537e+000 4.222656e+001 -5.321622e+001 -8.963905e+001 -5.424047e+001 -9.019131e+001 -3.097739e+000 7.584920e+001
9306900000 -7.595992e+000 4.001266e+001 -5.274868e+001 -9.104143e+001 -5.379082e+001 -9.088714e+001 -3.117776e+000 7.505853e+001
9325643750 -7.598064e+000 3.776072e+001 -5.250112e+001 -9.184455e+001 -5.318389e+001 -9.202017e+001 -3.134686e+000 7.423374e+001
9344387500 -7.590656e+000 3.549005e+001 -5.222653e+001 -9.257590e+001 -5.292044e+001 -9.207626e+001 -3.149172e+000 7.343676e+001
9363131250 -7.586180e+000 3.330217e+001 -5.192656e+001 -9.381565e+001 -5.253796e+001 -9.363821e+001 -3.170345e+000 7.262287e+001
9381875000 -7.583831e+000 3.107032e+001 -5.162683e+001 -9.491299e+001 -5.223466e+001 -9.501041e+001 -3.190696e+000 7.179803e+001
9400618750 -7.568690e+000 2.881710e+001 -5.108110e+001 -9.624207e+001 -5.163165e+001 -9.611842e+001 -3.209061e+000 7.098425e+001
9419362500 -7.558713e+000 2.665505e+001 -5.073738e+001 -9.772493e+001 -5.133873e+001 -9.749982e+001 -3.231769e+000 7.014167e+001
9438106250 -7.547992e+000 2.441577e+001 -5.041052e+001 -9.900967e+001 -5.085800e+001 -9.797759e+001 -3.248781e+000 6.928717e+001
9456850000 -7.526884e+000 2.222147e+001 -4.993753e+001 -9.983580e+001 -5.054734e+001 -9.903371e+001 -3.265240e+000 6.846715e+001
9475593750 -7.514503e+000 2.006051e+001 -4.959469e+001 -1.002122e+002 -5.018270e+001 -1.004184e+002 -3.287554e+000 6.762473e+001
9494337500 -7.499082e+000 1.783694e+001 -4.922433e+001 -1.007005e+002 -4.989220e+001 -1.020767e+002 -3.305132e+000 6.678197e+001
9513081250 -7.475294e+000 1.564104e+001 -4.888909e+001 -1.014866e+002 -4.954688e+001 -1.033752e+002 -3.321992e+000 6.593983e+001
9531825000 -7.459157e+000 1.350497e+001 -4.852222e+001 -1.022757e+002 -4.908520e+001 -1.039313e+002 -3.344395e+000 6.509966e+001
9550568750 -7.438254e+000 1.131643e+001 -4.816446e+001 -1.031047e+002 -4.864909e+001 -1.053754e+002 -3.361896e+000 6.423867e+001
9569312500 -7.412761e+000 9.172978e+000 -4.780542e+001 -1.038758e+002 -4.825456e+001 -1.064660e+002 -3.382222e+000 6.340612e+001
9588056250 -7.395368e+000 7.037604e+000 -4.741938e+001 -1.048801e+002 -4.778081e+001 -1.074026e+002 -3.405598e+000 6.252628e+001
9606800000 -7.371988e+000 4.876276e+000 -4.709048e+001 -1.054727e+002 -4.738393e+001 -1.085134e+002 -3.424412e+000 6.165330e+001
9625543750 -7.345219e+000 2.751926e+000 -4.666784e+001 -1.062282e+002 -4.702712e+001 -1.099944e+002 -3.444827e+000 6.077210e+001
9644287500 -7.322673e+000 6.598635e-001 -4.624825e+001 -1.085489e+002 -4.651258e+001 -1.113739e+002 -3.469006e+000 5.988700e+001
9663031250 -7.294311e+000 -1.488830e+000 -4.590033e+001 -1.103881e+002 -4.610611e+001 -1.118250e+002 -3.487647e+000 5.898959e+001
9681775000 -7.267644e+000 -3.580249e+000 -4.556569e+001 -1.117034e+002 -4.563721e+001 -1.127681e+002 -3.509744e+000 5.811940e+001
9700518750 -7.244926e+000 -5.659354e+000 -4.514563e+001 -1.133465e+002 -4.520730e+001 -1.139773e+002 -3.536020e+000 5.722021e+001
9719262500 -7.217471e+000 -7.770297e+000 -4.475117e+001 -1.146038e+002 -4.483472e+001 -1.153702e+002 -3.556278e+000 5.632912e+001
9738006250 -7.189540e+000 -9.845301e+000 -4.435225e+001 -1.157503e+002 -4.441568e+001 -1.166652e+002 -3.583073e+000 5.542956e+001
9756750000 -7.166110e+000 -1.191777e+001 -4.395650e+001 -1.176729e+002 -4.400887e+001 -1.181014e+002 -3.611520e+000 5.450639e+001
9775493750 -7.134360e+000 -1.400092e+001 -4.345269e+001 -1.192973e+002 -4.361728e+001 -1.192042e+002 -3.631870e+000 5.357674e+001
9794237500 -7.106656e+000 -1.607445e+001 -4.305325e+001 -1.204369e+002 -4.324920e+001 -1.205413e+002 -3.654161e+000 5.266045e+001
9812981250 -7.078062e+000 -1.812878e+001 -4.267249e+001 -1.224061e+002 -4.287063e+001 -1.217854e+002 -3.680049e+000 5.173830e+001
9831725000 -7.055251e+000 -2.016512e+001 -4.234642e+001 -1.240420e+002 -4.247739e+001 -1.237193e+002 -3.706945e+000 5.080257e+001
9850468750 -7.027168e+000 -2.222800e+001 -4.194899e+001 -1.254920e+002 -4.203913e+001 -1.252608e+002 -3.730769e+000 4.988206e+001
9869212500 -6.997343e+000 -2.426027e+001 -4.151181e+001 -1.268583e+002 -4.164244e+001 -1.266905e+002 -3.757733e+000 4.894141e+001
9887956250 -6.974222e+000 -2.623565e+001 -4.113707e+001 -1.281470e+002 -4.119754e+001 -1.283018e+002 -3.785097e+000 4.798923e+001
9906700000 -6.954212e+000 -2.830493e+001 -4.075166e+001 -1.298582e+002 -4.080301e+001 -1.298884e+002 -3.813942e+000 4.703213e+001
9925443750 -6.925821e+000 -3.032986e+001 -4.038038e+001 -1.315330e+002 -4.029765e+001 -1.313752e+002 -3.842814e+000 4.607632e+001
9944187500 -6.909475e+000 -3.230160e+001 -4.000983e+001 -1.330535e+002 -3.983348e+001 -1.332440e+002 -3.873794e+000 4.512487e+001
9962931250 -6.890132e+000 -3.436639e+001 -3.962943e+001 -1.348622e+002 -3.940753e+001 -1.350752e+002 -3.904140e+000 4.412942e+001
9981675000 -6.866706e+000 -3.635763e+001 -3.922345e+001 -1.365856e+002 -3.905116e+001 -1.367982e+002 -3.932883e+000 4.313554e+001
10000418750 -6.853861e+000 -3.832717e+001 -3.878232e+001 -1.381998e+002 -3.868024e+001 -1.385504e+002 -3.962382e+000 4.214939e+001
10019162500 -6.836445e+000 -4.038673e+001 -3.837668e+001 -1.399848e+002 -3.829548e+001 -1.401270e+002 -3.995404e+000 4.114671e+001
10037906250 -6.817608e+000 -4.235023e+001 -3.799230e+001 -1.419467e+002 -3.784755e+001 -1.417128e+002 -4.027817e+000 4.015160e+001
10056650000 -6.811300e+000 -4.434186e+001 -3.760210e+001 -1.436823e+002 -3.744599e+001 -1.432659e+002 -4.061556e+000 3.914676e+001
10075393750 -6.798422e+000 -4.640578e+001 -3.719113e+001 -1.453848e+002 -3.704697e+001 -1.449885e+002 -4.097364e+000 3.810007e+001
10094137500 -6.786479e+000 -4.835294e+001 -3.677521e+001 -1.468254e+002 -3.662672e+001 -1.469794e+002 -4.129817e+000 3.707095e+001
10112881250 -6.789288e+000 -5.034013e+001 -3.634150e+001 -1.487505e+002 -3.624056e+001 -1.488232e+002 -4.165222e+000 3.602741e+001
10131625000 -6.779871e+000 -5.237450e+001 -3.590919e+001 -1.506727e+002 -3.583144e+001 -1.507201e+002 -4.201356e+000 3.497612e+001
10150368750 -6.776416e+000 -5.432314e+001 -3.550357e+001 -1.525381e+002 -3.541845e+001 -1.526400e+002 -4.236580e+000 3.393067e+001
10169112500 -6.787352e+000 -5.634026e+001 -3.511531e+001 -1.544474e+002 -3.500611e+001 -1.546774e+002 -4.272027e+000 3.286525e+001
10187856250 -6.785463e+000 -5.837438e+001 -3.468177e+001 -1.562449e+002 -3.457940e+001 -1.565254e+002 -4.310429e+000 3.178861e+001
10206600000 -6.795395e+000 -6.030825e+001 -3.429176e+001 -1.580872e+002 -3.415855e+001 -1.586355e+002 -4.350016e+000 3.072600e+001
10225343750 -6.814708e+000 -6.230664e+001 -3.388233e+001 -1.600917e+002 -3.370612e+001 -1.606711e+002 -4.395968e+000 2.964925e+001
10244087500 -6.828825e+000 -6.434398e+001 -3.346672e+001 -1.621501e+002 -3.327683e+001 -1.627326e+002 -4.439446e+000 2.852778e+001
10262831250 -6.848067e+000 -6.632936e+001 -3.305051e+001 -1.641908e+002 -3.284977e+001 -1.646735e+002 -4.477089e+000 2.744250e+001
10281575000 -6.879888e+000 -6.835206e+001 -3.263342e+001 -1.662348e+002 -3.243939e+001 -1.667619e+002 -4.523431e+000 2.629614e+001
10300318750 -6.906047e+000 -7.035630e+001 -3.220953e+001 -1.684649e+002 -3.203465e+001 -1.689412e+002 -4.568202e+000 2.517878e+001
10319062500 -6.942825e+000 -7.238039e+001 -3.179499e+001 -1.707026e+002 -3.158502e+001 -1.711273e+002 -4.618196e+000 2.404766e+001
10337806250 -6.983574e+000 -7.438055e+001 -3.138076e+001 -1.729518e+002 -3.115953e+001 -1.733131e+002 -4.663197e+000 2.288514e+001
10356550000 -7.030283e+000 -7.638745e+001 -3.095083e+001 -1.751777e+002 -3.074714e+001 -1.755967e+002 -4.712710e+000 2.172994e+001
10375293750 -7.081133e+000 -7.842654e+001 -3.051976e+001 -1.774544e+002 -3.031066e+001 -1.779605e+002 -4.766147e+000 2.055848e+001
10394037500 -7.136024e+000 -8.044137e+001 -3.010534e+001 -1.797375e+002 -2.989061e+001 1.796824e+002 -4.813296e+000 1.938127e+001
10412781250 -7.200527e+000 -8.245013e+001 -2.968336e+001 1.778874e+002 -2.944663e+001 1.772366e+002 -4.871377e+000 1.822602e+001
10431525000 -7.275696e+000 -8.446877e+001 -2.926590e+001 1.753338e+002 -2.900701e+001 1.748447e+002 -4.930850e+000 1.701389e+001
10450268750 -7.356530e+000 -8.646352e+001 -2.883811e+001 1.729416e+002 -2.858948e+001 1.723685e+002 -4.982221e+000 1.581579e+001
10469012500 -7.448269e+000 -8.848603e+001 -2.840529e+001 1.703787e+002 -2.816978e+001 1.698447e+002 -5.045429e+000 1.462903e+001
10487756250 -7.545589e+000 -9.049481e+001 -2.797237e+001 1.678187e+002 -2.774244e+001 1.672894e+002 -5.109504e+000 1.339339e+001
10506500000 -7.649235e+000 -9.246837e+001 -2.754746e+001 1.652000e+002 -2.733502e+001 1.646960e+002 -5.167815e+000 1.217958e+001
10525243750 -7.770186e+000 -9.443875e+001 -2.713505e+001 1.624744e+002 -2.691390e+001 1.619591e+002 -5.239342e+000 1.098914e+001
10543987500 -7.897482e+000 -9.641676e+001 -2.670680e+001 1.598181e+002 -2.649052e+001 1.592725e+002 -5.307634e+000 9.713342e+000
10562731250 -8.041129e+000 -9.834056e+001 -2.628861e+001 1.571700e+002 -2.608225e+001 1.565165e+002 -5.372380e+000 8.469390e+000
10581475000 -8.196918e+000 -1.002691e+002 -2.588212e+001 1.543258e+002 -2.565855e+001 1.536533e+002 -5.450977e+000 7.221606e+000
10600218750 -8.356604e+000 -1.021541e+002 -2.546308e+001 1.515386e+002 -2.523708e+001 1.507797e+002 -5.527973e+000 5.948551e+000
10618962500 -8.532850e+000 -1.039518e+002 -2.505768e+001 1.486294e+002 -2.483617e+001 1.478140e+002 -5.603232e+000 4.694640e+000
10637706250 -8.725702e+000 -1.057289e+002 -2.464273e+001 1.456503e+002 -2.442012e+001 1.448462e+002 -5.691953e+000 3.413757e+000
10656450000 -8.929291e+000 -1.074370e+002 -2.423531e+001 1.426972e+002 -2.401585e+001 1.417778e+002 -5.772730e+000 2.093828e+000
10675193750 -9.149272e+000 -1.090466e+002 -2.382962e+001 1.396506e+002 -2.361642e+001 1.386675e+002 -5.858943e+000 8.257900e-001
10693937500 -9.384315e+000 -1.106482e+002 -2.342955e+001 1.365108e+002 -2.321456e+001 1.355154e+002 -5.955074e+000 -4.726815e-001
10712681250 -9.623953e+000 -1.121242e+002 -2.303325e+001 1.333764e+002 -2.282244e+001 1.323052e+002 -6.048613e+000 -1.756127e+000
10731425000 -9.883623e+000 -1.134652e+002 -2.265328e+001 1.301148e+002 -2.243031e+001 1.291197e+002 -6.148930e+000 -3.060432e+000
10750168750 -1.015497e+001 -1.146816e+002 -2.226354e+001 1.268425e+002 -2.206345e+001 1.258401e+002 -6.248794e+000 -4.387278e+000
10768912500 -1.043871e+001 -1.157166e+002 -2.188001e+001 1.235875e+002 -2.169144e+001 1.224902e+002 -6.353704e+000 -5.692750e+000
10787656250 -1.073650e+001 -1.166266e+002 -2.150819e+001 1.201920e+002 -2.132089e+001 1.191744e+002 -6.461402e+000 -6.998498e+000
10806400000 -1.103735e+001 -1.174090e+002 -2.113490e+001 1.168052e+002 -2.096462e+001 1.157744e+002 -6.570093e+000 -8.328176e+000
10825143750 -1.133870e+001 -1.179761e+002 -2.077616e+001 1.134142e+002 -2.060547e+001 1.122893e+002 -6.686976e+000 -9.617158e+000
10843887500 -1.163470e+001 -1.183447e+002 -2.041656e+001 1.098675e+002 -2.025429e+001 1.088354e+002 -6.809117e+000 -1.094283e+001
10862631250 -1.192700e+001 -1.184836e+002 -2.005784e+001 1.063983e+002 -1.991972e+001 1.052878e+002 -6.930952e+000 -1.230095e+001
10881375000 -1.222165e+001 -1.184204e+002 -1.972407e+001 1.028393e+002 -1.957227e+001 1.017442e+002 -7.057346e+000 -1.362631e+001
10900118750 -1.250550e+001 -1.182416e+002 -1.938761e+001 9.922864e+001 -1.924460e+001 9.820032e+001 -7.186619e+000 -1.497702e+001
10918862500 -1.277024e+001 -1.179163e+002 -1.905867e+001 9.564763e+001 -1.893439e+001 9.452728e+001 -7.317604e+000 -1.633550e+001
10937606250 -1.301846e+001 -1.174580e+002 -1.874884e+001 9.200130e+001 -1.861039e+001 9.088332e+001 -7.454082e+000 -1.762393e+001
10956350000 -1.323582e+001 -1.168274e+002 -1.843384e+001 8.831720e+001 -1.831734e+001 8.726859e+001 -7.599035e+000 -1.897397e+001
10975093750 -1.343305e+001 -1.160057e+002 -1.813304e+001 8.466368e+001 -1.802366e+001 8.351961e+001 -7.744642e+000 -2.034028e+001
10993837500 -1.361963e+001 -1.150678e+002 -1.784212e+001 8.093415e+001 -1.773087e+001 7.986019e+001 -7.895005e+000 -2.164412e+001
11012581250 -1.378160e+001 -1.141068e+002 -1.754783e+001 7.722302e+001 -1.746289e+001 7.618229e+001 -8.049127e+000 -2.298846e+001
11031325000 -1.391699e+001 -1.130734e+002 -1.726935e+001 7.348771e+001 -1.719256e+001 7.235200e+001 -8.203598e+000 -2.432524e+001
11050068750 -1.402773e+001 -1.120513e+002 -1.700290e+001 6.967019e+001 -1.691578e+001 6.866182e+001 -8.363961e+000 -2.562961e+001
11068812500 -1.409688e+001 -1.109956e+002 -1.673429e+001 6.593715e+001 -1.666874e+001 6.493916e+001 -8.532935e+000 -2.695787e+001
11087556250 -1.414534e+001 -1.098275e+002 -1.648734e+001 6.219468e+001 -1.642016e+001 6.112062e+001 -8.703920e+000 -2.829458e+001
11106300000 -1.418245e+001 -1.087074e+002 -1.624036e+001 5.835124e+001 -1.617623e+001 5.741504e+001 -8.875953e+000 -2.961712e+001
11125043750 -1.418338e+001 -1.076237e+002 -1.599884e+001 5.462225e+001 -1.595283e+001 5.365160e+001 -9.055691e+000 -3.095248e+001
11143787500 -1.416742e+001 -1.065642e+002 -1.577395e+001 5.083297e+001 -1.572534e+001 4.987464e+001 -9.241229e+000 -3.225806e+001
11162531250 -1.412464e+001 -1.056382e+002 -1.554978e+001 4.702353e+001 -1.550599e+001 4.617638e+001 -9.434237e+000 -3.353803e+001
11181275000 -1.404410e+001 -1.047744e+002 -1.533652e+001 4.329065e+001 -1.530117e+001 4.241264e+001 -9.632813e+000 -3.485774e+001
11200018750 -1.394515e+001 -1.039293e+002 -1.513501e+001 3.949588e+001 -1.509094e+001 3.866487e+001 -9.833888e+000 -3.615956e+001
11218762500 -1.383645e+001 -1.032332e+002 -1.493193e+001 3.572710e+001 -1.489893e+001 3.498091e+001 -1.004251e+001 -3.746858e+001
11237506250 -1.370963e+001 -1.026468e+002 -1.474123e+001 3.200824e+001 -1.471439e+001 3.124630e+001 -1.025230e+001 -3.876763e+001
11256250000 -1.357511e+001 -1.022214e+002 -1.455984e+001 2.824305e+001 -1.452597e+001 2.753972e+001 -1.046854e+001 -4.002371e+001
11274993750 -1.343106e+001 -1.020254e+002 -1.438077e+001 2.453320e+001 -1.435037e+001 2.388488e+001 -1.069496e+001 -4.124970e+001
11293737500 -1.326620e+001 -1.019542e+002 -1.421472e+001 2.082961e+001 -1.418440e+001 2.017027e+001 -1.092925e+001 -4.249417e+001
11312481250 -1.310426e+001 -1.019549e+002 -1.404884e+001 1.712570e+001 -1.401737e+001 1.651413e+001 -1.116984e+001 -4.372061e+001
11331225000 -1.294595e+001 -1.021007e+002 -1.388648e+001 1.346830e+001 -1.386349e+001 1.285124e+001 -1.141609e+001 -4.494268e+001
11349968750 -1.279376e+001 -1.023744e+002 -1.373548e+001 9.804463e+000 -1.370778e+001 9.199837e+000 -1.166259e+001 -4.613317e+001
11368712500 -1.265377e+001 -1.027730e+002 -1.358565e+001 6.154822e+000 -1.356067e+001 5.583904e+000 -1.191710e+001 -4.730460e+001
11387456250 -1.251923e+001 -1.033502e+002 -1.344220e+001 2.554427e+000 -1.341691e+001 1.976681e+000 -1.218270e+001 -4.843150e+001
11406200000 -1.238320e+001 -1.040152e+002 -1.330425e+001 -1.081861e+000 -1.327462e+001 -1.640096e+000 -1.245452e+001 -4.954421e+001
11424943750 -1.225894e+001 -1.047157e+002 -1.316617e+001 -4.683032e+000 -1.313870e+001 -5.220116e+000 -1.272978e+001 -5.064923e+001
11443687500 -1.215418e+001 -1.054544e+002 -1.303961e+001 -8.251855e+000 -1.301001e+001 -8.794979e+000 -1.301247e+001 -5.170587e+001
11462431250 -1.205761e+001 -1.062594e+002 -1.291476e+001 -1.184103e+001 -1.288182e+001 -1.231790e+001 -1.330020e+001 -5.268670e+001
11481175000 -1.197668e+001 -1.070995e+002 -1.279262e+001 -1.534649e+001 -1.276663e+001 -1.584536e+001 -1.359434e+001 -5.361346e+001
11499918750 -1.191190e+001 -1.079943e+002 -1.268331e+001 -1.889664e+001 -1.264506e+001 -1.938256e+001 -1.390359e+001 -5.448935e+001
11518662500 -1.184648e+001 -1.089041e+002 -1.256508e+001 -2.245108e+001 -1.253217e+001 -2.286181e+001 -1.421875e+001 -5.535300e+001
11537406250 -1.179237e+001 -1.097539e+002 -1.245825e+001 -2.588827e+001 -1.242317e+001 -2.634762e+001 -1.453344e+001 -5.618540e+001
11556150000 -1.175629e+001 -1.106110e+002 -1.236006e+001 -2.939434e+001 -1.231223e+001 -2.981790e+001 -1.484916e+001 -5.694590e+001
11574893750 -1.172270e+001 -1.114891e+002 -1.225214e+001 -3.287020e+001 -1.221058e+001 -3.325916e+001 -1.516603e+001 -5.759606e+001
11593637500 -1.170392e+001 -1.123633e+002 -1.215519e+001 -3.625488e+001 -1.211364e+001 -3.670113e+001 -1.548609e+001 -5.813858e+001
11612381250 -1.169040e+001 -1.132369e+002 -1.206207e+001 -3.972370e+001 -1.201130e+001 -4.010374e+001 -1.581636e+001 -5.857714e+001
11631125000 -1.167753e+001 -1.140791e+002 -1.196405e+001 -4.312085e+001 -1.192201e+001 -4.350015e+001 -1.615547e+001 -5.902575e+001
11649868750 -1.167591e+001 -1.148672e+002 -1.188307e+001 -4.649068e+001 -1.183315e+001 -4.693023e+001 -1.648215e+001 -5.942525e+001
11668612500 -1.168000e+001 -1.156592e+002 -1.179961e+001 -4.989833e+001 -1.174474e+001 -5.026556e+001 -1.680396e+001 -5.970769e+001
11687356250 -1.168490e+001 -1.164178e+002 -1.170882e+001 -5.322858e+001 -1.166416e+001 -5.360672e+001 -1.712335e+001 -5.987366e+001
11706100000 -1.169873e+001 -1.171525e+002 -1.163654e+001 -5.656721e+001 -1.158000e+001 -5.697379e+001 -1.743408e+001 -5.993843e+001
11724843750 -1.171435e+001 -1.179106e+002 -1.155684e+001 -5.993895e+001 -1.149644e+001 -6.025739e+001 -1.775201e+001 -5.988516e+001
11743587500 -1.172225e+001 -1.186039e+002 -1.147885e+001 -6.319242e+001 -1.142564e+001 -6.356983e+001 -1.806532e+001 -5.984213e+001
11762331250 -1.174126e+001 -1.192465e+002 -1.141528e+001 -6.648972e+001 -1.134352e+001 -6.687876e+001 -1.836205e+001 -5.973244e+001
11781075000 -1.175927e+001 -1.198995e+002 -1.133756e+001 -6.979354e+001 -1.127161e+001 -7.007764e+001 -1.864932e+001 -5.955496e+001
11799818750 -1.177639e+001 -1.205013e+002 -1.126546e+001 -7.300297e+001 -1.120144e+001 -7.335684e+001 -1.892516e+001 -5.929253e+001
11818562500 -1.179941e+001 -1.210914e+002 -1.120050e+001 -7.625225e+001 -1.112765e+001 -7.661999e+001 -1.919769e+001 -5.898827e+001
11837306250 -1.182314e+001 -1.216865e+002 -1.113221e+001 -7.947827e+001 -1.106380e+001 -7.979130e+001 -1.946468e+001 -5.858649e+001
11856050000 -1.183597e+001 -1.222272e+002 -1.107040e+001 -8.264258e+001 -1.100518e+001 -8.302725e+001 -1.972634e+001 -5.827210e+001
11874793750 -1.185570e+001 -1.227255e+002 -1.101597e+001 -8.583564e+001 -1.094093e+001 -8.624232e+001 -1.995296e+001 -5.802664e+001
11893537500 -1.187836e+001 -1.232586e+002 -1.095636e+001 -8.903801e+001 -1.088310e+001 -8.938775e+001 -2.015868e+001 -5.768357e+001
11912281250 -1.189443e+001 -1.237439e+002 -1.090014e+001 -9.213443e+001 -1.082973e+001 -9.256520e+001 -2.035464e+001 -5.733237e+001
11931025000 -1.191471e+001 -1.242355e+002 -1.085143e+001 -9.527141e+001 -1.077166e+001 -9.572360e+001 -2.054215e+001 -5.698118e+001
11949768750 -1.192773e+001 -1.247733e+002 -1.079546e+001 -9.839681e+001 -1.071909e+001 -9.882447e+001 -2.072492e+001 -5.653267e+001
11968512500 -1.193095e+001 -1.252546e+002 -1.074489e+001 -1.014610e+002 -1.067251e+001 -1.019574e+002 -2.090039e+001 -5.632285e+001
11987256250 -1.194272e+001 -1.256729e+002 -1.069877e+001 -1.045566e+002 -1.062003e+001 -1.050582e+002 -2.104857e+001 -5.620841e+001
12006000000 -1.195242e+001 -1.261384e+002 -1.064815e+001 -1.076353e+002 -1.057058e+001 -1.081031e+002 -2.117903e+001 -5.610262e+001
12024743750 -1.195759e+001 -1.265610e+002 -1.060320e+001 -1.106635e+002 -1.052738e+001 -1.111891e+002 -2.130524e+001 -5.612077e+001
12043487500 -1.196931e+001 -1.270329e+002 -1.056181e+001 -1.137158e+002 -1.047991e+001 -1.142293e+002 -2.141231e+001 -5.617316e+001
12062231250 -1.197184e+001 -1.275732e+002 -1.051413e+001 -1.167587e+002 -1.043475e+001 -1.172340e+002 -2.152699e+001 -5.629746e+001
12080975000 -1.196772e+001 -1.279972e+002 -1.047003e+001 -1.197287e+002 -1.039565e+001 -1.202725e+002 -2.163389e+001 -5.664259e+001
12099718750 -1.197258e+001 -1.284386e+002 -1.043202e+001 -1.227439e+002 -1.034670e+001 -1.232833e+002 -2.172561e+001 -5.717369e+001
12118462500 -1.197337e+001 -1.289319e+002 -1.038601e+001 -1.257521e+002 -1.030827e+001 -1.262524e+002 -2.180504e+001 -5.778546e+001
12137206250 -1.197698e+001 -1.293769e+002 -1.034341e+001 -1.286779e+002 -1.027167e+001 -1.292633e+002 -2.189312e+001 -5.858337e+001
12155950000 -1.198551e+001 -1.298761e+002 -1.030748e+001 -1.316442e+002 -1.022720e+001 -1.322311e+002 -2.197134e+001 -5.949252e+001
12174693750 -1.198228e+001 -1.304284e+002 -1.026284e+001 -1.346323e+002 -1.019111e+001 -1.351602e+002 -2.205618e+001 -6.057047e+001
12193437500 -1.197676e+001 -1.308926e+002 -1.022465e+001 -1.375260e+002 -1.016035e+001 -1.381340e+002 -2.212532e+001 -6.193962e+001
12212181250 -1.198205e+001 -1.313923e+002 -1.019471e+001 -1.404733e+002 -1.011925e+001 -1.410742e+002 -2.219621e+001 -6.330386e+001
12230925000 -1.198374e+001 -1.319084e+002 -1.015445e+001 -1.434090e+002 -1.009157e+001 -1.439581e+002 -2.228096e+001 -6.485549e+001
12249668750 -1.199317e+001 -1.324069e+002 -1.012543e+001 -1.462777e+002 -1.006004e+001 -1.469315e+002 -2.235871e+001 -6.661785e+001
12268412500 -1.199731e+001 -1.329601e+002 -1.009578e+001 -1.492043e+002 -1.002318e+001 -1.498177e+002 -2.244407e+001 -6.857468e+001
12287156250 -1.199895e+001 -1.335521e+002 -1.005953e+001 -1.520957e+002 -9.996495e+000 -1.526847e+002 -2.253465e+001 -7.074813e+001
12305900000 -1.199663e+001 -1.341112e+002 -1.002824e+001 -1.549825e+002 -9.962226e+000 -1.555943e+002 -2.261590e+001 -7.304318e+001
12324643750 -1.200191e+001 -1.346272e+002 -9.998138e+000 -1.578608e+002 -9.931067e+000 -1.584338e+002 -2.270420e+001 -7.547820e+001
12343387500 -1.200950e+001 -1.351882e+002 -9.965615e+000 -1.607315e+002 -9.905058e+000 -1.612877e+002 -2.281034e+001 -7.808604e+001
12362131250 -1.202046e+001 -1.357381e+002 -9.936707e+000 -1.635908e+002 -9.873635e+000 -1.641473e+002 -2.291396e+001 -8.089090e+001
12380875000 -1.203396e+001 -1.363311e+002 -9.905813e+000 -1.664381e+002 -9.846315e+000 -1.669582e+002 -2.302403e+001 -8.413900e+001
12399618750 -1.204465e+001 -1.369437e+002 -9.876383e+000 -1.692798e+002 -9.821608e+000 -1.698033e+002 -2.310685e+001 -8.747673e+001
12418362500 -1.205342e+001 -1.375074e+002 -9.848012e+000 -1.721225e+002 -9.790257e+000 -1.726327e+002 -2.319136e+001 -9.080358e+001
12437106250 -1.206713e+001 -1.380578e+002 -9.819048e+000 -1.749481e+002 -9.765361e+000 -1.754359e+002 -2.327934e+001 -9.434423e+001
12455850000 -1.208712e+001 -1.386354e+002 -9.794623e+000 -1.777719e+002 -9.742539e+000 -1.782571e+002 -2.336963e+001 -9.804504e+001
12474593750 -1.210662e+001 -1.391994e+002 -9.766482e+000 1.794006e+002 -9.715091e+000 1.789295e+002 -2.346063e+001 -1.019955e+002
12493337500 -1.212829e+001 -1.397761e+002 -9.741302e+000 1.766149e+002 -9.692792e+000 1.761397e+002 -2.352002e+001 -1.061862e+002
12512081250 -1.214508e+001 -1.403880e+002 -9.719403e+000 1.737955e+002 -9.668846e+000 1.733431e+002 -2.356182e+001 -1.103937e+002
12530825000 -1.216181e+001 -1.409251e+002 -9.692997e+000 1.710078e+002 -9.646923e+000 1.705615e+002 -2.359871e+001 -1.146032e+002
12549568750 -1.218558e+001 -1.414459e+002 -9.673302e+000 1.682507e+002 -9.625863e+000 1.677930e+002 -2.363669e+001 -1.190262e+002
12568312500 -1.221017e+001 -1.419895e+002 -9.654870e+000 1.654621e+002 -9.605246e+000 1.650187e+002 -2.365060e+001 -1.235895e+002
12587056250 -1.223246e+001 -1.425403e+002 -9.631265e+000 1.627216e+002 -9.590651e+000 1.622622e+002 -2.364476e+001 -1.283526e+002
12605800000 -1.226126e+001 -1.430667e+002 -9.616795e+000 1.599792e+002 -9.567887e+000 1.594756e+002 -2.359978e+001 -1.330816e+002
12624543750 -1.228557e+001 -1.436283e+002 -9.593806e+000 1.571885e+002 -9.545836e+000 1.567604e+002 -2.354870e+001 -1.377351e+002
12643287500 -1.230461e+001 -1.441187e+002 -9.573357e+000 1.544814e+002 -9.533945e+000 1.540114e+002 -2.348560e+001 -1.425418e+002
12662031250 -1.233082e+001 -1.445994e+002 -9.560484e+000 1.517392e+002 -9.510365e+000 1.512520e+002 -2.340289e+001 -1.473845e+002
12680775000 -1.235746e+001 -1.451168e+002 -9.544010e+000 1.489296e+002 -9.496465e+000 1.485721e+002 -2.330326e+001 -1.523254e+002
12699518750 -1.238705e+001 -1.456457e+002 -9.524950e+000 1.462345e+002 -9.486146e+000 1.458269e+002 -2.316991e+001 -1.572969e+002
12718262500 -1.241521e+001 -1.461462e+002 -9.516531e+000 1.435003e+002 -9.464947e+000 1.431193e+002 -2.300099e+001 -1.621404e+002
12737006250 -1.244061e+001 -1.466420e+002 -9.498627e+000 1.407485e+002 -9.454480e+000 1.404403e+002 -2.283834e+001 -1.668537e+002
12755750000 -1.246027e+001 -1.471333e+002 -9.487259e+000 1.380786e+002 -9.442752e+000 1.376919e+002 -2.266955e+001 -1.716319e+002
12774493750 -1.248485e+001 -1.475727e+002 -9.482485e+000 1.353384e+002 -9.423738e+000 1.349812e+002 -2.247848e+001 -1.764502e+002
12793237500 -1.250983e+001 -1.480510e+002 -9.465362e+000 1.326265e+002 -9.418200e+000 1.323185e+002 -2.225548e+001 1.787448e+002
12811981250 -1.253516e+001 -1.485262e+002 -9.460597e+000 1.299520e+002 -9.408958e+000 1.295822e+002 -2.199307e+001 1.742035e+002
12830725000 -1.255578e+001 -1.490226e+002 -9.456482e+000 1.272367e+002 -9.392489e+000 1.269095e+002 -2.174297e+001 1.699094e+002
12849468750 -1.257199e+001 -1.495542e+002 -9.443786e+000 1.245583e+002 -9.388375e+000 1.242254e+002 -2.149221e+001 1.655839e+002
12868212500 -1.259070e+001 -1.500435e+002 -9.443730e+000 1.218951e+002 -9.385032e+000 1.215046e+002 -2.123921e+001 1.613428e+002
12886956250 -1.260671e+001 -1.505121e+002 -9.435019e+000 1.191930e+002 -9.371169e+000 1.188568e+002 -2.097092e+001 1.571230e+002
12905700000 -1.262501e+001 -1.510170e+002 -9.429339e+000 1.165477e+002 -9.366970e+000 1.161992e+002 -2.067948e+001 1.530218e+002
12924443750 -1.263801e+001 -1.515513e+002 -9.432644e+000 1.138723e+002 -9.363106e+000 1.134913e+002 -2.037246e+001 1.491840e+002
12943187500 -1.265265e+001 -1.520870e+002 -9.427004e+000 1.112239e+002 -9.354576e+000 1.108491e+002 -2.008489e+001 1.455051e+002
12961931250 -1.266058e+001 -1.526401e+002 -9.426288e+000 1.085929e+002 -9.356416e+000 1.082085e+002 -1.980120e+001 1.418309e+002
12980675000 -1.266945e+001 -1.531761e+002 -9.430255e+000 1.059096e+002 -9.355209e+000 1.055153e+002 -1.951675e+001 1.382834e+002
12999418750 -1.268165e+001 -1.537233e+002 -9.426629e+000 1.032467e+002 -9.349631e+000 1.028934e+002 -1.923183e+001 1.348050e+002
13018162500 -1.269556e+001 -1.543052e+002 -9.430895e+000 1.006123e+002 -9.350173e+000 1.002542e+002 -1.893254e+001 1.314967e+002
13036906250 -1.270453e+001 -1.549546e+002 -9.432873e+000 9.794811e+001 -9.351369e+000 9.760490e+001 -1.864984e+001 1.283395e+002
13055650000 -1.270905e+001 -1.556182e+002 -9.438230e+000 9.534167e+001 -9.353663e+000 9.498245e+001 -1.839131e+001 1.252255e+002
13074393750 -1.271622e+001 -1.562524e+002 -9.446634e+000 9.271012e+001 -9.356815e+000 9.236514e+001 -1.812910e+001 1.221925e+002
13093137500 -1.272233e+001 -1.569266e+002 -9.451909e+000 9.005846e+001 -9.361130e+000 8.971101e+001 -1.787115e+001 1.192127e+002
13111881250 -1.273108e+001 -1.575993e+002 -9.457317e+000 8.750327e+001 -9.363921e+000 8.710173e+001 -1.761077e+001 1.163301e+002
13130625000 -1.274244e+001 -1.583029e+002 -9.469485e+000 8.488583e+001 -9.373102e+000 8.450371e+001 -1.734425e+001 1.135648e+002
13149368750 -1.275383e+001 -1.590809e+002 -9.472198e+000 8.226477e+001 -9.377852e+000 8.183880e+001 -1.710419e+001 1.109755e+002
13168112500 -1.276015e+001 -1.598899e+002 -9.482907e+000 7.970170e+001 -9.381877e+000 7.923371e+001 -1.687770e+001 1.083264e+002
13186856250 -1.276835e+001 -1.606701e+002 -9.497558e+000 7.709286e+001 -9.395457e+000 7.664891e+001 -1.664572e+001 1.057468e+002
13205600000 -1.277981e+001 -1.615290e+002 -9.499446e+000 7.448981e+001 -9.400928e+000 7.400993e+001 -1.641894e+001 1.032552e+002
13224343750 -1.279446e+001 -1.624099e+002 -9.514010e+000 7.193417e+001 -9.405300e+000 7.141648e+001 -1.619097e+001 1.007960e+002
13243087500 -1.280951e+001 -1.632908e+002 -9.527663e+000 6.932844e+001 -9.422098e+000 6.882008e+001 -1.597148e+001 9.844697e+001
13261831250 -1.283217e+001 -1.642483e+002 -9.533230e+000 6.675475e+001 -9.431429e+000 6.619776e+001 -1.577320e+001 9.612577e+001
13280575000 -1.285103e+001 -1.652428e+002 -9.553660e+000 6.421520e+001 -9.441589e+000 6.364441e+001 -1.557361e+001 9.377921e+001
13299318750 -1.287877e+001 -1.662126e+002 -9.569882e+000 6.161424e+001 -9.459924e+000 6.105381e+001 -1.537631e+001 9.149904e+001
13318062500 -1.290850e+001 -1.672614e+002 -9.582727e+000 5.908155e+001 -9.471779e+000 5.842968e+001 -1.518569e+001 8.927553e+001
13336806250 -1.294098e+001 -1.683225e+002 -9.604071e+000 5.652913e+001 -9.487989e+000 5.588584e+001 -1.499093e+001 8.711160e+001
13355550000 -1.298660e+001 -1.694001e+002 -9.616886e+000 5.395201e+001 -9.508922e+000 5.329486e+001 -1.481655e+001 8.505355e+001
13374293750 -1.303173e+001 -1.706063e+002 -9.633643e+000 5.141788e+001 -9.521992e+000 5.071370e+001 -1.465148e+001 8.298098e+001
13393037500 -1.307490e+001 -1.718030e+002 -9.656211e+000 4.886705e+001 -9.537719e+000 4.818653e+001 -1.448314e+001 8.091541e+001
13411781250 -1.312552e+001 -1.730111e+002 -9.670512e+000 4.631341e+001 -9.559894e+000 4.559788e+001 -1.431962e+001 7.890752e+001
13430525000 -1.318290e+001 -1.742918e+002 -9.694770e+000 4.381694e+001 -9.577053e+000 4.302888e+001 -1.416345e+001 7.691125e+001
13449268750 -1.324317e+001 -1.755756e+002 -9.718773e+000 4.125118e+001 -9.599037e+000 4.049854e+001 -1.400229e+001 7.498626e+001
13468012500 -1.332249e+001 -1.769188e+002 -9.736538e+000 3.873003e+001 -9.626938e+000 3.793025e+001 -1.385652e+001 7.309946e+001
13486756250 -1.340109e+001 -1.783494e+002 -9.760226e+000 3.623855e+001 -9.645235e+000 3.537355e+001 -1.371449e+001 7.123418e+001
13505500000 -1.348067e+001 -1.797774e+002 -9.783349e+000 3.368388e+001 -9.671439e+000 3.284690e+001 -1.357117e+001 6.934747e+001
13524243750 -1.357545e+001 1.788162e+002 -9.803991e+000 3.119125e+001 -9.699329e+000 3.029646e+001 -1.343325e+001 6.751847e+001
13542987500 -1.367574e+001 1.772964e+002 -9.830338e+000 2.869110e+001 -9.720732e+000 2.777661e+001 -1.330253e+001 6.573818e+001
13561731250 -1.378685e+001 1.758067e+002 -9.857508e+000 2.614831e+001 -9.750562e+000 2.527054e+001 -1.317728e+001 6.397820e+001
13580475000 -1.391492e+001 1.741941e+002 -9.880467e+000 2.366629e+001 -9.781645e+000 2.274543e+001 -1.306097e+001 6.225873e+001
13599218750 -1.404276e+001 1.725182e+002 -9.909455e+000 2.117692e+001 -9.809041e+000 2.024557e+001 -1.294854e+001 6.054379e+001
13617962500 -1.417654e+001 1.708480e+002 -9.933967e+000 1.866160e+001 -9.842795e+000 1.774529e+001 -1.283467e+001 5.879356e+001
13636706250 -1.432995e+001 1.691619e+002 -9.963217e+000 1.620000e+001 -9.876364e+000 1.522278e+001 -1.272453e+001 5.711481e+001
13655450000 -1.449417e+001 1.674192e+002 -9.996334e+000 1.371544e+001 -9.908516e+000 1.274553e+001 -1.262120e+001 5.545148e+001
13674193750 -1.467544e+001 1.656234e+002 -1.002717e+001 1.124001e+001 -9.939628e+000 1.026257e+001 -1.251896e+001 5.383631e+001
13692937500 -1.486777e+001 1.637073e+002 -1.005867e+001 8.780276e+000 -9.972725e+000 7.752550e+000 -1.242404e+001 5.224432e+001
13711681250 -1.505774e+001 1.618025e+002 -1.009039e+001 6.299335e+000 -1.000991e+001 5.291045e+000 -1.234053e+001 5.065446e+001
13730425000 -1.526595e+001 1.598711e+002 -1.012025e+001 3.843840e+000 -1.004373e+001 2.814715e+000 -1.224950e+001 4.905037e+001
13749168750 -1.549876e+001 1.578473e+002 -1.015321e+001 1.382264e+000 -1.007411e+001 3.691289e-001 -1.216041e+001 4.748220e+001
13767912500 -1.575149e+001 1.557760e+002 -1.018606e+001 -1.072686e+000 -1.011256e+001 -2.095721e+000 -1.207997e+001 4.591547e+001
13786656250 -1.601491e+001 1.536164e+002 -1.022298e+001 -3.508975e+000 -1.014923e+001 -4.546383e+000 -1.199200e+001 4.437673e+001
13805400000 -1.628854e+001 1.513446e+002 -1.025707e+001 -5.968771e+000 -1.018279e+001 -6.990972e+000 -1.191634e+001 4.286348e+001
13824143750 -1.657587e+001 1.490515e+002 -1.028786e+001 -8.412846e+000 -1.022291e+001 -9.453359e+000 -1.184710e+001 4.133330e+001
13842887500 -1.689861e+001 1.467042e+002 -1.032606e+001 -1.083895e+001 -1.026170e+001 -1.189698e+001 -1.177283e+001 3.980788e+001
13861631250 -1.723367e+001 1.442173e+002 -1.035804e+001 -1.328592e+001 -1.029766e+001 -1.431410e+001 -1.170224e+001 3.832109e+001
13880375000 -1.760241e+001 1.415649e+002 -1.039124e+001 -1.570416e+001 -1.033704e+001 -1.676012e+001 -1.164017e+001 3.682806e+001
13899118750 -1.797805e+001 1.387098e+002 -1.043290e+001 -1.812686e+001 -1.037478e+001 -1.921345e+001 -1.157032e+001 3.533912e+001
13917862500 -1.835683e+001 1.357268e+002 -1.046728e+001 -2.056568e+001 -1.041296e+001 -2.163612e+001 -1.151063e+001 3.392516e+001
13936606250 -1.876715e+001 1.325774e+002 -1.050448e+001 -2.297010e+001 -1.045196e+001 -2.406080e+001 -1.145623e+001 3.246270e+001
13955350000 -1.921175e+001 1.291784e+002 -1.054939e+001 -2.538668e+001 -1.049224e+001 -2.647578e+001 -1.139781e+001 3.099187e+001
13974093750 -1.966985e+001 1.255487e+002 -1.058708e+001 -2.782889e+001 -1.053271e+001 -2.888651e+001 -1.133800e+001 2.956633e+001
13992837500 -2.015064e+001 1.214295e+002 -1.062379e+001 -3.022105e+001 -1.057067e+001 -3.131057e+001 -1.128419e+001 2.814366e+001
14011581250 -2.060587e+001 1.170896e+002 -1.067086e+001 -3.262397e+001 -1.060897e+001 -3.372233e+001 -1.122425e+001 2.672345e+001
14030325000 -2.105821e+001 1.126663e+002 -1.070945e+001 -3.504593e+001 -1.065278e+001 -3.612527e+001 -1.117886e+001 2.531079e+001
14049068750 -2.152458e+001 1.077068e+002 -1.074894e+001 -3.741010e+001 -1.069421e+001 -3.851868e+001 -1.113807e+001 2.387124e+001
14067812500 -2.196915e+001 1.023212e+002 -1.079458e+001 -3.981399e+001 -1.073469e+001 -4.088165e+001 -1.109136e+001 2.243307e+001
14086556250 -2.239041e+001 9.669875e+001 -1.083094e+001 -4.222935e+001 -1.077672e+001 -4.329482e+001 -1.104975e+001 2.100884e+001
14105300000 -2.273527e+001 9.059621e+001 -1.087074e+001 -4.460026e+001 -1.081735e+001 -4.569194e+001 -1.101500e+001 1.958271e+001
14124043750 -2.303690e+001 8.457496e+001 -1.091587e+001 -4.700491e+001 -1.086183e+001 -4.804997e+001 -1.097595e+001 1.819972e+001
14142787500 -2.333790e+001 7.840276e+001 -1.095349e+001 -4.940319e+001 -1.090420e+001 -5.044955e+001 -1.094405e+001 1.680350e+001
14161531250 -2.358753e+001 7.181350e+001 -1.099358e+001 -5.174115e+001 -1.094641e+001 -5.280116e+001 -1.091687e+001 1.537846e+001
14180275000 -2.378341e+001 6.520634e+001 -1.103947e+001 -5.415300e+001 -1.099686e+001 -5.516461e+001 -1.088678e+001 1.397662e+001
14199018750 -2.392615e+001 5.845715e+001 -1.107554e+001 -5.653202e+001 -1.103888e+001 -5.755167e+001 -1.086624e+001 1.253908e+001
14217762500 -2.399557e+001 5.166531e+001 -1.111868e+001 -5.887560e+001 -1.108197e+001 -5.991544e+001 -1.084726e+001 1.112494e+001
14236506250 -2.404873e+001 4.508662e+001 -1.116412e+001 -6.127304e+001 -1.113017e+001 -6.228339e+001 -1.082770e+001 9.729689e+000
14255250000 -2.407758e+001 3.830434e+001 -1.120218e+001 -6.363422e+001 -1.117537e+001 -6.465589e+001 -1.081928e+001 8.324492e+000
14273993750 -2.403119e+001 3.145520e+001 -1.124706e+001 -6.596652e+001 -1.121661e+001 -6.699345e+001 -1.081063e+001 6.897983e+000
14292737500 -2.395649e+001 2.469361e+001 -1.129050e+001 -6.836674e+001 -1.126629e+001 -6.933210e+001 -1.080060e+001 5.517102e+000
14311481250 -2.381337e+001 1.798179e+001 -1.133006e+001 -7.071257e+001 -1.130709e+001 -7.169341e+001 -1.080023e+001 4.127630e+000
14330225000 -2.361756e+001 1.159304e+001 -1.137426e+001 -7.304995e+001 -1.134862e+001 -7.401306e+001 -1.080893e+001 2.735674e+000
14348968750 -2.342452e+001 5.326931e+000 -1.141607e+001 -7.545525e+001 -1.139636e+001 -7.635087e+001 -1.081696e+001 1.316167e+000
14367712500 -2.317205e+001 -9.434966e-001 -1.145177e+001 -7.778394e+001 -1.143823e+001 -7.873242e+001 -1.083517e+001 -7.846395e-002
14386456250 -2.285478e+001 -6.984357e+000 -1.149527e+001 -8.011665e+001 -1.148003e+001 -8.106997e+001 -1.085146e+001 -1.500472e+000
14405200000 -2.250538e+001 -1.277134e+001 -1.153211e+001 -8.249165e+001 -1.152682e+001 -8.342708e+001 -1.087122e+001 -2.923931e+000
14423943750 -2.209739e+001 -1.810242e+001 -1.157006e+001 -8.480218e+001 -1.156420e+001 -8.580363e+001 -1.089687e+001 -4.312583e+000
14442687500 -2.168180e+001 -2.301613e+001 -1.161052e+001 -8.717905e+001 -1.160681e+001 -8.814076e+001 -1.092960e+001 -5.701398e+000
14461431250 -2.128056e+001 -2.792042e+001 -1.164488e+001 -8.955386e+001 -1.164995e+001 -9.050369e+001 -1.096312e+001 -7.073430e+000
14480175000 -2.083249e+001 -3.237149e+001 -1.168177e+001 -9.187996e+001 -1.168384e+001 -9.291067e+001 -1.100827e+001 -8.451218e+000
14498918750 -2.037593e+001 -3.630491e+001 -1.172149e+001 -9.427533e+001 -1.172719e+001 -9.525217e+001 -1.105365e+001 -9.859520e+000
14517662500 -1.991868e+001 -4.004370e+001 -1.175279e+001 -9.666795e+001 -1.177127e+001 -9.762848e+001 -1.109992e+001 -1.123482e+001
14536406250 -1.949407e+001 -4.323246e+001 -1.179195e+001 -9.900558e+001 -1.180794e+001 -1.000240e+002 -1.115110e+001 -1.262143e+001
14555150000 -1.910073e+001 -4.628309e+001 -1.183261e+001 -1.014039e+002 -1.184580e+001 -1.023941e+002 -1.120765e+001 -1.401491e+001
14573893750 -1.871154e+001 -4.924376e+001 -1.186266e+001 -1.037933e+002 -1.188606e+001 -1.048072e+002 -1.126726e+001 -1.538132e+001
14592637500 -1.832430e+001 -5.183736e+001 -1.190512e+001 -1.061553e+002 -1.191701e+001 -1.072040e+002 -1.133514e+001 -1.674527e+001
14611381250 -1.796767e+001 -5.424557e+001 -1.194367e+001 -1.085737e+002 -1.195636e+001 -1.095784e+002 -1.140739e+001 -1.814286e+001
14630125000 -1.762796e+001 -5.655696e+001 -1.197507e+001 -1.109788e+002 -1.199680e+001 -1.120274e+002 -1.147563e+001 -1.948244e+001
14648868750 -1.732481e+001 -5.863789e+001 -1.201527e+001 -1.133638e+002 -1.202841e+001 -1.144361e+002 -1.155474e+001 -2.083844e+001
14667612500 -1.703254e+001 -6.068859e+001 -1.205145e+001 -1.158287e+002 -1.207211e+001 -1.168269e+002 -1.164092e+001 -2.220945e+001
14686356250 -1.674924e+001 -6.264387e+001 -1.208681e+001 -1.182576e+002 -1.210768e+001 -1.193083e+002 -1.173025e+001 -2.356212e+001
14705100000 -1.648316e+001 -6.445206e+001 -1.213054e+001 -1.206865e+002 -1.214157e+001 -1.217280e+002 -1.182988e+001 -2.493502e+001
14723843750 -1.622571e+001 -6.613899e+001 -1.216645e+001 -1.231777e+002 -1.218456e+001 -1.241806e+002 -1.192809e+001 -2.635603e+001
14742587500 -1.598503e+001 -6.776230e+001 -1.219907e+001 -1.256028e+002 -1.222232e+001 -1.266840e+002 -1.202863e+001 -2.773288e+001
14761331250 -1.576393e+001 -6.932896e+001 -1.224231e+001 -1.280903e+002 -1.225665e+001 -1.291203e+002 -1.213136e+001 -2.908338e+001
14780075000 -1.554744e+001 -7.083326e+001 -1.227944e+001 -1.305949e+002 -1.230257e+001 -1.315999e+002 -1.224113e+001 -3.042428e+001
14798818750 -1.534446e+001 -7.228721e+001 -1.232137e+001 -1.330582e+002 -1.234162e+001 -1.340925e+002 -1.236040e+001 -3.177154e+001
14817562500 -1.514736e+001 -7.364156e+001 -1.236644e+001 -1.355827e+002 -1.238134e+001 -1.365394e+002 -1.249354e+001 -3.315146e+001
14836306250 -1.496239e+001 -7.496862e+001 -1.240455e+001 -1.381044e+002 -1.242974e+001 -1.390554e+002 -1.262543e+001 -3.454380e+001
14855050000 -1.478310e+001 -7.628944e+001 -1.244703e+001 -1.406038e+002 -1.246848e+001 -1.415863e+002 -1.275909e+001 -3.589805e+001
14873793750 -1.461970e+001 -7.756646e+001 -1.249527e+001 -1.431412e+002 -1.251437e+001 -1.440674e+002 -1.290019e+001 -3.726557e+001
14892537500 -1.444947e+001 -7.874342e+001 -1.253643e+001 -1.456829e+002 -1.256386e+001 -1.466259e+002 -1.304755e+001 -3.861367e+001
14911281250 -1.429343e+001 -7.991263e+001 -1.258648e+001 -1.482119e+002 -1.260448e+001 -1.491652e+002 -1.320275e+001 -3.995335e+001
14930025000 -1.414141e+001 -8.103497e+001 -1.263347e+001 -1.507952e+002 -1.265080e+001 -1.516776e+002 -1.336918e+001 -4.133735e+001
14948768750 -1.400081e+001 -8.207145e+001 -1.268114e+001 -1.533288e+002 -1.270090e+001 -1.542397e+002 -1.353671e+001 -4.267740e+001
14967512500 -1.386897e+001 -8.314517e+001 -1.273554e+001 -1.558963e+002 -1.274242e+001 -1.567849e+002 -1.370882e+001 -4.400625e+001
14986256250 -1.373678e+001 -8.420408e+001 -1.278210e+001 -1.584576e+002 -1.279330e+001 -1.593466e+002 -1.388600e+001 -4.535270e+001
15005000000 -1.360297e+001 -8.518436e+001 -1.283872e+001 -1.610277e+002 -1.284585e+001 -1.619214e+002 -1.407583e+001 -4.663742e+001
15023743750 -1.348624e+001 -8.611559e+001 -1.288584e+001 -1.636472e+002 -1.290101e+001 -1.644955e+002 -1.428150e+001 -4.795785e+001
15042487500 -1.336052e+001 -8.703903e+001 -1.293848e+001 -1.662255e+002 -1.295332e+001 -1.670959e+002 -1.448664e+001 -4.929868e+001
15061231250 -1.324522e+001 -8.787136e+001 -1.299967e+001 -1.688437e+002 -1.300579e+001 -1.696732e+002 -1.470101e+001 -5.059123e+001
15079975000 -1.314469e+001 -8.876388e+001 -1.305365e+001 -1.714605e+002 -1.306627e+001 -1.722966e+002 -1.491888e+001 -5.187181e+001
15098718750 -1.303151e+001 -8.962543e+001 -1.311691e+001 -1.740549e+002 -1.311788e+001 -1.749248e+002 -1.514165e+001 -5.303922e+001
15117462500 -1.292303e+001 -9.038275e+001 -1.317541e+001 -1.767264e+002 -1.318271e+001 -1.775093e+002 -1.539077e+001 -5.419571e+001
15136206250 -1.282141e+001 -9.116306e+001 -1.323246e+001 -1.793589e+002 -1.324553e+001 1.798298e+002 -1.564181e+001 -5.543071e+001
15154950000 -1.271020e+001 -9.189238e+001 -1.330311e+001 1.780323e+002 -1.330426e+001 1.771888e+002 -1.589614e+001 -5.656081e+001
15173693750 -1.261753e+001 -9.254569e+001 -1.337021e+001 1.753173e+002 -1.337727e+001 1.745729e+002 -1.616845e+001 -5.770824e+001
15192437500 -1.252458e+001 -9.330450e+001 -1.343542e+001 1.726876e+002 -1.344611e+001 1.718867e+002 -1.643608e+001 -5.880260e+001
15211181250 -1.242040e+001 -9.398521e+001 -1.351353e+001 1.700078e+002 -1.350861e+001 1.692143e+002 -1.671648e+001 -5.978196e+001
15229925000 -1.232813e+001 -9.461530e+001 -1.358310e+001 1.672869e+002 -1.358371e+001 1.665312e+002 -1.701899e+001 -6.074245e+001
15248668750 -1.223331e+001 -9.528577e+001 -1.365328e+001 1.646170e+002 -1.365572e+001 1.638056e+002 -1.731822e+001 -6.173324e+001
15267412500 -1.213362e+001 -9.582850e+001 -1.373856e+001 1.619204e+002 -1.372385e+001 1.611301e+002 -1.763484e+001 -6.260259e+001
15286156250 -1.205449e+001 -9.636985e+001 -1.381322e+001 1.591647e+002 -1.380720e+001 1.584531e+002 -1.795292e+001 -6.349826e+001
15304900000 -1.196376e+001 -9.698955e+001 -1.389327e+001 1.565006e+002 -1.388275e+001 1.556939e+002 -1.826355e+001 -6.430128e+001
15323643750 -1.186536e+001 -9.752770e+001 -1.398249e+001 1.537804e+002 -1.396155e+001 1.530207e+002 -1.858998e+001 -6.492092e+001
15342387500 -1.178103e+001 -9.803217e+001 -1.406078e+001 1.510177e+002 -1.404921e+001 1.503394e+002 -1.895137e+001 -6.553319e+001
15361131250 -1.168681e+001 -9.859116e+001 -1.415064e+001 1.483350e+002 -1.413306e+001 1.475495e+002 -1.929833e+001 -6.623387e+001
15379875000 -1.159052e+001 -9.906432e+001 -1.424721e+001 1.455736e+002 -1.422074e+001 1.448360e+002 -1.965156e+001 -6.679597e+001
15398618750 -1.151300e+001 -9.954565e+001 -1.433238e+001 1.428086e+002 -1.431963e+001 1.421163e+002 -2.001087e+001 -6.734108e+001
15417362500 -1.141983e+001 -1.000643e+002 -1.443245e+001 1.400737e+002 -1.441521e+001 1.393777e+002 -2.035922e+001 -6.773923e+001
15436106250 -1.132638e+001 -1.005414e+002 -1.453108e+001 1.373212e+002 -1.450961e+001 1.366133e+002 -2.073967e+001 -6.791911e+001
15454850000 -1.123453e+001 -1.010472e+002 -1.463571e+001 1.345573e+002 -1.460843e+001 1.338404e+002 -2.114080e+001 -6.815314e+001
15473593750 -1.113975e+001 -1.015226e+002 -1.474069e+001 1.317992e+002 -1.471117e+001 1.310596e+002 -2.152181e+001 -6.849992e+001
15492337500 -1.104735e+001 -1.019412e+002 -1.484688e+001 1.290567e+002 -1.481697e+001 1.283025e+002 -2.191845e+001 -6.871001e+001
15511081250 -1.095576e+001 -1.024001e+002 -1.495490e+001 1.262601e+002 -1.492185e+001 1.255863e+002 -2.230200e+001 -6.904716e+001
15529825000 -1.085998e+001 -1.029038e+002 -1.506565e+001 1.235090e+002 -1.503685e+001 1.227932e+002 -2.268311e+001 -6.918962e+001
15548568750 -1.076247e+001 -1.033892e+002 -1.518824e+001 1.207786e+002 -1.514589e+001 1.200012e+002 -2.309545e+001 -6.900896e+001
15567312500 -1.066621e+001 -1.038735e+002 -1.530521e+001 1.179747e+002 -1.526433e+001 1.172745e+002 -2.354207e+001 -6.909077e+001
15586056250 -1.056925e+001 -1.043558e+002 -1.542068e+001 1.152184e+002 -1.538688e+001 1.144743e+002 -2.398584e+001 -6.937432e+001
15604800000 -1.047106e+001 -1.048237e+002 -1.554920e+001 1.124669e+002 -1.550190e+001 1.116907e+002 -2.444013e+001 -6.963894e+001
15623543750 -1.037911e+001 -1.052987e+002 -1.567266e+001 1.096648e+002 -1.563182e+001 1.089477e+002 -2.489854e+001 -6.988967e+001
15642287500 -1.028112e+001 -1.058091e+002 -1.579932e+001 1.069396e+002 -1.576240e+001 1.061400e+002 -2.535460e+001 -6.990434e+001
15661031250 -1.018004e+001 -1.062809e+002 -1.593783e+001 1.041574e+002 -1.589018e+001 1.033722e+002 -2.591396e+001 -6.951624e+001
15679775000 -1.008035e+001 -1.067724e+002 -1.606809e+001 1.013740e+002 -1.603042e+001 1.006347e+002 -2.655943e+001 -6.985895e+001
15698518750 -9.979616e+000 -1.072772e+002 -1.620507e+001 9.866069e+001 -1.617085e+001 9.783261e+001 -2.722673e+001 -7.051500e+001
15717262500 -9.878181e+000 -1.077631e+002 -1.635359e+001 9.588032e+001 -1.631110e+001 9.509621e+001 -2.793723e+001 -7.104160e+001
15736006250 -9.783987e+000 -1.082757e+002 -1.649299e+001 9.308186e+001 -1.646220e+001 9.236930e+001 -2.883739e+001 -7.175306e+001
15754750000 -9.686182e+000 -1.088133e+002 -1.664471e+001 9.038821e+001 -1.660871e+001 8.955760e+001 -2.992118e+001 -7.153856e+001
15773493750 -9.585388e+000 -1.093318e+002 -1.680238e+001 8.762547e+001 -1.675861e+001 8.682736e+001 -3.079428e+001 -6.495643e+001
15792237500 -9.489372e+000 -1.098472e+002 -1.695482e+001 8.488583e+001 -1.691903e+001 8.408385e+001 -3.148197e+001 -5.673398e+001
15810981250 -9.391112e+000 -1.103838e+002 -1.711364e+001 8.217760e+001 -1.707702e+001 8.133197e+001 -3.211627e+001 -4.851382e+001
15829725000 -9.288034e+000 -1.108824e+002 -1.727179e+001 7.944161e+001 -1.723753e+001 7.857764e+001 -3.262795e+001 -4.063273e+001
15848468750 -9.197667e+000 -1.114114e+002 -1.743246e+001 7.669340e+001 -1.739968e+001 7.584015e+001 -3.303023e+001 -3.331506e+001
15867212500 -9.101359e+000 -1.120181e+002 -1.760084e+001 7.401166e+001 -1.756995e+001 7.318224e+001 -3.324192e+001 -2.651697e+001
15885956250 -9.002414e+000 -1.125549e+002 -1.778273e+001 7.130688e+001 -1.774277e+001 7.041563e+001 -3.333192e+001 -1.940265e+001
15904700000 -8.909123e+000 -1.131497e+002 -1.795065e+001 6.859497e+001 -1.791496e+001 6.770826e+001 -3.337700e+001 -1.205637e+001
15923443750 -8.816053e+000 -1.137521e+002 -1.813289e+001 6.594001e+001 -1.809796e+001 6.505789e+001 -3.336239e+001 -4.919326e+000
15942187500 -8.721456e+000 -1.142942e+002 -1.831833e+001 6.325407e+001 -1.828508e+001 6.234364e+001 -3.332174e+001 2.238916e+000
15960931250 -8.636077e+000 -1.149094e+002 -1.849714e+001 6.057329e+001 -1.846359e+001 5.969744e+001 -3.319956e+001 8.927980e+000
15979675000 -8.542900e+000 -1.155528e+002 -1.869153e+001 5.793168e+001 -1.866092e+001 5.703295e+001 -3.294877e+001 1.536440e+001
15998418750 -8.447013e+000 -1.161387e+002 -1.888635e+001 5.527990e+001 -1.885516e+001 5.432840e+001 -3.262582e+001 2.221288e+001
16017162500 -8.363523e+000 -1.167673e+002 -1.906860e+001 5.261183e+001 -1.904292e+001 5.171162e+001 -3.225604e+001 2.908709e+001
16035906250 -8.271299e+000 -1.174026e+002 -1.926972e+001 5.002769e+001 -1.924964e+001 4.908799e+001 -3.183717e+001 3.596526e+001
16054650000 -8.184534e+000 -1.180032e+002 -1.947375e+001 4.740090e+001 -1.944662e+001 4.638142e+001 -3.138583e+001 4.269326e+001
16073393750 -8.106241e+000 -1.186637e+002 -1.967318e+001 4.481898e+001 -1.964607e+001 4.384862e+001 -3.086443e+001 4.891172e+001
16092137500 -8.017137e+000 -1.193355e+002 -1.988040e+001 4.229682e+001 -1.985971e+001 4.126798e+001 -3.017256e+001 5.485383e+001
16110881250 -7.931757e+000 -1.199623e+002 -2.009676e+001 3.969355e+001 -2.006184e+001 3.863126e+001 -2.936695e+001 6.158015e+001
16129625000 -7.852864e+000 -1.206395e+002 -2.030674e+001 3.712833e+001 -2.026618e+001 3.611486e+001 -2.849322e+001 6.842967e+001
16148368750 -7.769828e+000 -1.213015e+002 -2.052649e+001 3.462283e+001 -2.049129e+001 3.349074e+001 -2.755663e+001 7.517174e+001
16167112500 -7.689837e+000 -1.219349e+002 -2.074511e+001 3.209225e+001 -2.070162e+001 3.090536e+001 -2.640344e+001 8.182320e+001
16185856250 -7.618970e+000 -1.226349e+002 -2.096165e+001 2.957442e+001 -2.091804e+001 2.845040e+001 -2.500027e+001 8.730003e+001
16204600000 -7.536951e+000 -1.233327e+002 -2.118930e+001 2.704306e+001 -2.114783e+001 2.585714e+001 -2.373929e+001 8.651170e+001
16223343750 -7.458921e+000 -1.239904e+002 -2.142208e+001 2.458261e+001 -2.137057e+001 2.332438e+001 -2.265112e+001 8.415746e+001
16242087500 -7.386842e+000 -1.246809e+002 -2.165472e+001 2.213327e+001 -2.160069e+001 2.088725e+001 -2.158161e+001 8.157663e+001
16260831250 -7.313390e+000 -1.253830e+002 -2.189974e+001 1.969216e+001 -2.183887e+001 1.842027e+001 -2.061620e+001 7.933597e+001
16279575000 -7.241374e+000 -1.260698e+002 -2.214297e+001 1.726887e+001 -2.207995e+001 1.595191e+001 -1.974162e+001 7.734538e+001
16298318750 -7.175831e+000 -1.267638e+002 -2.238709e+001 1.482859e+001 -2.232200e+001 1.347776e+001 -1.897362e+001 7.557785e+001
16317062500 -7.102243e+000 -1.274905e+002 -2.262406e+001 1.243285e+001 -2.256863e+001 1.107088e+001 -1.827665e+001 7.368012e+001
16335806250 -7.032195e+000 -1.281673e+002 -2.287267e+001 1.006273e+001 -2.281749e+001 8.654360e+000 -1.762848e+001 7.158993e+001
16354550000 -6.965352e+000 -1.288628e+002 -2.312301e+001 7.613594e+000 -2.306626e+001 6.280100e+000 -1.699874e+001 6.951168e+001
16373293750 -6.899134e+000 -1.295832e+002 -2.337071e+001 5.233300e+000 -2.331095e+001 3.930159e+000 -1.639334e+001 6.750260e+001
16392037500 -6.836898e+000 -1.302590e+002 -2.363168e+001 2.930074e+000 -2.356190e+001 1.558075e+000 -1.583931e+001 6.551156e+001
16410781250 -6.776814e+000 -1.309736e+002 -2.388633e+001 6.120376e-001 -2.381466e+001 -6.930549e-001 -1.532415e+001 6.351011e+001
16429525000 -6.712878e+000 -1.316990e+002 -2.414717e+001 -1.648515e+000 -2.407360e+001 -2.932836e+000 -1.483242e+001 6.147200e+001
16448268750 -6.648661e+000 -1.323722e+002 -2.442364e+001 -3.821963e+000 -2.433479e+001 -5.202775e+000 -1.437721e+001 5.944778e+001
16467012500 -6.591933e+000 -1.330780e+002 -2.468932e+001 -6.062795e+000 -2.459769e+001 -7.461522e+000 -1.392600e+001 5.739515e+001
16485756250 -6.532237e+000 -1.337814e+002 -2.496432e+001 -8.269419e+000 -2.487138e+001 -9.633331e+000 -1.349943e+001 5.532743e+001
16504500000 -6.475712e+000 -1.344727e+002 -2.524439e+001 -1.050857e+001 -2.515291e+001 -1.184251e+001 -1.309550e+001 5.331337e+001
16523243750 -6.421618e+000 -1.352017e+002 -2.550965e+001 -1.272854e+001 -2.542539e+001 -1.404950e+001 -1.271169e+001 5.125298e+001
16541987500 -6.364964e+000 -1.359191e+002 -2.578568e+001 -1.477258e+001 -2.570797e+001 -1.620797e+001 -1.234950e+001 4.918831e+001
16560731250 -6.310884e+000 -1.366057e+002 -2.607241e+001 -1.688332e+001 -2.600280e+001 -1.835988e+001 -1.199855e+001 4.714188e+001
16579475000 -6.259918e+000 -1.373339e+002 -2.634725e+001 -1.897781e+001 -2.628844e+001 -2.039834e+001 -1.166008e+001 4.510090e+001
16598218750 -6.209424e+000 -1.380403e+002 -2.663255e+001 -2.097147e+001 -2.657727e+001 -2.241072e+001 -1.133934e+001 4.311737e+001
16616962500 -6.160719e+000 -1.387319e+002 -2.692182e+001 -2.304652e+001 -2.687071e+001 -2.450567e+001 -1.103378e+001 4.112469e+001
16635706250 -6.111496e+000 -1.394690e+002 -2.720365e+001 -2.502892e+001 -2.715641e+001 -2.649695e+001 -1.074258e+001 3.914434e+001
16654450000 -6.061180e+000 -1.402029e+002 -2.750276e+001 -2.697060e+001 -2.745776e+001 -2.840269e+001 -1.046595e+001 3.716635e+001
16673193750 -6.015448e+000 -1.408855e+002 -2.779632e+001 -2.891449e+001 -2.774290e+001 -3.036849e+001 -1.020447e+001 3.520569e+001
16691937500 -5.970224e+000 -1.416162e+002 -2.807736e+001 -3.088400e+001 -2.803698e+001 -3.228468e+001 -9.946881e+000 3.324233e+001
16710681250 -5.925392e+000 -1.423277e+002 -2.836673e+001 -3.272809e+001 -2.833700e+001 -3.420057e+001 -9.701905e+000 3.131078e+001
16729425000 -5.884565e+000 -1.430293e+002 -2.865694e+001 -3.460165e+001 -2.862877e+001 -3.605143e+001 -9.470312e+000 2.940699e+001
16748168750 -5.842677e+000 -1.437699e+002 -2.894147e+001 -3.637218e+001 -2.891411e+001 -3.786124e+001 -9.246881e+000 2.749048e+001
16766912500 -5.798142e+000 -1.444695e+002 -2.925299e+001 -3.814931e+001 -2.921770e+001 -3.958940e+001 -9.035274e+000 2.564482e+001
16785656250 -5.757953e+000 -1.451758e+002 -2.955112e+001 -3.979242e+001 -2.950236e+001 -4.147867e+001 -8.831094e+000 2.378573e+001
16804400000 -5.716413e+000 -1.459055e+002 -2.985690e+001 -4.146598e+001 -2.981317e+001 -4.321658e+001 -8.637527e+000 2.192405e+001
16823143750 -5.674671e+000 -1.466163e+002 -3.016214e+001 -4.321720e+001 -3.013675e+001 -4.494842e+001 -8.447564e+000 2.011593e+001
16841887500 -5.638941e+000 -1.473229e+002 -3.045575e+001 -4.487538e+001 -3.044073e+001 -4.677787e+001 -8.268414e+000 1.830906e+001
16860631250 -5.599475e+000 -1.480581e+002 -3.074689e+001 -4.650119e+001 -3.073919e+001 -4.845019e+001 -8.099942e+000 1.650676e+001
16879375000 -5.560639e+000 -1.487659e+002 -3.106213e+001 -4.808584e+001 -3.106793e+001 -5.016208e+001 -7.935199e+000 1.475379e+001
16898118750 -5.525892e+000 -1.494650e+002 -3.134110e+001 -4.977834e+001 -3.136717e+001 -5.180807e+001 -7.780776e+000 1.300951e+001
16916862500 -5.488843e+000 -1.501920e+002 -3.163123e+001 -5.133915e+001 -3.165875e+001 -5.338306e+001 -7.632163e+000 1.129550e+001
16935606250 -5.454641e+000 -1.508682e+002 -3.192856e+001 -5.289866e+001 -3.196590e+001 -5.504370e+001 -7.493680e+000 9.617474e+000
16954350000 -5.424669e+000 -1.515871e+002 -3.224550e+001 -5.430704e+001 -3.226852e+001 -5.653571e+001 -7.362333e+000 7.937669e+000
16973093750 -5.388641e+000 -1.523119e+002 -3.254778e+001 -5.580425e+001 -3.255972e+001 -5.794749e+001 -7.231777e+000 6.294186e+000
16991837500 -5.355086e+000 -1.529934e+002 -3.284466e+001 -5.729923e+001 -3.286451e+001 -5.945790e+001 -7.112960e+000 4.689559e+000
17010581250 -5.323769e+000 -1.536781e+002 -3.312838e+001 -5.875917e+001 -3.316331e+001 -6.097782e+001 -6.997271e+000 3.061818e+000
17029325000 -5.288959e+000 -1.543910e+002 -3.342303e+001 -6.029177e+001 -3.347021e+001 -6.250656e+001 -6.885420e+000 1.467756e+000
17048068750 -5.261209e+000 -1.550766e+002 -3.373738e+001 -6.173742e+001 -3.376343e+001 -6.395583e+001 -6.780486e+000 -6.572640e-002
17066812500 -5.237221e+000 -1.557950e+002 -3.401658e+001 -6.313118e+001 -3.406519e+001 -6.518208e+001 -6.679430e+000 -1.628579e+000
17085556250 -5.204866e+000 -1.564919e+002 -3.430870e+001 -6.454984e+001 -3.436891e+001 -6.663956e+001 -6.581028e+000 -3.140794e+000
17104300000 -5.174091e+000 -1.571589e+002 -3.461380e+001 -6.610425e+001 -3.465561e+001 -6.791558e+001 -6.490403e+000 -4.611053e+000
17123043750 -5.150108e+000 -1.578470e+002 -3.490014e+001 -6.743691e+001 -3.496199e+001 -6.947856e+001 -6.404659e+000 -6.110179e+000
17141787500 -5.120938e+000 -1.585210e+002 -3.521199e+001 -6.892108e+001 -3.526094e+001 -7.088229e+001 -6.320344e+000 -7.556406e+000
17160531250 -5.095654e+000 -1.591889e+002 -3.553608e+001 -7.035430e+001 -3.556725e+001 -7.244077e+001 -6.245275e+000 -8.961532e+000
17179275000 -5.075067e+000 -1.599057e+002 -3.582338e+001 -7.177141e+001 -3.586988e+001 -7.389336e+001 -6.171839e+000 -1.038740e+001
17198018750 -5.046197e+000 -1.606032e+002 -3.612862e+001 -7.321046e+001 -3.617162e+001 -7.537682e+001 -6.097958e+000 -1.178401e+001
17216762500 -5.020611e+000 -1.612582e+002 -3.640354e+001 -7.475483e+001 -3.648345e+001 -7.657262e+001 -6.034304e+000 -1.315102e+001
17235506250 -5.000809e+000 -1.619448e+002 -3.671341e+001 -7.622399e+001 -3.677957e+001 -7.802530e+001 -5.970417e+000 -1.452579e+001
17254250000 -4.974867e+000 -1.626084e+002 -3.705547e+001 -7.737655e+001 -3.708497e+001 -7.923732e+001 -5.908466e+000 -1.585379e+001
17272993750 -4.956277e+000 -1.632643e+002 -3.739024e+001 -7.853618e+001 -3.741904e+001 -8.021900e+001 -5.854445e+000 -1.716251e+001
17291737500 -4.936980e+000 -1.639839e+002 -3.770633e+001 -7.973857e+001 -3.772054e+001 -8.151567e+001 -5.795787e+000 -1.847746e+001
17310481250 -4.908614e+000 -1.646609e+002 -3.802171e+001 -8.157027e+001 -3.803665e+001 -8.296689e+001 -5.741196e+000 -1.973799e+001
17329225000 -4.887459e+000 -1.653109e+002 -3.835738e+001 -8.267820e+001 -3.837860e+001 -8.403618e+001 -5.693589e+000 -2.099745e+001
17347968750 -4.867809e+000 -1.659982e+002 -3.870653e+001 -8.425073e+001 -3.871115e+001 -8.538665e+001 -5.643095e+000 -2.226495e+001
17366712500 -4.842850e+000 -1.666581e+002 -3.901054e+001 -8.537046e+001 -3.909253e+001 -8.680413e+001 -5.594284e+000 -2.349533e+001
17385456250 -4.828116e+000 -1.673112e+002 -3.931606e+001 -8.674698e+001 -3.948127e+001 -8.802768e+001 -5.552013e+000 -2.471093e+001
17404200000 -4.810447e+000 -1.680379e+002 -3.969436e+001 -8.819432e+001 -3.985904e+001 -8.939461e+001 -5.507979e+000 -2.594122e+001
17422943750 -4.785390e+000 -1.687076e+002 -3.999311e+001 -8.943561e+001 -4.020350e+001 -9.062262e+001 -5.465625e+000 -2.712067e+001
17441687500 -4.769306e+000 -1.693629e+002 -4.036839e+001 -9.118508e+001 -4.051815e+001 -9.218899e+001 -5.428373e+000 -2.828709e+001
17460431250 -4.750733e+000 -1.700387e+002 -4.075777e+001 -9.221964e+001 -4.085940e+001 -9.341870e+001 -5.389726e+000 -2.945288e+001
17479175000 -4.729285e+000 -1.706779e+002 -4.104594e+001 -9.305585e+001 -4.124031e+001 -9.452744e+001 -5.355450e+000 -3.058331e+001
17497918750 -4.713955e+000 -1.713326e+002 -4.140969e+001 -9.426968e+001 -4.153050e+001 -9.601470e+001 -5.327022e+000 -3.172675e+001
17516662500 -4.696582e+000 -1.720576e+002 -4.186564e+001 -9.548718e+001 -4.185183e+001 -9.730742e+001 -5.294781e+000 -3.286665e+001
17535406250 -4.670638e+000 -1.727276e+002 -4.224039e+001 -9.680509e+001 -4.225179e+001 -9.814683e+001 -5.267618e+000 -3.398243e+001
17554150000 -4.656777e+000 -1.733759e+002 -4.260910e+001 -9.792993e+001 -4.264917e+001 -9.947618e+001 -5.239999e+000 -3.509297e+001
17572893750 -4.639260e+000 -1.740645e+002 -4.292883e+001 -9.931359e+001 -4.307158e+001 -1.009745e+002 -5.210339e+000 -3.618814e+001
17591637500 -4.619543e+000 -1.747093e+002 -4.342620e+001 -1.000223e+002 -4.343446e+001 -1.014781e+002 -5.185776e+000 -3.726017e+001
17610381250 -4.609816e+000 -1.753707e+002 -4.385200e+001 -1.010285e+002 -4.390288e+001 -1.025317e+002 -5.162723e+000 -3.835257e+001
17629125000 -4.593372e+000 -1.760872e+002 -4.422084e+001 -1.013857e+002 -4.434838e+001 -1.040133e+002 -5.137066e+000 -3.941824e+001
17647868750 -4.572958e+000 -1.767328e+002 -4.466304e+001 -1.028590e+002 -4.476020e+001 -1.050963e+002 -5.116199e+000 -4.046698e+001
17666612500 -4.559534e+000 -1.773725e+002 -4.502531e+001 -1.036099e+002 -4.522684e+001 -1.054923e+002 -5.093686e+000 -4.151985e+001
17685356250 -4.543389e+000 -1.780329e+002 -4.539560e+001 -1.059560e+002 -4.570106e+001 -1.067659e+002 -5.071140e+000 -4.256314e+001
17704100000 -4.524760e+000 -1.786528e+002 -4.573725e+001 -1.073455e+002 -4.621389e+001 -1.092485e+002 -5.052354e+000 -4.359787e+001
17722843750 -4.518787e+000 -1.793227e+002 -4.616148e+001 -1.078314e+002 -4.663813e+001 -1.114783e+002 -5.034929e+000 -4.463120e+001
17741587500 -4.502409e+000 1.799885e+002 -4.657083e+001 -1.078059e+002 -4.719887e+001 -1.118347e+002 -5.015016e+000 -4.566499e+001
17760331250 -4.480259e+000 1.793557e+002 -4.697921e+001 -1.084887e+002 -4.775822e+001 -1.133008e+002 -4.999645e+000 -4.667035e+001
17779075000 -4.472023e+000 1.787286e+002 -4.752260e+001 -1.095941e+002 -4.830801e+001 -1.150750e+002 -4.983170e+000 -4.767531e+001
17797818750 -4.454904e+000 1.780575e+002 -4.816345e+001 -1.107835e+002 -4.879377e+001 -1.147214e+002 -4.969625e+000 -4.867010e+001
17816562500 -4.442662e+000 1.774486e+002 -4.868064e+001 -1.118652e+002 -4.925115e+001 -1.160764e+002 -4.956870e+000 -4.966338e+001
17835306250 -4.441888e+000 1.767917e+002 -4.915322e+001 -1.125043e+002 -5.025085e+001 -1.156976e+002 -4.943449e+000 -5.066771e+001
17854050000 -4.422104e+000 1.760769e+002 -5.029679e+001 -1.142090e+002 -5.082682e+001 -1.172059e+002 -4.929934e+000 -5.164636e+001
17872793750 -4.406387e+000 1.754709e+002 -5.098227e+001 -1.159802e+002 -5.168584e+001 -1.174797e+002 -4.919657e+000 -5.263880e+001
17891537500 -4.402600e+000 1.748142e+002 -5.218713e+001 -1.145399e+002 -5.260555e+001 -1.192644e+002 -4.906454e+000 -5.361882e+001
17910281250 -4.382978e+000 1.741461e+002 -5.281759e+001 -1.139763e+002 -5.320644e+001 -1.179244e+002 -4.897042e+000 -5.458109e+001
17929025000 -4.374641e+000 1.735504e+002 -5.332896e+001 -1.177610e+002 -5.397863e+001 -1.226490e+002 -4.885052e+000 -5.552822e+001
17947768750 -4.371009e+000 1.728721e+002 -5.408489e+001 -1.271415e+002 -5.502381e+001 -1.284987e+002 -4.874599e+000 -5.648975e+001
17966512500 -4.353595e+000 1.721706e+002 -5.463118e+001 -1.400780e+002 -5.564993e+001 -1.325349e+002 -4.864019e+000 -5.742337e+001
17985256250 -4.340468e+000 1.715786e+002 -5.535371e+001 -1.469678e+002 -5.610056e+001 -1.383351e+002 -4.853770e+000 -5.836367e+001
18004000000 -4.330462e+000 1.709197e+002 -5.696327e+001 -1.478259e+002 -5.665952e+001 -1.438564e+002 -4.847816e+000 -5.928140e+001
18022743750 -4.311775e+000 1.702731e+002 -5.738545e+001 -1.539680e+002 -5.745518e+001 -1.529200e+002 -4.839480e+000 -6.020861e+001
18041487500 -4.303172e+000 1.696794e+002 -5.856857e+001 -1.609208e+002 -5.807555e+001 -1.598692e+002 -4.832514e+000 -6.112899e+001
18060231250 -4.300015e+000 1.690074e+002 -5.945137e+001 -1.620702e+002 -5.856322e+001 -1.669018e+002 -4.826779e+000 -6.206305e+001
18078975000 -4.282012e+000 1.683244e+002 -5.975443e+001 -1.673763e+002 -5.894506e+001 -1.734804e+002 -4.817424e+000 -6.296536e+001
18097718750 -4.272389e+000 1.677206e+002 -6.018042e+001 -1.733271e+002 -5.935400e+001 1.789831e+002 -4.810390e+000 -6.388414e+001
18116462500 -4.263087e+000 1.670383e+002 -6.095541e+001 -1.782646e+002 -5.967541e+001 1.722565e+002 -4.806024e+000 -6.478746e+001
18135206250 -4.247603e+000 1.663986e+002 -6.158507e+001 1.731104e+002 -5.963583e+001 1.667135e+002 -4.804205e+000 -6.566126e+001
18153950000 -4.245260e+000 1.658208e+002 -6.178111e+001 1.652682e+002 -5.997429e+001 1.593463e+002 -4.798759e+000 -6.655530e+001
18172693750 -4.238047e+000 1.651163e+002 -6.201079e+001 1.586199e+002 -6.017813e+001 1.532599e+002 -4.796914e+000 -6.744811e+001
18191437500 -4.224968e+000 1.644557e+002 -6.217649e+001 1.494774e+002 -6.035058e+001 1.463851e+002 -4.792035e+000 -6.833667e+001
18210181250 -4.215439e+000 1.638528e+002 -6.208896e+001 1.426157e+002 -6.033256e+001 1.406545e+002 -4.788836e+000 -6.923492e+001
18228925000 -4.207863e+000 1.631788e+002 -6.216268e+001 1.344822e+002 -6.030676e+001 1.306830e+002 -4.788002e+000 -7.009983e+001
18247668750 -4.192388e+000 1.625860e+002 -6.222663e+001 1.266029e+002 -6.029726e+001 1.230290e+002 -4.784196e+000 -7.097689e+001
18266412500 -4.186212e+000 1.619777e+002 -6.203024e+001 1.175832e+002 -5.993124e+001 1.147629e+002 -4.783953e+000 -7.184267e+001
18285156250 -4.181987e+000 1.613037e+002 -6.142051e+001 1.113358e+002 -5.976616e+001 1.074582e+002 -4.782666e+000 -7.272356e+001
18303900000 -4.168581e+000 1.606498e+002 -6.113729e+001 1.055925e+002 -5.925178e+001 9.943285e+001 -4.781396e+000 -7.358752e+001
18322643750 -4.162136e+000 1.600357e+002 -6.040157e+001 9.501661e+001 -5.864709e+001 9.297506e+001 -4.781777e+000 -7.445677e+001
18341387500 -4.153813e+000 1.593778e+002 -6.011645e+001 8.536335e+001 -5.843042e+001 8.378905e+001 -4.780702e+000 -7.530811e+001
18360131250 -4.143969e+000 1.587699e+002 -5.977293e+001 8.017829e+001 -5.797040e+001 8.047794e+001 -4.779937e+000 -7.616267e+001
18378875000 -4.144894e+000 1.581603e+002 -5.913289e+001 8.089781e+001 -5.716777e+001 7.667729e+001 -4.780190e+000 -7.702618e+001
18397618750 -4.139691e+000 1.574688e+002 -5.880269e+001 8.492712e+001 -5.666316e+001 7.114648e+001 -4.779771e+000 -7.788374e+001
18416362500 -4.128059e+000 1.568226e+002 -5.835038e+001 8.352573e+001 -5.625822e+001 6.768851e+001 -4.781507e+000 -7.872768e+001
18435106250 -4.126477e+000 1.562007e+002 -5.692403e+001 7.518948e+001 -5.576218e+001 6.397492e+001 -4.780866e+000 -7.959575e+001
18453850000 -4.121973e+000 1.555375e+002 -5.638554e+001 7.173637e+001 -5.508892e+001 6.423717e+001 -4.782163e+000 -8.043027e+001
18472593750 -4.114743e+000 1.549403e+002 -5.518054e+001 6.948579e+001 -5.445032e+001 6.227906e+001 -4.782702e+000 -8.127760e+001
18491337500 -4.112954e+000 1.542908e+002 -5.431917e+001 6.114339e+001 -5.389865e+001 6.060009e+001 -4.784213e+000 -8.210396e+001
18510081250 -4.105349e+000 1.536136e+002 -5.400385e+001 5.753848e+001 -5.351616e+001 5.849268e+001 -4.788018e+000 -8.295264e+001
18528825000 -4.098200e+000 1.529744e+002 -5.346820e+001 5.461600e+001 -5.306301e+001 5.700323e+001 -4.792058e+000 -8.377673e+001
18547568750 -4.094237e+000 1.523356e+002 -5.263181e+001 5.192673e+001 -5.260257e+001 5.402947e+001 -4.791046e+000 -8.459686e+001
18566312500 -4.086237e+000 1.516698e+002 -5.194627e+001 5.172395e+001 -5.236681e+001 5.171055e+001 -4.792079e+000 -8.543334e+001
18585056250 -4.078767e+000 1.510556e+002 -5.159382e+001 4.930169e+001 -5.181223e+001 5.077958e+001 -4.796194e+000 -8.626296e+001
18603800000 -4.080857e+000 1.503912e+002 -5.117603e+001 4.622546e+001 -5.126832e+001 4.791667e+001 -4.801063e+000 -8.708210e+001
18622543750 -4.074560e+000 1.497103e+002 -5.085796e+001 4.572916e+001 -5.074558e+001 4.584217e+001 -4.805211e+000 -8.790762e+001
18641287500 -4.068431e+000 1.490546e+002 -5.053769e+001 4.328550e+001 -5.041689e+001 4.326612e+001 -4.809747e+000 -8.872300e+001
18660031250 -4.065970e+000 1.483884e+002 -5.008920e+001 4.206135e+001 -5.006108e+001 4.269681e+001 -4.810894e+000 -8.953156e+001
18678775000 -4.058761e+000 1.477177e+002 -4.968685e+001 4.060157e+001 -4.964120e+001 4.137668e+001 -4.816611e+000 -9.033858e+001
18697518750 -4.056982e+000 1.471031e+002 -4.946018e+001 3.981855e+001 -4.910269e+001 3.903946e+001 -4.821331e+000 -9.114844e+001
18716262500 -4.059009e+000 1.464443e+002 -4.902187e+001 3.713449e+001 -4.872291e+001 3.742219e+001 -4.826627e+000 -9.193717e+001
18735006250 -4.053827e+000 1.457594e+002 -4.868374e+001 3.517558e+001 -4.844572e+001 3.523116e+001 -4.831539e+000 -9.272282e+001
18753750000 -4.049020e+000 1.451098e+002 -4.818356e+001 3.374577e+001 -4.820758e+001 3.336937e+001 -4.837973e+000 -9.350697e+001
18772493750 -4.047009e+000 1.444375e+002 -4.792234e+001 3.225671e+001 -4.784509e+001 3.017547e+001 -4.844379e+000 -9.430099e+001
18791237500 -4.038539e+000 1.437981e+002 -4.778151e+001 3.044814e+001 -4.761946e+001 2.765556e+001 -4.853308e+000 -9.510192e+001
18809981250 -4.037890e+000 1.431744e+002 -4.754084e+001 2.846489e+001 -4.742526e+001 2.704053e+001 -4.863703e+000 -9.588281e+001
18828725000 -4.043319e+000 1.425163e+002 -4.723778e+001 2.683243e+001 -4.725149e+001 2.578413e+001 -4.870046e+000 -9.666572e+001
18847468750 -4.038973e+000 1.418435e+002 -4.689794e+001 2.465924e+001 -4.713091e+001 2.468232e+001 -4.879848e+000 -9.745243e+001
18866212500 -4.037540e+000 1.411792e+002 -4.676250e+001 2.335677e+001 -4.691921e+001 2.388993e+001 -4.888475e+000 -9.823895e+001
18884956250 -4.034502e+000 1.405070e+002 -4.659428e+001 2.195030e+001 -4.671413e+001 2.215886e+001 -4.897320e+000 -9.901566e+001
18903700000 -4.028767e+000 1.398778e+002 -4.646279e+001 2.074426e+001 -4.652608e+001 2.050540e+001 -4.909647e+000 -9.979095e+001
18922443750 -4.032192e+000 1.392731e+002 -4.623320e+001 1.921360e+001 -4.633224e+001 1.928740e+001 -4.919143e+000 -1.005799e+002
18941187500 -4.039098e+000 1.385972e+002 -4.609455e+001 1.819375e+001 -4.617278e+001 1.763577e+001 -4.930405e+000 -1.013494e+002
18959931250 -4.038395e+000 1.379267e+002 -4.603244e+001 1.674740e+001 -4.595201e+001 1.576508e+001 -4.940326e+000 -1.021321e+002
18978675000 -4.040046e+000 1.372547e+002 -4.582345e+001 1.511909e+001 -4.581492e+001 1.548407e+001 -4.954209e+000 -1.029179e+002
18997418750 -4.038391e+000 1.365837e+002 -4.564280e+001 1.380568e+001 -4.579065e+001 1.415008e+001 -4.966490e+000 -1.036929e+002
19016162500 -4.034811e+000 1.359531e+002 -4.550614e+001 1.299849e+001 -4.577380e+001 1.316236e+001 -4.978850e+000 -1.044705e+002
19034906250 -4.042905e+000 1.353347e+002 -4.546917e+001 1.188414e+001 -4.564402e+001 1.135280e+001 -4.991544e+000 -1.052386e+002
19053650000 -4.048682e+000 1.346648e+002 -4.530153e+001 1.036273e+001 -4.552235e+001 1.022037e+001 -5.004566e+000 -1.060083e+002
19072393750 -4.049997e+000 1.339840e+002 -4.518729e+001 9.850298e+000 -4.541871e+001 8.970740e+000 -5.020021e+000 -1.067794e+002
19091137500 -4.053813e+000 1.333158e+002 -4.496441e+001 9.430495e+000 -4.533879e+001 7.925160e+000 -5.035953e+000 -1.075631e+002
19109881250 -4.052550e+000 1.326347e+002 -4.484971e+001 8.260502e+000 -4.530028e+001 6.470131e+000 -5.051121e+000 -1.083294e+002
19128625000 -4.052852e+000 1.319969e+002 -4.477156e+001 7.349167e+000 -4.515212e+001 5.150068e+000 -5.066766e+000 -1.090904e+002
19147368750 -4.063361e+000 1.313472e+002 -4.465935e+001 6.578655e+000 -4.508553e+001 3.987961e+000 -5.083516e+000 -1.098779e+002
19166112500 -4.068500e+000 1.306513e+002 -4.452490e+001 4.886911e+000 -4.502366e+001 3.541877e+000 -5.101589e+000 -1.106523e+002
19184856250 -4.070813e+000 1.299718e+002 -4.447921e+001 4.061203e+000 -4.494662e+001 2.267369e+000 -5.120805e+000 -1.114267e+002
19203600000 -4.077209e+000 1.292702e+002 -4.436192e+001 2.927814e+000 -4.493166e+001 1.825789e+000 -5.140386e+000 -1.122030e+002
19222343750 -4.076476e+000 1.285656e+002 -4.421644e+001 2.169762e+000 -4.480106e+001 9.404340e-001 -5.161682e+000 -1.129608e+002
19241087500 -4.076373e+000 1.279236e+002 -4.412514e+001 9.537817e-001 -4.472030e+001 7.288802e-002 -5.185326e+000 -1.137398e+002
19259831250 -4.083788e+000 1.272633e+002 -4.406560e+001 -1.653639e-001 -4.466185e+001 -8.536145e-001 -5.207493e+000 -1.145214e+002
19278575000 -4.086181e+000 1.265678e+002 -4.398791e+001 -1.435084e+000 -4.453742e+001 -1.382980e+000 -5.227963e+000 -1.152898e+002
19297318750 -4.091265e+000 1.258860e+002 -4.375567e+001 -2.215783e+000 -4.449469e+001 -2.545620e+000 -5.251877e+000 -1.160634e+002
19316062500 -4.097139e+000 1.251784e+002 -4.368486e+001 -3.174543e+000 -4.440109e+001 -4.085990e+000 -5.274736e+000 -1.168447e+002
19334806250 -4.094899e+000 1.244825e+002 -4.356110e+001 -4.625356e+000 -4.438978e+001 -4.829742e+000 -5.300044e+000 -1.176150e+002
19353550000 -4.099063e+000 1.238236e+002 -4.359424e+001 -5.511451e+000 -4.440583e+001 -5.940616e+000 -5.328881e+000 -1.183945e+002
19372293750 -4.107795e+000 1.231429e+002 -4.351820e+001 -6.512247e+000 -4.438237e+001 -6.924502e+000 -5.352630e+000 -1.191774e+002
19391037500 -4.108419e+000 1.224557e+002 -4.348733e+001 -7.828416e+000 -4.437863e+001 -8.241453e+000 -5.379306e+000 -1.199450e+002
19409781250 -4.116606e+000 1.217597e+002 -4.348225e+001 -9.024926e+000 -4.425894e+001 -9.612897e+000 -5.408516e+000 -1.207271e+002
19428525000 -4.122715e+000 1.210631e+002 -4.346707e+001 -1.087161e+001 -4.423676e+001 -1.046167e+001 -5.435395e+000 -1.215137e+002
19447268750 -4.121787e+000 1.203855e+002 -4.341542e+001 -1.228302e+001 -4.423560e+001 -1.149775e+001 -5.467342e+000 -1.222908e+002
19466012500 -4.128020e+000 1.197304e+002 -4.328673e+001 -1.370837e+001 -4.424912e+001 -1.256551e+001 -5.498309e+000 -1.230917e+002
19484756250 -4.135572e+000 1.190346e+002 -4.333711e+001 -1.428035e+001 -4.420012e+001 -1.343678e+001 -5.530030e+000 -1.239061e+002
19503500000 -4.140236e+000 1.183642e+002 -4.329158e+001 -1.572727e+001 -4.417611e+001 -1.439077e+001 -5.563422e+000 -1.246941e+002
19522243750 -4.148295e+000 1.176857e+002 -4.330423e+001 -1.713750e+001 -4.416412e+001 -1.574276e+001 -5.597604e+000 -1.255128e+002
19540987500 -4.153597e+000 1.169728e+002 -4.324616e+001 -1.780679e+001 -4.414972e+001 -1.623105e+001 -5.632838e+000 -1.263367e+002
19559731250 -4.152613e+000 1.163199e+002 -4.321241e+001 -1.852737e+001 -4.424567e+001 -1.667231e+001 -5.672052e+000 -1.271639e+002
19578475000 -4.158566e+000 1.156577e+002 -4.328979e+001 -1.934890e+001 -4.423529e+001 -1.710191e+001 -5.712663e+000 -1.280053e+002
19597218750 -4.166997e+000 1.149728e+002 -4.334176e+001 -1.979281e+001 -4.429942e+001 -1.780222e+001 -5.749875e+000 -1.288675e+002
19615962500 -4.173155e+000 1.142948e+002 -4.338315e+001 -2.056567e+001 -4.425043e+001 -1.831079e+001 -5.791176e+000 -1.297220e+002
19634706250 -4.184889e+000 1.136123e+002 -4.339179e+001 -2.155374e+001 -4.420632e+001 -1.882656e+001 -5.831341e+000 -1.306108e+002
19653450000 -4.189862e+000 1.129023e+002 -4.341513e+001 -2.219070e+001 -4.423352e+001 -1.919487e+001 -5.872275e+000 -1.314977e+002
19672193750 -4.194253e+000 1.122343e+002 -4.343270e+001 -2.209184e+001 -4.423724e+001 -2.008470e+001 -5.918499e+000 -1.323825e+002
19690937500 -4.206301e+000 1.115553e+002 -4.344032e+001 -2.205921e+001 -4.425235e+001 -2.019567e+001 -5.967537e+000 -1.332930e+002
19709681250 -4.217119e+000 1.108541e+002 -4.338218e+001 -2.217120e+001 -4.424647e+001 -2.013642e+001 -6.020835e+000 -1.342155e+002
19728425000 -4.224956e+000 1.101822e+002 -4.350050e+001 -2.262856e+001 -4.422274e+001 -1.992812e+001 -6.075099e+000 -1.351182e+002
19747168750 -4.238764e+000 1.094781e+002 -4.352016e+001 -2.254591e+001 -4.421392e+001 -1.981947e+001 -6.129091e+000 -1.360924e+002
19765912500 -4.244827e+000 1.087578e+002 -4.354340e+001 -2.204189e+001 -4.416855e+001 -1.982551e+001 -6.184767e+000 -1.370476e+002
19784656250 -4.251792e+000 1.080995e+002 -4.345741e+001 -2.270238e+001 -4.418091e+001 -1.992874e+001 -6.246993e+000 -1.380182e+002
19803400000 -4.263866e+000 1.074315e+002 -4.326893e+001 -2.271475e+001 -4.400584e+001 -2.046860e+001 -6.319318e+000 -1.390016e+002
19822143750 -4.279631e+000 1.067001e+002 -4.320155e+001 -2.278374e+001 -4.389083e+001 -1.984071e+001 -6.383800e+000 -1.400432e+002
19840887500 -4.285737e+000 1.060116e+002 -4.323406e+001 -2.294820e+001 -4.396199e+001 -1.966203e+001 -6.453663e+000 -1.410171e+002
19859631250 -4.300258e+000 1.053103e+002 -4.307271e+001 -2.150985e+001 -4.377129e+001 -1.985654e+001 -6.531714e+000 -1.420520e+002
19878375000 -4.309576e+000 1.045929e+002 -4.293098e+001 -2.131927e+001 -4.359739e+001 -1.988552e+001 -6.610274e+000 -1.430822e+002
19897118750 -4.316739e+000 1.038830e+002 -4.304559e+001 -2.086759e+001 -4.348032e+001 -2.010562e+001 -6.698054e+000 -1.441453e+002
19915862500 -4.327890e+000 1.032193e+002 -4.296848e+001 -2.101118e+001 -4.330916e+001 -2.019525e+001 -6.787605e+000 -1.452330e+002
19934606250 -4.339420e+000 1.024996e+002 -4.290774e+001 -2.086404e+001 -4.313462e+001 -2.018083e+001 -6.878700e+000 -1.463114e+002
19953350000 -4.350315e+000 1.017625e+002 -4.286280e+001 -2.150974e+001 -4.301549e+001 -1.961193e+001 -6.981898e+000 -1.473964e+002
19972093750 -4.360573e+000 1.010321e+002 -4.280131e+001 -2.189207e+001 -4.286841e+001 -1.974187e+001 -7.084636e+000 -1.484946e+002
19990837500 -4.368539e+000 1.002791e+002 -4.276778e+001 -2.198535e+001 -4.255557e+001 -1.963830e+001 -7.191517e+000 -1.495862e+002
20009581250 -4.378620e+000 9.956901e+001 -4.260517e+001 -2.234343e+001 -4.241939e+001 -2.027223e+001 -7.313704e+000 -1.507220e+002
20028325000 -4.386706e+000 9.887783e+001 -4.240645e+001 -2.289821e+001 -4.225808e+001 -2.075500e+001 -7.436376e+000 -1.518765e+002
20047068750 -4.398289e+000 9.816919e+001 -4.215917e+001 -2.303424e+001 -4.211418e+001 -2.120428e+001 -7.572638e+000 -1.530339e+002
20065812500 -4.408395e+000 9.743251e+001 -4.210214e+001 -2.334688e+001 -4.191769e+001 -2.146575e+001 -7.717330e+000 -1.542482e+002
20084556250 -4.421635e+000 9.670303e+001 -4.192929e+001 -2.389050e+001 -4.178792e+001 -2.222816e+001 -7.867804e+000 -1.554617e+002
20103300000 -4.430539e+000 9.597516e+001 -4.172906e+001 -2.425358e+001 -4.156366e+001 -2.276922e+001 -8.024012e+000 -1.566328e+002
20122043750 -4.441287e+000 9.528255e+001 -4.148159e+001 -2.530637e+001 -4.134673e+001 -2.376949e+001 -8.198850e+000 -1.579060e+002
20140787500 -4.453481e+000 9.458411e+001 -4.139145e+001 -2.614080e+001 -4.112119e+001 -2.510898e+001 -8.376519e+000 -1.591664e+002
20159531250 -4.468785e+000 9.382722e+001 -4.113393e+001 -2.665648e+001 -4.095255e+001 -2.618955e+001 -8.572734e+000 -1.604501e+002
20178275000 -4.482117e+000 9.308857e+001 -4.087637e+001 -2.760999e+001 -4.075606e+001 -2.715078e+001 -8.783673e+000 -1.617540e+002
20197018750 -4.491466e+000 9.234267e+001 -4.069485e+001 -2.923920e+001 -4.056131e+001 -2.884414e+001 -9.002752e+000 -1.630221e+002
20215762500 -4.496196e+000 9.161697e+001 -4.056137e+001 -3.009704e+001 -4.034771e+001 -2.994092e+001 -9.245427e+000 -1.643187e+002
20234506250 -4.505537e+000 9.089204e+001 -4.051179e+001 -3.142183e+001 -4.020781e+001 -3.118015e+001 -9.502644e+000 -1.656689e+002
20253250000 -4.511190e+000 9.018671e+001 -4.032380e+001 -3.326142e+001 -4.002558e+001 -3.266656e+001 -9.783156e+000 -1.670010e+002
20271993750 -4.527850e+000 8.946253e+001 -4.010904e+001 -3.460678e+001 -3.978297e+001 -3.439999e+001 -1.008193e+001 -1.684034e+002
20290737500 -4.540112e+000 8.867133e+001 -4.009060e+001 -3.697385e+001 -3.964273e+001 -3.606761e+001 -1.038784e+001 -1.697478e+002
20309481250 -4.547480e+000 8.789622e+001 -4.003868e+001 -3.832439e+001 -3.950237e+001 -3.790629e+001 -1.073147e+001 -1.710197e+002
20328225000 -4.554684e+000 8.718919e+001 -3.970285e+001 -4.044664e+001 -3.948734e+001 -3.918808e+001 -1.111144e+001 -1.722931e+002
20346968750 -4.568063e+000 8.644794e+001 -3.949490e+001 -4.225576e+001 -3.940370e+001 -4.073191e+001 -1.153152e+001 -1.735552e+002
20365712500 -4.582975e+000 8.570506e+001 -3.947807e+001 -4.401838e+001 -3.928849e+001 -4.255405e+001 -1.199006e+001 -1.748211e+002
20384456250 -4.598684e+000 8.497835e+001 -3.927541e+001 -4.516580e+001 -3.913272e+001 -4.430143e+001 -1.247058e+001 -1.760427e+002
20403200000 -4.614029e+000 8.419169e+001 -3.915717e+001 -4.691137e+001 -3.906046e+001 -4.640776e+001 -1.301211e+001 -1.771087e+002
20421943750 -4.623291e+000 8.341826e+001 -3.892945e+001 -4.894735e+001 -3.909093e+001 -4.807835e+001 -1.362458e+001 -1.779547e+002
20440687500 -4.631048e+000 8.272275e+001 -3.886746e+001 -5.047784e+001 -3.900327e+001 -4.925543e+001 -1.432227e+001 -1.784856e+002
20459431250 -4.648680e+000 8.200809e+001 -3.881260e+001 -5.176636e+001 -3.883905e+001 -5.075364e+001 -1.510679e+001 -1.784201e+002
20478175000 -4.659549e+000 8.124773e+001 -3.885072e+001 -5.379694e+001 -3.875500e+001 -5.306194e+001 -1.599178e+001 -1.776643e+002
20496918750 -4.679968e+000 8.051595e+001 -3.870809e+001 -5.577149e+001 -3.866451e+001 -5.503508e+001 -1.682504e+001 -1.758503e+002
20515662500 -4.690937e+000 7.970474e+001 -3.869291e+001 -5.760239e+001 -3.853654e+001 -5.650073e+001 -1.758197e+001 -1.729236e+002
20534406250 -4.697690e+000 7.890201e+001 -3.863848e+001 -6.008123e+001 -3.854628e+001 -5.804995e+001 -1.824765e+001 -1.692772e+002
20553150000 -4.706007e+000 7.812014e+001 -3.864141e+001 -6.156302e+001 -3.854198e+001 -6.002467e+001 -1.878769e+001 -1.650563e+002
20571893750 -4.719857e+000 7.736259e+001 -3.856893e+001 -6.328455e+001 -3.858127e+001 -6.124621e+001 -1.927750e+001 -1.606264e+002
20590637500 -4.732492e+000 7.662158e+001 -3.854575e+001 -6.491012e+001 -3.860353e+001 -6.252411e+001 -1.970409e+001 -1.560173e+002
20609381250 -4.746881e+000 7.586094e+001 -3.864481e+001 -6.726062e+001 -3.867419e+001 -6.410776e+001 -2.005138e+001 -1.514047e+002
20628125000 -4.765272e+000 7.503752e+001 -3.863824e+001 -6.889169e+001 -3.869312e+001 -6.532650e+001 -2.033675e+001 -1.467581e+002
20646868750 -4.776548e+000 7.419865e+001 -3.864119e+001 -7.069189e+001 -3.865313e+001 -6.744109e+001 -2.054881e+001 -1.419759e+002
20665612500 -4.793944e+000 7.344495e+001 -3.869544e+001 -7.266666e+001 -3.868537e+001 -6.842106e+001 -2.069474e+001 -1.370365e+002
20684356250 -4.808531e+000 7.267183e+001 -3.872144e+001 -7.417829e+001 -3.877987e+001 -7.069239e+001 -2.081005e+001 -1.319873e+002
20703100000 -4.825031e+000 7.191061e+001 -3.876279e+001 -7.548025e+001 -3.885156e+001 -7.170719e+001 -2.088166e+001 -1.269576e+002
20721843750 -4.846631e+000 7.111722e+001 -3.872652e+001 -7.679925e+001 -3.898230e+001 -7.349921e+001 -2.091421e+001 -1.219590e+002
20740587500 -4.865422e+000 7.028571e+001 -3.870665e+001 -7.771803e+001 -3.902677e+001 -7.443451e+001 -2.087587e+001 -1.169736e+002
20759331250 -4.878245e+000 6.946522e+001 -3.879792e+001 -7.910955e+001 -3.892452e+001 -7.637976e+001 -2.075050e+001 -1.118259e+002
20778075000 -4.892847e+000 6.868671e+001 -3.886769e+001 -7.988598e+001 -3.900147e+001 -7.770357e+001 -2.056269e+001 -1.066058e+002
20796818750 -4.904513e+000 6.789362e+001 -3.889621e+001 -8.114652e+001 -3.904414e+001 -7.911129e+001 -2.031308e+001 -1.013481e+002
20815562500 -4.918703e+000 6.712807e+001 -3.904329e+001 -8.241479e+001 -3.912662e+001 -8.010474e+001 -2.001686e+001 -9.608382e+001
20834306250 -4.939894e+000 6.633952e+001 -3.909729e+001 -8.354344e+001 -3.916550e+001 -8.076042e+001 -1.963242e+001 -9.100615e+001
20853050000 -4.957841e+000 6.552242e+001 -3.924871e+001 -8.507712e+001 -3.923286e+001 -8.242223e+001 -1.913688e+001 -8.613638e+001
20871793750 -4.969258e+000 6.468130e+001 -3.923344e+001 -8.651466e+001 -3.946649e+001 -8.397204e+001 -1.851454e+001 -8.147225e+001
20890537500 -4.983742e+000 6.387090e+001 -3.923842e+001 -8.788940e+001 -3.953776e+001 -8.499345e+001 -1.778362e+001 -7.738795e+001
20909281250 -5.004139e+000 6.307206e+001 -3.929791e+001 -8.948940e+001 -3.967821e+001 -8.591162e+001 -1.691380e+001 -7.393185e+001
20928025000 -5.016070e+000 6.227340e+001 -3.937221e+001 -9.010272e+001 -3.979758e+001 -8.668797e+001 -1.607045e+001 -7.148631e+001
20946768750 -5.040190e+000 6.147512e+001 -3.939812e+001 -9.115663e+001 -3.991959e+001 -8.801401e+001 -1.527885e+001 -7.023883e+001
20965512500 -5.060206e+000 6.065096e+001 -3.958790e+001 -9.135354e+001 -3.993798e+001 -8.956203e+001 -1.453626e+001 -6.975184e+001
20984256250 -5.075583e+000 5.988492e+001 -3.968136e+001 -9.245351e+001 -4.002213e+001 -9.072564e+001 -1.388593e+001 -6.973737e+001
21003000000 -5.089817e+000 5.906562e+001 -3.984143e+001 -9.337281e+001 -4.013350e+001 -9.195810e+001 -1.326289e+001 -6.998582e+001
21021743750 -5.108822e+000 5.825587e+001 -3.992815e+001 -9.525027e+001 -4.027626e+001 -9.365508e+001 -1.266826e+001 -7.041240e+001
21040487500 -5.125680e+000 5.746978e+001 -3.996323e+001 -9.551170e+001 -4.032472e+001 -9.454234e+001 -1.212926e+001 -7.080689e+001
21059231250 -5.147460e+000 5.662593e+001 -4.008266e+001 -9.631422e+001 -4.042376e+001 -9.550441e+001 -1.162740e+001 -7.139424e+001
21077975000 -5.166499e+000 5.578723e+001 -4.029858e+001 -9.727478e+001 -4.065250e+001 -9.488441e+001 -1.115135e+001 -7.207111e+001
21096718750 -5.175718e+000 5.494422e+001 -4.038217e+001 -9.795257e+001 -4.080535e+001 -9.611436e+001 -1.070862e+001 -7.283958e+001
21115462500 -5.194614e+000 5.412779e+001 -4.047883e+001 -9.855434e+001 -4.074941e+001 -9.615018e+001 -1.027333e+001 -7.374086e+001
21134206250 -5.208911e+000 5.332438e+001 -4.052696e+001 -9.933688e+001 -4.083883e+001 -9.764552e+001 -9.847063e+000 -7.461478e+001
21152950000 -5.228165e+000 5.252995e+001 -4.055278e+001 -1.007742e+002 -4.080138e+001 -9.800879e+001 -9.439732e+000 -7.554134e+001
21171693750 -5.250320e+000 5.167678e+001 -4.064183e+001 -1.023173e+002 -4.090601e+001 -9.890837e+001 -9.050765e+000 -7.658233e+001
21190437500 -5.263226e+000 5.082729e+001 -4.077612e+001 -1.036162e+002 -4.100274e+001 -9.931699e+001 -8.689932e+000 -7.773169e+001
21209181250 -5.278554e+000 4.997758e+001 -4.093441e+001 -1.053916e+002 -4.114592e+001 -1.004532e+002 -8.349189e+000 -7.892463e+001
21227925000 -5.293128e+000 4.915164e+001 -4.095008e+001 -1.060807e+002 -4.128742e+001 -1.010019e+002 -8.023676e+000 -8.024787e+001
21246668750 -5.312462e+000 4.830679e+001 -4.096537e+001 -1.073510e+002 -4.134441e+001 -1.025207e+002 -7.704548e+000 -8.157660e+001
21265412500 -5.330950e+000 4.749364e+001 -4.102860e+001 -1.083382e+002 -4.132330e+001 -1.042378e+002 -7.406237e+000 -8.293177e+001
21284156250 -5.349352e+000 4.660050e+001 -4.110616e+001 -1.083609e+002 -4.137738e+001 -1.056952e+002 -7.130340e+000 -8.434947e+001
21302900000 -5.366269e+000 4.572875e+001 -4.120901e+001 -1.088286e+002 -4.119914e+001 -1.063484e+002 -6.870728e+000 -8.576986e+001
21321643750 -5.379446e+000 4.488773e+001 -4.133201e+001 -1.097891e+002 -4.139605e+001 -1.089165e+002 -6.631881e+000 -8.721961e+001
21340387500 -5.397065e+000 4.405680e+001 -4.133126e+001 -1.103605e+002 -4.143818e+001 -1.092966e+002 -6.406787e+000 -8.873979e+001
21359131250 -5.409847e+000 4.322255e+001 -4.139571e+001 -1.115279e+002 -4.153355e+001 -1.108269e+002 -6.198106e+000 -9.019880e+001
21377875000 -5.428789e+000 4.240765e+001 -4.157519e+001 -1.122692e+002 -4.157621e+001 -1.115591e+002 -6.007575e+000 -9.167271e+001
21396618750 -5.448262e+000 4.150526e+001 -4.156187e+001 -1.143332e+002 -4.163591e+001 -1.116575e+002 -5.831560e+000 -9.314043e+001
21415362500 -5.458969e+000 4.059759e+001 -4.169135e+001 -1.153778e+002 -4.167736e+001 -1.127123e+002 -5.668651e+000 -9.453974e+001
21434106250 -5.473925e+000 3.975760e+001 -4.163220e+001 -1.159646e+002 -4.175561e+001 -1.142307e+002 -5.521173e+000 -9.593761e+001
21452850000 -5.486465e+000 3.891916e+001 -4.172266e+001 -1.156801e+002 -4.174678e+001 -1.144684e+002 -5.377394e+000 -9.734471e+001
21471593750 -5.501648e+000 3.805398e+001 -4.182753e+001 -1.174206e+002 -4.188162e+001 -1.159656e+002 -5.245576e+000 -9.867012e+001
21490337500 -5.523891e+000 3.722580e+001 -4.192027e+001 -1.173654e+002 -4.189595e+001 -1.171394e+002 -5.124127e+000 -9.995366e+001
21509081250 -5.540570e+000 3.632306e+001 -4.189040e+001 -1.174339e+002 -4.181605e+001 -1.192508e+002 -5.004049e+000 -1.012154e+002
21527825000 -5.555303e+000 3.544260e+001 -4.193635e+001 -1.182094e+002 -4.178590e+001 -1.204653e+002 -4.896129e+000 -1.024639e+002
21546568750 -5.569557e+000 3.457954e+001 -4.205339e+001 -1.190761e+002 -4.203371e+001 -1.221302e+002 -4.797119e+000 -1.036959e+002
21565312500 -5.582714e+000 3.367500e+001 -4.211789e+001 -1.196686e+002 -4.210292e+001 -1.219817e+002 -4.698469e+000 -1.048869e+002
21584056250 -5.597661e+000 3.281470e+001 -4.221887e+001 -1.199139e+002 -4.223505e+001 -1.230594e+002 -4.604681e+000 -1.060204e+002
21602800000 -5.618632e+000 3.196525e+001 -4.228335e+001 -1.208871e+002 -4.243021e+001 -1.237451e+002 -4.518383e+000 -1.071357e+002
21621543750 -5.635587e+000 3.103423e+001 -4.226465e+001 -1.207407e+002 -4.246260e+001 -1.239053e+002 -4.434195e+000 -1.082721e+002
21640287500 -5.643559e+000 3.012812e+001 -4.221131e+001 -1.199011e+002 -4.248860e+001 -1.246505e+002 -4.352673e+000 -1.093523e+002
21659031250 -5.664590e+000 2.925627e+001 -4.238313e+001 -1.208607e+002 -4.261525e+001 -1.252875e+002 -4.272622e+000 -1.104110e+002
21677775000 -5.678339e+000 2.836732e+001 -4.244917e+001 -1.207958e+002 -4.278610e+001 -1.255222e+002 -4.192056e+000 -1.114688e+002
21696518750 -5.694104e+000 2.747070e+001 -4.261707e+001 -1.213797e+002 -4.304882e+001 -1.258807e+002 -4.120611e+000 -1.124761e+002
21715262500 -5.719555e+000 2.658928e+001 -4.265855e+001 -1.226183e+002 -4.323362e+001 -1.249181e+002 -4.054769e+000 -1.134795e+002
21734006250 -5.734484e+000 2.561376e+001 -4.261293e+001 -1.237901e+002 -4.344186e+001 -1.261636e+002 -3.986392e+000 -1.144860e+002
21752750000 -5.749356e+000 2.468892e+001 -4.265753e+001 -1.246944e+002 -4.334387e+001 -1.264450e+002 -3.921537e+000 -1.154567e+002
21771493750 -5.759761e+000 2.380065e+001 -4.267024e+001 -1.254640e+002 -4.336951e+001 -1.277629e+002 -3.860083e+000 -1.164217e+002
21790237500 -5.779874e+000 2.289976e+001 -4.264363e+001 -1.265968e+002 -4.339309e+001 -1.275536e+002 -3.797537e+000 -1.173840e+002
21808981250 -5.797800e+000 2.199619e+001 -4.284736e+001 -1.274748e+002 -4.349059e+001 -1.279009e+002 -3.734741e+000 -1.183038e+002
21827725000 -5.820150e+000 2.109207e+001 -4.289900e+001 -1.269794e+002 -4.355749e+001 -1.299720e+002 -3.675982e+000 -1.192286e+002
21846468750 -5.834114e+000 2.013826e+001 -4.286259e+001 -1.281702e+002 -4.368490e+001 -1.302098e+002 -3.615546e+000 -1.201728e+002
21865212500 -5.846316e+000 1.920724e+001 -4.309235e+001 -1.298595e+002 -4.363572e+001 -1.296512e+002 -3.561877e+000 -1.210780e+002
21883956250 -5.863931e+000 1.828369e+001 -4.329279e+001 -1.313596e+002 -4.371533e+001 -1.308381e+002 -3.510129e+000 -1.219812e+002
21902700000 -5.878066e+000 1.734810e+001 -4.327172e+001 -1.306991e+002 -4.366497e+001 -1.315983e+002 -3.453559e+000 -1.228987e+002
21921443750 -5.894156e+000 1.644462e+001 -4.344479e+001 -1.327010e+002 -4.387490e+001 -1.327087e+002 -3.401613e+000 -1.237783e+002
21940187500 -5.920578e+000 1.549355e+001 -4.334499e+001 -1.343802e+002 -4.397816e+001 -1.331046e+002 -3.353469e+000 -1.246777e+002
21958931250 -5.932450e+000 1.449916e+001 -4.354383e+001 -1.350253e+002 -4.409855e+001 -1.332605e+002 -3.302998e+000 -1.255429e+002
21977675000 -5.943112e+000 1.357913e+001 -4.350991e+001 -1.350979e+002 -4.403806e+001 -1.330280e+002 -3.255439e+000 -1.263963e+002
21996418750 -5.963801e+000 1.268001e+001 -4.349042e+001 -1.367549e+002 -4.393047e+001 -1.337711e+002 -3.212481e+000 -1.272913e+002
22015162500 -5.972868e+000 1.174155e+001 -4.362458e+001 -1.375585e+002 -4.418016e+001 -1.343061e+002 -3.164631e+000 -1.281355e+002
22033906250 -5.992774e+000 1.082776e+001 -4.370868e+001 -1.381184e+002 -4.437806e+001 -1.351885e+002 -3.123839e+000 -1.289705e+002
22052650000 -6.020438e+000 9.880386e+000 -4.377720e+001 -1.393775e+002 -4.443786e+001 -1.369763e+002 -3.083578e+000 -1.298153e+002
22071393750 -6.034098e+000 8.913977e+000 -4.379773e+001 -1.408377e+002 -4.438091e+001 -1.376297e+002 -3.041149e+000 -1.306751e+002
22090137500 -6.045850e+000 7.991506e+000 -4.373059e+001 -1.406977e+002 -4.437575e+001 -1.389913e+002 -3.004285e+000 -1.314936e+002
22108881250 -6.065578e+000 7.055250e+000 -4.384242e+001 -1.435168e+002 -4.423433e+001 -1.396044e+002 -2.968588e+000 -1.323465e+002
22127625000 -6.079661e+000 6.122540e+000 -4.372952e+001 -1.448933e+002 -4.415698e+001 -1.392425e+002 -2.930579e+000 -1.331597e+002
22146368750 -6.098216e+000 5.194763e+000 -4.394196e+001 -1.465967e+002 -4.414828e+001 -1.404287e+002 -2.891982e+000 -1.339557e+002
22165112500 -6.117949e+000 4.239192e+000 -4.398932e+001 -1.475974e+002 -4.421303e+001 -1.413981e+002 -2.856138e+000 -1.347965e+002
22183856250 -6.125080e+000 3.217072e+000 -4.459629e+001 -1.501098e+002 -4.438313e+001 -1.401468e+002 -2.821044e+000 -1.355852e+002
22202600000 -6.137905e+000 2.267865e+000 -4.471946e+001 -1.502496e+002 -4.467417e+001 -1.394584e+002 -2.789156e+000 -1.364013e+002
22221343750 -6.148720e+000 1.300951e+000 -4.485835e+001 -1.498031e+002 -4.466124e+001 -1.410946e+002 -2.756278e+000 -1.372476e+002
22240087500 -6.158824e+000 3.773116e-001 -4.463073e+001 -1.505182e+002 -4.467589e+001 -1.426114e+002 -2.720978e+000 -1.380401e+002
22258831250 -6.174929e+000 -5.695766e-001 -4.473821e+001 -1.517484e+002 -4.481746e+001 -1.410500e+002 -2.692275e+000 -1.388445e+002
22277575000 -6.194278e+000 -1.598798e+000 -4.485424e+001 -1.524587e+002 -4.501843e+001 -1.405424e+002 -2.660600e+000 -1.396541e+002
22296318750 -6.201612e+000 -2.590815e+000 -4.477385e+001 -1.523696e+002 -4.515734e+001 -1.413455e+002 -2.626718e+000 -1.404324e+002
22315062500 -6.212080e+000 -3.555853e+000 -4.473787e+001 -1.524004e+002 -4.519465e+001 -1.413475e+002 -2.598659e+000 -1.412149e+002
22333806250 -6.224422e+000 -4.528386e+000 -4.494918e+001 -1.540515e+002 -4.532079e+001 -1.400538e+002 -2.572585e+000 -1.420364e+002
22352550000 -6.231821e+000 -5.473283e+000 -4.496993e+001 -1.540334e+002 -4.515470e+001 -1.390329e+002 -2.541935e+000 -1.428012e+002
22371293750 -6.246301e+000 -6.412699e+000 -4.511850e+001 -1.541966e+002 -4.515738e+001 -1.400390e+002 -2.516994e+000 -1.436131e+002
22390037500 -6.263896e+000 -7.465533e+000 -4.496513e+001 -1.549034e+002 -4.518960e+001 -1.406874e+002 -2.492402e+000 -1.444313e+002
22408781250 -6.270614e+000 -8.472594e+000 -4.509164e+001 -1.556324e+002 -4.546014e+001 -1.414409e+002 -2.464844e+000 -1.452053e+002
22427525000 -6.282316e+000 -9.470975e+000 -4.526364e+001 -1.560313e+002 -4.556358e+001 -1.438692e+002 -2.442685e+000 -1.460008e+002
22446268750 -6.292482e+000 -1.045631e+001 -4.529750e+001 -1.561918e+002 -4.536927e+001 -1.444715e+002 -2.417979e+000 -1.468142e+002
22465012500 -6.295253e+000 -1.139474e+001 -4.525536e+001 -1.567319e+002 -4.517015e+001 -1.453380e+002 -2.392465e+000 -1.476086e+002
22483756250 -6.309204e+000 -1.239070e+001 -4.519809e+001 -1.572153e+002 -4.553918e+001 -1.451080e+002 -2.372494e+000 -1.483827e+002
22502500000 -6.321424e+000 -1.343911e+001 -4.509092e+001 -1.591513e+002 -4.567511e+001 -1.455928e+002 -2.345330e+000 -1.491612e+002
22521243750 -6.320477e+000 -1.445942e+001 -4.523220e+001 -1.602609e+002 -4.565522e+001 -1.452332e+002 -2.319213e+000 -1.499345e+002
22539987500 -6.325775e+000 -1.545747e+001 -4.516766e+001 -1.586531e+002 -4.576331e+001 -1.473950e+002 -2.295749e+000 -1.507087e+002
22558731250 -6.328313e+000 -1.645323e+001 -4.533247e+001 -1.579504e+002 -4.575912e+001 -1.487450e+002 -2.270506e+000 -1.514768e+002
22577475000 -6.329388e+000 -1.738400e+001 -4.524124e+001 -1.585775e+002 -4.563768e+001 -1.499376e+002 -2.249968e+000 -1.522273e+002
22596218750 -6.342424e+000 -1.831569e+001 -4.560510e+001 -1.593465e+002 -4.564624e+001 -1.493975e+002 -2.233676e+000 -1.529656e+002
22614962500 -6.359110e+000 -1.933042e+001 -4.514134e+001 -1.579258e+002 -4.575228e+001 -1.514247e+002 -2.214051e+000 -1.537630e+002
22633706250 -6.360991e+000 -2.041446e+001 -4.514005e+001 -1.591107e+002 -4.549868e+001 -1.545070e+002 -2.191430e+000 -1.544934e+002
22652450000 -6.366157e+000 -2.139345e+001 -4.510939e+001 -1.606460e+002 -4.556101e+001 -1.544173e+002 -2.176888e+000 -1.552162e+002
22671193750 -6.382039e+000 -2.243812e+001 -4.518763e+001 -1.614871e+002 -4.574087e+001 -1.549301e+002 -2.160785e+000 -1.560016e+002
22689937500 -6.380250e+000 -2.343862e+001 -4.520198e+001 -1.606535e+002 -4.577857e+001 -1.572199e+002 -2.135343e+000 -1.566964e+002
22708681250 -6.390007e+000 -2.436000e+001 -4.521474e+001 -1.600995e+002 -4.545032e+001 -1.588701e+002 -2.130777e+000 -1.573994e+002
22727425000 -6.412342e+000 -2.542374e+001 -4.535054e+001 -1.607370e+002 -4.549761e+001 -1.597317e+002 -2.113883e+000 -1.581839e+002
22746168750 -6.402056e+000 -2.651432e+001 -4.524869e+001 -1.618967e+002 -4.541747e+001 -1.616786e+002 -2.094996e+000 -1.588474e+002
22764912500 -6.405274e+000 -2.743871e+001 -4.511821e+001 -1.630663e+002 -4.532926e+001 -1.629893e+002 -2.091297e+000 -1.595197e+002
22783656250 -6.417806e+000 -2.848436e+001 -4.494754e+001 -1.645787e+002 -4.550465e+001 -1.635811e+002 -2.077767e+000 -1.603018e+002
22802400000 -6.413245e+000 -2.948886e+001 -4.493459e+001 -1.657915e+002 -4.556627e+001 -1.640746e+002 -2.065491e+000 -1.609299e+002
22821143750 -6.425746e+000 -3.035823e+001 -4.505874e+001 -1.663702e+002 -4.558833e+001 -1.641859e+002 -2.061044e+000 -1.616250e+002
22839887500 -6.439312e+000 -3.147965e+001 -4.502306e+001 -1.675604e+002 -4.561340e+001 -1.649150e+002 -2.044443e+000 -1.623686e+002
22858631250 -6.422111e+000 -3.253099e+001 -4.499743e+001 -1.688695e+002 -4.580445e+001 -1.647683e+002 -2.027958e+000 -1.629874e+002
22877375000 -6.428405e+000 -3.347265e+001 -4.515794e+001 -1.702063e+002 -4.599192e+001 -1.659079e+002 -2.027828e+000 -1.636731e+002
22896118750 -6.430413e+000 -3.455749e+001 -4.516594e+001 -1.718601e+002 -4.597200e+001 -1.661167e+002 -2.008825e+000 -1.643915e+002
22914862500 -6.426469e+000 -3.551157e+001 -4.535057e+001 -1.729300e+002 -4.576634e+001 -1.680492e+002 -2.000494e+000 -1.650082e+002
22933606250 -6.442737e+000 -3.646368e+001 -4.574472e+001 -1.725499e+002 -4.584934e+001 -1.691257e+002 -2.002385e+000 -1.656865e+002
22952350000 -6.450998e+000 -3.758504e+001 -4.557818e+001 -1.739015e+002 -4.602508e+001 -1.690480e+002 -1.988777e+000 -1.663682e+002
22971093750 -6.436905e+000 -3.862377e+001 -4.565612e+001 -1.763484e+002 -4.606902e+001 -1.686220e+002 -1.987271e+000 -1.669637e+002
22989837500 -6.443157e+000 -3.956977e+001 -4.559777e+001 -1.778095e+002 -4.617334e+001 -1.687249e+002 -1.987404e+000 -1.676892e+002
23008581250 -6.440629e+000 -4.066830e+001 -4.560967e+001 -1.785508e+002 -4.636779e+001 -1.695789e+002 -1.974262e+000 -1.683736e+002
23027325000 -6.432947e+000 -4.163692e+001 -4.540567e+001 -1.783188e+002 -4.639036e+001 -1.707615e+002 -1.969461e+000 -1.689740e+002
23046068750 -6.436135e+000 -4.262175e+001 -4.559074e+001 -1.796816e+002 -4.670846e+001 -1.731021e+002 -1.967961e+000 -1.696393e+002
23064812500 -6.440276e+000 -4.368237e+001 -4.559476e+001 -1.799677e+002 -4.682821e+001 -1.732281e+002 -1.959786e+000 -1.702722e+002
23083556250 -6.430017e+000 -4.472238e+001 -4.581301e+001 -1.795342e+002 -4.692809e+001 -1.746883e+002 -1.955105e+000 -1.708784e+002
23102300000 -6.420765e+000 -4.571520e+001 -4.591311e+001 1.798891e+002 -4.711108e+001 -1.732657e+002 -1.954348e+000 -1.715119e+002
23121043750 -6.416191e+000 -4.671919e+001 -4.613131e+001 1.786490e+002 -4.697372e+001 -1.744166e+002 -1.950942e+000 -1.721422e+002
23139787500 -6.411069e+000 -4.769458e+001 -4.621433e+001 1.785793e+002 -4.714660e+001 -1.770279e+002 -1.944860e+000 -1.727489e+002
23158531250 -6.407347e+000 -4.867307e+001 -4.624118e+001 1.775821e+002 -4.722751e+001 -1.795545e+002 -1.942444e+000 -1.733724e+002
23177275000 -6.413043e+000 -4.969855e+001 -4.632962e+001 1.770715e+002 -4.752420e+001 -1.796782e+002 -1.939284e+000 -1.739937e+002
23196018750 -6.403851e+000 -5.074802e+001 -4.683406e+001 1.757607e+002 -4.758069e+001 1.781914e+002 -1.933135e+000 -1.746082e+002
23214762500 -6.390604e+000 -5.170781e+001 -4.702263e+001 1.764562e+002 -4.769303e+001 1.783869e+002 -1.929569e+000 -1.752108e+002
23233506250 -6.383991e+000 -5.268742e+001 -4.718659e+001 1.753210e+002 -4.801765e+001 1.792453e+002 -1.926308e+000 -1.758200e+002
23252250000 -6.374629e+000 -5.370539e+001 -4.716153e+001 1.747426e+002 -4.818452e+001 1.777953e+002 -1.921335e+000 -1.764069e+002
23270993750 -6.373082e+000 -5.467352e+001 -4.751282e+001 1.745341e+002 -4.843236e+001 1.788011e+002 -1.921065e+000 -1.769871e+002
23289737500 -6.374990e+000 -5.569072e+001 -4.779502e+001 1.757586e+002 -4.832026e+001 1.776196e+002 -1.917706e+000 -1.775766e+002
23308481250 -6.362839e+000 -5.674187e+001 -4.789120e+001 1.765256e+002 -4.824392e+001 1.770991e+002 -1.914002e+000 -1.781613e+002
23327225000 -6.354774e+000 -5.770663e+001 -4.823163e+001 1.757570e+002 -4.873032e+001 1.751239e+002 -1.917027e+000 -1.787235e+002
23345968750 -6.341199e+000 -5.868394e+001 -4.855056e+001 1.754377e+002 -4.905238e+001 1.770072e+002 -1.906974e+000 -1.793163e+002
23364712500 -6.333314e+000 -5.963630e+001 -4.884250e+001 1.777955e+002 -4.919151e+001 1.774771e+002 -1.904230e+000 -1.798786e+002
23383456250 -6.332759e+000 -6.060099e+001 -4.895451e+001 1.779197e+002 -4.921305e+001 1.745300e+002 -1.903270e+000 1.795482e+002
23402200000 -6.328602e+000 -6.160570e+001 -4.913332e+001 1.784004e+002 -4.969020e+001 1.769350e+002 -1.899524e+000 1.789890e+002
23420943750 -6.317904e+000 -6.263728e+001 -4.929319e+001 1.776208e+002 -4.995716e+001 1.756521e+002 -1.895191e+000 1.784741e+002
23439687500 -6.308859e+000 -6.359345e+001 -4.939456e+001 1.792406e+002 -5.008525e+001 1.769595e+002 -1.896291e+000 1.778970e+002
23458431250 -6.302417e+000 -6.463058e+001 -4.986826e+001 1.780909e+002 -5.017173e+001 1.778281e+002 -1.891804e+000 1.773391e+002
23477175000 -6.296781e+000 -6.558727e+001 -5.004264e+001 1.792242e+002 -4.996204e+001 1.763551e+002 -1.888235e+000 1.768020e+002
23495918750 -6.285951e+000 -6.653930e+001 -5.062702e+001 -1.782817e+002 -5.053338e+001 1.775061e+002 -1.885898e+000 1.762323e+002
23514662500 -6.277523e+000 -6.756863e+001 -5.077283e+001 -1.792955e+002 -5.064605e+001 1.777611e+002 -1.880923e+000 1.756866e+002
23533406250 -6.264357e+000 -6.854620e+001 -5.113042e+001 -1.788892e+002 -5.038659e+001 1.747502e+002 -1.881423e+000 1.751642e+002
23552150000 -6.258668e+000 -6.953003e+001 -5.137104e+001 1.799869e+002 -5.098865e+001 1.756278e+002 -1.882077e+000 1.745866e+002
23570893750 -6.248698e+000 -7.052084e+001 -5.125099e+001 1.780733e+002 -5.118645e+001 1.771061e+002 -1.878091e+000 1.740418e+002
23589637500 -6.239040e+000 -7.151573e+001 -5.127478e+001 1.788789e+002 -5.117649e+001 1.780617e+002 -1.876462e+000 1.735310e+002
23608381250 -6.232249e+000 -7.245771e+001 -5.147330e+001 1.789484e+002 -5.129356e+001 1.775725e+002 -1.872453e+000 1.729697e+002
23627125000 -6.221518e+000 -7.348345e+001 -5.116431e+001 -1.794836e+002 -5.154923e+001 1.797698e+002 -1.865313e+000 1.724454e+002
23645868750 -6.208056e+000 -7.449181e+001 -5.122204e+001 1.795354e+002 -5.175938e+001 1.767385e+002 -1.866750e+000 1.719305e+002
23664612500 -6.198679e+000 -7.545282e+001 -5.141679e+001 1.789702e+002 -5.163417e+001 1.728489e+002 -1.860614e+000 1.713749e+002
23683356250 -6.188396e+000 -7.640844e+001 -5.182676e+001 1.762856e+002 -5.211655e+001 1.723095e+002 -1.855157e+000 1.708443e+002
23702100000 -6.177465e+000 -7.736544e+001 -5.164810e+001 1.739365e+002 -5.178747e+001 1.691209e+002 -1.853748e+000 1.703078e+002
23720843750 -6.168009e+000 -7.833603e+001 -5.157231e+001 1.717274e+002 -5.178899e+001 1.678499e+002 -1.850772e+000 1.697410e+002
23739587500 -6.153366e+000 -7.932303e+001 -5.143301e+001 1.708873e+002 -5.205169e+001 1.679555e+002 -1.845616e+000 1.692350e+002
23758331250 -6.138383e+000 -8.028447e+001 -5.131015e+001 1.723591e+002 -5.172929e+001 1.688946e+002 -1.844768e+000 1.686958e+002
23777075000 -6.128191e+000 -8.125198e+001 -5.099556e+001 1.723156e+002 -5.152946e+001 1.659503e+002 -1.844600e+000 1.681493e+002
23795818750 -6.109768e+000 -8.225388e+001 -5.067472e+001 1.685230e+002 -5.145032e+001 1.660552e+002 -1.838335e+000 1.676322e+002
23814562500 -6.093751e+000 -8.320467e+001 -5.071482e+001 1.661689e+002 -5.137477e+001 1.656823e+002 -1.838364e+000 1.670839e+002
23833306250 -6.083810e+000 -8.415363e+001 -5.074791e+001 1.646195e+002 -5.126235e+001 1.582725e+002 -1.832785e+000 1.665356e+002
23852050000 -6.068480e+000 -8.513923e+001 -5.108361e+001 1.620334e+002 -5.114798e+001 1.576921e+002 -1.828458e+000 1.660137e+002
23870793750 -6.052627e+000 -8.608212e+001 -5.112737e+001 1.589552e+002 -5.105273e+001 1.563054e+002 -1.827010e+000 1.654898e+002
23889537500 -6.038664e+000 -8.700140e+001 -5.095916e+001 1.595495e+002 -5.105529e+001 1.543016e+002 -1.821922e+000 1.649382e+002
23908281250 -6.027428e+000 -8.793752e+001 -5.072001e+001 1.575377e+002 -5.100768e+001 1.589443e+002 -1.819540e+000 1.644304e+002
23927025000 -6.016619e+000 -8.889906e+001 -5.065857e+001 1.501879e+002 -5.065035e+001 1.567941e+002 -1.821033e+000 1.638821e+002
23945768750 -6.007883e+000 -8.982325e+001 -5.055952e+001 1.511116e+002 -5.121199e+001 1.546520e+002 -1.818660e+000 1.633306e+002
23964512500 -5.992224e+000 -9.080902e+001 -5.021937e+001 1.505346e+002 -5.126575e+001 1.540262e+002 -1.812650e+000 1.628021e+002
23983256250 -5.971285e+000 -9.172527e+001 -4.995921e+001 1.491572e+002 -5.091687e+001 1.548773e+002 -1.812945e+000 1.622635e+002
24002000000 -5.956323e+000 -9.265563e+001 -5.008447e+001 1.487323e+002 -5.088475e+001 1.533818e+002 -1.807711e+000 1.617090e+002
24020743750 -5.940879e+000 -9.357267e+001 -5.018074e+001 1.475754e+002 -5.094951e+001 1.512619e+002 -1.809720e+000 1.611848e+002
24039487500 -5.925815e+000 -9.450532e+001 -5.007958e+001 1.476082e+002 -5.074009e+001 1.512306e+002 -1.814553e+000 1.606088e+002
24058231250 -5.916526e+000 -9.542728e+001 -5.016054e+001 1.458419e+002 -5.062541e+001 1.473201e+002 -1.813641e+000 1.600542e+002
24076975000 -5.899105e+000 -9.638307e+001 -5.016583e+001 1.430393e+002 -5.040006e+001 1.475447e+002 -1.812137e+000 1.595384e+002
24095718750 -5.876159e+000 -9.726685e+001 -5.009464e+001 1.425724e+002 -5.023008e+001 1.503987e+002 -1.815682e+000 1.589789e+002
24114462500 -5.862282e+000 -9.819725e+001 -4.992223e+001 1.443020e+002 -4.980730e+001 1.503925e+002 -1.818311e+000 1.584616e+002
24133206250 -5.843112e+000 -9.909818e+001 -4.992933e+001 1.461125e+002 -4.970608e+001 1.506763e+002 -1.821001e+000 1.579548e+002
24151950000 -5.830093e+000 -1.000259e+002 -4.971516e+001 1.455267e+002 -4.999288e+001 1.514511e+002 -1.822676e+000 1.574176e+002
24170693750 -5.818184e+000 -1.009790e+002 -4.981174e+001 1.426454e+002 -4.981488e+001 1.497154e+002 -1.823112e+000 1.568767e+002
24189437500 -5.798309e+000 -1.019216e+002 -5.009356e+001 1.406847e+002 -4.966779e+001 1.487865e+002 -1.828542e+000 1.563761e+002
24208181250 -5.778890e+000 -1.028114e+002 -5.037629e+001 1.382482e+002 -4.951223e+001 1.485577e+002 -1.831245e+000 1.558232e+002
24226925000 -5.763302e+000 -1.037049e+002 -5.061368e+001 1.374619e+002 -4.949223e+001 1.448573e+002 -1.834363e+000 1.552987e+002
24245668750 -5.747306e+000 -1.045939e+002 -5.074789e+001 1.389747e+002 -4.953780e+001 1.457950e+002 -1.838786e+000 1.548013e+002
24264412500 -5.731866e+000 -1.055104e+002 -5.067843e+001 1.400312e+002 -4.946035e+001 1.478720e+002 -1.843257e+000 1.542515e+002
24283156250 -5.714080e+000 -1.064428e+002 -5.052810e+001 1.419303e+002 -4.977231e+001 1.467087e+002 -1.846133e+000 1.537260e+002
24301900000 -5.691720e+000 -1.073473e+002 -5.082542e+001 1.401554e+002 -4.984664e+001 1.445044e+002 -1.851272e+000 1.532453e+002
24320643750 -5.669820e+000 -1.082287e+002 -5.074430e+001 1.387651e+002 -4.982129e+001 1.436129e+002 -1.860294e+000 1.527043e+002
24339387500 -5.649222e+000 -1.091126e+002 -5.081856e+001 1.361066e+002 -4.968412e+001 1.399334e+002 -1.862582e+000 1.522126e+002
24358131250 -5.631544e+000 -1.099891e+002 -5.066910e+001 1.365297e+002 -4.941178e+001 1.400716e+002 -1.867271e+000 1.517088e+002
24376875000 -5.618428e+000 -1.108854e+002 -5.068320e+001 1.321595e+002 -4.887034e+001 1.397308e+002 -1.869569e+000 1.511735e+002
24395618750 -5.598633e+000 -1.118026e+002 -5.078697e+001 1.302031e+002 -4.934752e+001 1.352122e+002 -1.869079e+000 1.506564e+002
24414362500 -5.578366e+000 -1.126781e+002 -5.067066e+001 1.317742e+002 -4.974456e+001 1.290199e+002 -1.872197e+000 1.501613e+002
24433106250 -5.563564e+000 -1.135316e+002 -5.114360e+001 1.267418e+002 -4.951595e+001 1.270311e+002 -1.876402e+000 1.496470e+002
24451850000 -5.542099e+000 -1.144071e+002 -5.122497e+001 1.230118e+002 -4.940766e+001 1.265621e+002 -1.875980e+000 1.491540e+002
24470593750 -5.526396e+000 -1.152589e+002 -5.152005e+001 1.192183e+002 -4.942006e+001 1.252786e+002 -1.879327e+000 1.486768e+002
24489337500 -5.511189e+000 -1.161556e+002 -5.152857e+001 1.175919e+002 -4.969042e+001 1.239717e+002 -1.881106e+000 1.481705e+002
24508081250 -5.490265e+000 -1.170547e+002 -5.153152e+001 1.159860e+002 -4.970956e+001 1.204345e+002 -1.883730e+000 1.476796e+002
24526825000 -5.470951e+000 -1.179556e+002 -5.188139e+001 1.183421e+002 -5.019827e+001 1.145402e+002 -1.887282e+000 1.472063e+002
24545568750 -5.452609e+000 -1.188100e+002 -5.198893e+001 1.160174e+002 -5.012085e+001 1.104491e+002 -1.885502e+000 1.466711e+002
24564312500 -5.433023e+000 -1.196726e+002 -5.219475e+001 1.112610e+002 -5.031352e+001 1.071904e+002 -1.884905e+000 1.461821e+002
24583056250 -5.417509e+000 -1.205149e+002 -5.249894e+001 1.099910e+002 -5.034097e+001 1.052346e+002 -1.888084e+000 1.456729e+002
24601800000 -5.402734e+000 -1.213611e+002 -5.291354e+001 1.030848e+002 -5.021966e+001 1.042519e+002 -1.886283e+000 1.451425e+002
24620543750 -5.383646e+000 -1.222590e+002 -5.323660e+001 9.534411e+001 -5.093563e+001 1.034010e+002 -1.882630e+000 1.446393e+002
24639287500 -5.366077e+000 -1.231171e+002 -5.310159e+001 9.365173e+001 -5.156687e+001 1.030885e+002 -1.887415e+000 1.441479e+002
24658031250 -5.349471e+000 -1.239659e+002 -5.289213e+001 9.020449e+001 -5.237020e+001 9.990279e+001 -1.887609e+000 1.436153e+002
24676775000 -5.331130e+000 -1.248186e+002 -5.315820e+001 8.965107e+001 -5.251118e+001 9.970679e+001 -1.889094e+000 1.431277e+002
24695518750 -5.319987e+000 -1.256424e+002 -5.341227e+001 8.734570e+001 -5.240870e+001 9.538920e+001 -1.890416e+000 1.426212e+002
24714262500 -5.307064e+000 -1.265100e+002 -5.339429e+001 8.555000e+001 -5.217749e+001 9.432534e+001 -1.887250e+000 1.421004e+002
24733006250 -5.286798e+000 -1.273943e+002 -5.351981e+001 8.692583e+001 -5.253992e+001 9.303557e+001 -1.884228e+000 1.415963e+002
24751750000 -5.271588e+000 -1.282375e+002 -5.359333e+001 8.404340e+001 -5.298403e+001 9.041859e+001 -1.881033e+000 1.411196e+002
24770493750 -5.257033e+000 -1.290927e+002 -5.386888e+001 8.153275e+001 -5.329345e+001 8.562505e+001 -1.881062e+000 1.406108e+002
24789237500 -5.241160e+000 -1.299099e+002 -5.369297e+001 7.816475e+001 -5.379564e+001 8.456480e+001 -1.882900e+000 1.401473e+002
24807981250 -5.224795e+000 -1.307209e+002 -5.382517e+001 7.644092e+001 -5.416603e+001 8.668276e+001 -1.887518e+000 1.396490e+002
24826725000 -5.212885e+000 -1.315665e+002 -5.397794e+001 7.263245e+001 -5.388305e+001 8.840939e+001 -1.886351e+000 1.391565e+002
24845468750 -5.195750e+000 -1.324265e+002 -5.439668e+001 6.808862e+001 -5.387406e+001 8.710008e+001 -1.889055e+000 1.386876e+002
24864212500 -5.175428e+000 -1.332619e+002 -5.421806e+001 7.403197e+001 -5.420601e+001 8.658593e+001 -1.888736e+000 1.381951e+002
24882956250 -5.162366e+000 -1.340642e+002 -5.428783e+001 7.082922e+001 -5.437313e+001 8.374281e+001 -1.885467e+000 1.377072e+002
24901700000 -5.146594e+000 -1.348796e+002 -5.432462e+001 6.695317e+001 -5.477267e+001 7.512968e+001 -1.882437e+000 1.372404e+002
24920443750 -5.136295e+000 -1.356923e+002 -5.446934e+001 5.839910e+001 -5.454697e+001 7.376342e+001 -1.880633e+000 1.367236e+002
24939187500 -5.121303e+000 -1.365343e+002 -5.452348e+001 5.750943e+001 -5.501611e+001 7.085649e+001 -1.873941e+000 1.361828e+002
24957931250 -5.104001e+000 -1.373948e+002 -5.432368e+001 4.700400e+001 -5.482772e+001 6.843354e+001 -1.868021e+000 1.356595e+002
24976675000 -5.083132e+000 -1.382013e+002 -5.454021e+001 4.670633e+001 -5.532516e+001 6.242402e+001 -1.866593e+000 1.351445e+002
24995418750 -5.066206e+000 -1.390122e+002 -5.446354e+001 4.392292e+001 -5.553688e+001 6.052022e+001 -1.862918e+000 1.346040e+002
25014162500 -5.050992e+000 -1.397761e+002 -5.468182e+001 4.094407e+001 -5.565779e+001 5.680155e+001 -1.861050e+000 1.340736e+002
25032906250 -5.038466e+000 -1.406072e+002 -5.489577e+001 4.843671e+001 -5.586751e+001 5.626118e+001 -1.858548e+000 1.335399e+002
25051650000 -5.022844e+000 -1.413864e+002 -5.545858e+001 5.056166e+001 -5.566167e+001 5.531396e+001 -1.853025e+000 1.329699e+002
25070393750 -4.999804e+000 -1.422112e+002 -5.555721e+001 5.079299e+001 -5.585207e+001 4.911686e+001 -1.850928e+000 1.324494e+002
25089137500 -4.981336e+000 -1.429826e+002 -5.599382e+001 5.710333e+001 -5.563510e+001 4.804500e+001 -1.845425e+000 1.319205e+002
25107881250 -4.966313e+000 -1.437614e+002 -5.606006e+001 6.536531e+001 -5.589589e+001 3.402158e+001 -1.840626e+000 1.314005e+002
25126625000 -4.947393e+000 -1.445154e+002 -5.630569e+001 7.076878e+001 -5.626560e+001 3.103576e+001 -1.841024e+000 1.308910e+002
25145368750 -4.940690e+000 -1.453010e+002 -5.641241e+001 7.376569e+001 -5.627426e+001 2.183372e+001 -1.847625e+000 1.303508e+002
25164112500 -4.928874e+000 -1.461170e+002 -5.587003e+001 8.057283e+001 -5.623065e+001 1.913397e+001 -1.847719e+000 1.298069e+002
25182856250 -4.908536e+000 -1.469130e+002 -5.616529e+001 9.267886e+001 -5.619550e+001 1.201065e+001 -1.850142e+000 1.292530e+002
25201600000 -4.889915e+000 -1.476947e+002 -5.604132e+001 1.001008e+002 -5.626072e+001 -9.309467e-002 -1.849741e+000 1.287047e+002
25220343750 -4.873719e+000 -1.484556e+002 -5.634787e+001 1.056180e+002 -5.636105e+001 -1.736079e+001 -1.852561e+000 1.281620e+002
25239087500 -4.860367e+000 -1.492153e+002 -5.648812e+001 1.151368e+002 -5.601975e+001 -3.838562e+001 -1.858751e+000 1.276482e+002
25257831250 -4.847769e+000 -1.499858e+002 -5.648203e+001 1.218136e+002 -5.625671e+001 -6.210574e+001 -1.868473e+000 1.271110e+002
25276575000 -4.833978e+000 -1.507671e+002 -5.637954e+001 1.233365e+002 -5.614363e+001 -8.690175e+001 -1.868142e+000 1.265516e+002
25295318750 -4.817957e+000 -1.515416e+002 -5.624566e+001 1.226544e+002 -5.594840e+001 -1.176909e+002 -1.871724e+000 1.260370e+002
25314062500 -4.801934e+000 -1.523162e+002 -5.606832e+001 1.248577e+002 -5.602733e+001 -1.496013e+002 -1.877999e+000 1.255006e+002
25332806250 -4.782585e+000 -1.530785e+002 -5.569436e+001 1.286505e+002 -5.566954e+001 -1.718977e+002 -1.882618e+000 1.249849e+002
25351550000 -4.767955e+000 -1.538040e+002 -5.564322e+001 1.377399e+002 -5.604802e+001 1.577670e+002 -1.895286e+000 1.245001e+002
25370293750 -4.765044e+000 -1.545655e+002 -5.552439e+001 1.362967e+002 -5.571426e+001 1.243483e+002 -1.910784e+000 1.239958e+002
25389037500 -4.755135e+000 -1.553178e+002 -5.548997e+001 1.448119e+002 -5.566621e+001 9.455638e+001 -1.928138e+000 1.235023e+002
25407781250 -4.736207e+000 -1.560793e+002 -5.534301e+001 1.439602e+002 -5.526896e+001 6.894324e+001 -1.935747e+000 1.230113e+002
25426525000 -4.722121e+000 -1.567789e+002 -5.555859e+001 1.498053e+002 -5.487188e+001 3.699888e+001 -1.948759e+000 1.225411e+002
25445268750 -4.706875e+000 -1.575371e+002 -5.540459e+001 1.512321e+002 -5.503916e+001 4.033849e+000 -1.958215e+000 1.220970e+002
25464012500 -4.693443e+000 -1.582327e+002 -5.479942e+001 1.454840e+002 -5.482674e+001 -2.990501e+001 -1.976489e+000 1.216567e+002
25482756250 -4.680190e+000 -1.590061e+002 -5.399522e+001 1.482044e+002 -5.458978e+001 -6.492104e+001 -1.992135e+000 1.212201e+002
25501500000 -4.670707e+000 -1.597108e+002 -5.377535e+001 1.463588e+002 -5.381893e+001 -9.462635e+001 -1.999261e+000 1.207597e+002
25520243750 -4.659068e+000 -1.604865e+002 -5.327834e+001 1.395740e+002 -5.321374e+001 -1.249531e+002 -2.013573e+000 1.203056e+002
25538987500 -4.638543e+000 -1.612241e+002 -5.301805e+001 1.240605e+002 -5.301662e+001 -1.503467e+002 -2.027779e+000 1.198696e+002
25557731250 -4.630226e+000 -1.619162e+002 -5.265026e+001 1.126589e+002 -5.245337e+001 -1.778495e+002 -2.041430e+000 1.194323e+002
25576475000 -4.617701e+000 -1.626654e+002 -5.254166e+001 1.046315e+002 -5.282543e+001 1.569502e+002 -2.052135e+000 1.189805e+002
25595218750 -4.602875e+000 -1.633628e+002 -5.260757e+001 9.488017e+001 -5.230559e+001 1.250426e+002 -2.069800e+000 1.185456e+002
25613962500 -4.597380e+000 -1.640923e+002 -5.220890e+001 7.979624e+001 -5.182621e+001 9.883817e+001 -2.081606e+000 1.181063e+002
25632706250 -4.576893e+000 -1.648696e+002 -5.188510e+001 7.082226e+001 -5.161314e+001 7.814544e+001 -2.093683e+000 1.176641e+002
25651450000 -4.553876e+000 -1.655591e+002 -5.175611e+001 6.294254e+001 -5.105622e+001 6.099726e+001 -2.103176e+000 1.172378e+002
25670193750 -4.544450e+000 -1.662269e+002 -5.171760e+001 5.131596e+001 -5.096744e+001 4.223464e+001 -2.115810e+000 1.168283e+002
25688937500 -4.534227e+000 -1.669646e+002 -5.152558e+001 4.122878e+001 -5.065619e+001 3.249884e+001 -2.126440e+000 1.163985e+002
25707681250 -4.515721e+000 -1.676709e+002 -5.136612e+001 3.551826e+001 -5.028261e+001 2.472440e+001 -2.141851e+000 1.159670e+002
25726425000 -4.507938e+000 -1.684121e+002 -5.128752e+001 2.637523e+001 -5.027266e+001 1.924012e+001 -2.159237e+000 1.154867e+002
25745168750 -4.490514e+000 -1.691420e+002 -5.119651e+001 2.155183e+001 -5.000309e+001 1.548179e+001 -2.174481e+000 1.150324e+002
25763912500 -4.469312e+000 -1.697998e+002 -5.138184e+001 1.780362e+001 -4.989720e+001 8.567177e+000 -2.189768e+000 1.146253e+002
25782656250 -4.460871e+000 -1.704705e+002 -5.108132e+001 1.161685e+001 -4.938014e+001 4.625520e+000 -2.205511e+000 1.141917e+002
25801400000 -4.447171e+000 -1.711545e+002 -5.098679e+001 1.023707e+001 -4.935720e+001 7.329673e+000 -2.218503e+000 1.137889e+002
25820143750 -4.431342e+000 -1.718265e+002 -5.074763e+001 2.092899e+000 -4.920794e+001 4.380739e+000 -2.227776e+000 1.133539e+002
25838887500 -4.424413e+000 -1.725560e+002 -5.086219e+001 -5.094172e+000 -4.904380e+001 1.536025e+000 -2.245667e+000 1.129321e+002
25857631250 -4.408806e+000 -1.732995e+002 -5.042796e+001 -1.366027e+001 -4.913998e+001 -9.047038e-001 -2.254152e+000 1.124803e+002
25876375000 -4.395303e+000 -1.739193e+002 -5.025596e+001 -2.048110e+001 -4.865593e+001 -1.274618e+000 -2.269582e+000 1.120754e+002
25895118750 -4.390931e+000 -1.745677e+002 -5.039471e+001 -2.119806e+001 -4.891133e+001 -3.763252e+000 -2.284783e+000 1.116419e+002
25913862500 -4.388551e+000 -1.752739e+002 -5.020580e+001 -2.445877e+001 -4.933416e+001 -2.960062e+000 -2.299331e+000 1.112042e+002
25932606250 -4.376166e+000 -1.759783e+002 -5.024463e+001 -3.043615e+001 -4.913910e+001 -7.184392e+000 -2.317517e+000 1.107850e+002
25951350000 -4.368041e+000 -1.766679e+002 -5.045296e+001 -3.419281e+001 -4.941142e+001 -8.060526e+000 -2.336918e+000 1.103417e+002
25970093750 -4.353541e+000 -1.773527e+002 -5.017854e+001 -3.668719e+001 -4.923942e+001 -9.740788e+000 -2.351039e+000 1.099035e+002
25988837500 -4.334946e+000 -1.780252e+002 -5.022028e+001 -3.915355e+001 -4.942498e+001 -1.456377e+001 -2.365457e+000 1.094912e+002
26007581250 -4.327199e+000 -1.786596e+002 -5.011097e+001 -3.970598e+001 -4.867300e+001 -1.878901e+001 -2.385449e+000 1.090571e+002
26026325000 -4.319891e+000 -1.793578e+002 -5.016322e+001 -4.395483e+001 -4.885123e+001 -1.899874e+001 -2.393957e+000 1.086096e+002
26045068750 -4.303958e+000 1.799681e+002 -5.009579e+001 -4.784197e+001 -4.909934e+001 -2.287646e+001 -2.416353e+000 1.081830e+002
26063812500 -4.298769e+000 1.793171e+002 -5.056059e+001 -4.955973e+001 -4.921984e+001 -2.441796e+001 -2.435196e+000 1.077519e+002
26082556250 -4.288748e+000 1.786164e+002 -5.039509e+001 -4.909384e+001 -4.928600e+001 -3.147661e+001 -2.447194e+000 1.073421e+002
26101300000 -4.273958e+000 1.779838e+002 -5.013882e+001 -5.494630e+001 -4.926944e+001 -3.365093e+001 -2.464062e+000 1.069143e+002
26120043750 -4.266506e+000 1.773706e+002 -5.026545e+001 -5.932691e+001 -4.913602e+001 -3.739059e+001 -2.482908e+000 1.064799e+002
26138787500 -4.261948e+000 1.767089e+002 -5.010028e+001 -6.079589e+001 -4.911034e+001 -4.055872e+001 -2.495665e+000 1.060622e+002
26157531250 -4.249283e+000 1.760671e+002 -5.002510e+001 -6.168060e+001 -4.899866e+001 -4.107240e+001 -2.515440e+000 1.056709e+002
26176275000 -4.243562e+000 1.754085e+002 -5.008193e+001 -6.308392e+001 -4.973623e+001 -3.563481e+001 -2.531874e+000 1.052304e+002
26195018750 -4.230862e+000 1.747224e+002 -4.990644e+001 -6.650545e+001 -4.987966e+001 -3.720036e+001 -2.547910e+000 1.047836e+002
26213762500 -4.216196e+000 1.741005e+002 -5.005289e+001 -6.850644e+001 -5.036887e+001 -3.656641e+001 -2.569005e+000 1.043528e+002
26232506250 -4.211688e+000 1.734576e+002 -5.000990e+001 -7.174880e+001 -5.025660e+001 -3.877246e+001 -2.586878e+000 1.038799e+002
26251250000 -4.198476e+000 1.727642e+002 -4.998315e+001 -7.234446e+001 -5.001749e+001 -4.031886e+001 -2.604748e+000 1.034471e+002
26269993750 -4.190042e+000 1.721507e+002 -4.948190e+001 -7.107083e+001 -5.020293e+001 -4.304989e+001 -2.622811e+000 1.030012e+002
26288737500 -4.180414e+000 1.714957e+002 -4.966800e+001 -6.923066e+001 -5.026973e+001 -4.374364e+001 -2.642771e+000 1.025483e+002
26307481250 -4.158990e+000 1.708350e+002 -4.976226e+001 -6.864998e+001 -5.022730e+001 -4.675181e+001 -2.658463e+000 1.020996e+002
26326225000 -4.145233e+000 1.702441e+002 -4.936864e+001 -7.226247e+001 -5.011160e+001 -4.968540e+001 -2.684355e+000 1.016535e+002
26344968750 -4.136715e+000 1.696485e+002 -4.936895e+001 -7.472099e+001 -4.954134e+001 -5.523899e+001 -2.708308e+000 1.011786e+002
26363712500 -4.124673e+000 1.689886e+002 -4.936852e+001 -7.286835e+001 -4.983270e+001 -5.759135e+001 -2.726497e+000 1.007016e+002
26382456250 -4.113160e+000 1.683706e+002 -4.939060e+001 -7.504424e+001 -4.935683e+001 -6.316577e+001 -2.749585e+000 1.002390e+002
26401200000 -4.104858e+000 1.677300e+002 -4.968687e+001 -7.576852e+001 -4.921209e+001 -6.366055e+001 -2.768071e+000 9.973219e+001
26419943750 -4.088316e+000 1.671005e+002 -4.985484e+001 -7.671287e+001 -4.910015e+001 -6.427356e+001 -2.790167e+000 9.926640e+001
26438687500 -4.079100e+000 1.665475e+002 -4.978995e+001 -7.973926e+001 -4.950517e+001 -6.491570e+001 -2.815934e+000 9.881754e+001
26457431250 -4.078749e+000 1.659330e+002 -4.963340e+001 -8.097932e+001 -4.954197e+001 -6.910531e+001 -2.840378e+000 9.831429e+001
26476175000 -4.067218e+000 1.653015e+002 -4.973931e+001 -8.250326e+001 -4.952920e+001 -7.398973e+001 -2.860592e+000 9.782782e+001
26494918750 -4.060808e+000 1.647170e+002 -4.942202e+001 -8.689153e+001 -4.949067e+001 -7.477022e+001 -2.883535e+000 9.731842e+001
26513662500 -4.054370e+000 1.640816e+002 -4.931694e+001 -8.944630e+001 -4.940999e+001 -7.522881e+001 -2.908834e+000 9.677374e+001
26532406250 -4.036786e+000 1.634454e+002 -4.919320e+001 -8.909181e+001 -4.936157e+001 -7.447357e+001 -2.924737e+000 9.632153e+001
26551150000 -4.031902e+000 1.629037e+002 -4.906570e+001 -8.779996e+001 -4.947132e+001 -7.710760e+001 -2.950152e+000 9.582846e+001
26569893750 -4.028061e+000 1.622460e+002 -4.906735e+001 -8.815083e+001 -4.933430e+001 -7.916125e+001 -2.975169e+000 9.531994e+001
26588637500 -4.018083e+000 1.616439e+002 -4.896827e+001 -8.987115e+001 -4.939916e+001 -8.222738e+001 -2.994446e+000 9.482041e+001
26607381250 -4.008954e+000 1.610293e+002 -4.912110e+001 -9.124303e+001 -4.856181e+001 -9.062278e+001 -3.020416e+000 9.431800e+001
26626125000 -4.000898e+000 1.603933e+002 -4.912729e+001 -9.225992e+001 -4.860981e+001 -9.251296e+001 -3.041470e+000 9.378744e+001
26644868750 -3.984504e+000 1.597997e+002 -4.890236e+001 -9.385021e+001 -4.815324e+001 -9.793473e+001 -3.058464e+000 9.331493e+001
26663612500 -3.978570e+000 1.592444e+002 -4.904561e+001 -9.574375e+001 -4.803172e+001 -1.008869e+002 -3.082508e+000 9.280612e+001
26682356250 -3.975979e+000 1.586427e+002 -4.925866e+001 -9.855451e+001 -4.816565e+001 -1.030032e+002 -3.099318e+000 9.230022e+001
26701100000 -3.963846e+000 1.580583e+002 -4.921269e+001 -1.006147e+002 -4.813262e+001 -1.059461e+002 -3.126643e+000 9.181386e+001
26719843750 -3.959392e+000 1.574586e+002 -4.916405e+001 -1.050839e+002 -4.827762e+001 -1.115387e+002 -3.150862e+000 9.129395e+001
26738587500 -3.951864e+000 1.568160e+002 -4.881868e+001 -1.081927e+002 -4.841128e+001 -1.143228e+002 -3.171639e+000 9.076583e+001
26757331250 -3.936485e+000 1.562611e+002 -4.878615e+001 -1.088799e+002 -4.830125e+001 -1.157369e+002 -3.186940e+000 9.026940e+001
26776075000 -3.933836e+000 1.557058e+002 -4.846459e+001 -1.128254e+002 -4.826529e+001 -1.171158e+002 -3.207625e+000 8.976667e+001
26794818750 -3.928568e+000 1.550994e+002 -4.881384e+001 -1.138703e+002 -4.819746e+001 -1.165958e+002 -3.221337e+000 8.925920e+001
26813562500 -3.917434e+000 1.545437e+002 -4.864705e+001 -1.166380e+002 -4.831485e+001 -1.165874e+002 -3.238527e+000 8.879265e+001
26832306250 -3.915001e+000 1.539485e+002 -4.852370e+001 -1.175829e+002 -4.855825e+001 -1.200100e+002 -3.259059e+000 8.827964e+001
26851050000 -3.903479e+000 1.533361e+002 -4.835906e+001 -1.194222e+002 -4.852215e+001 -1.217706e+002 -3.273284e+000 8.777103e+001
26869793750 -3.887058e+000 1.527948e+002 -4.847799e+001 -1.227029e+002 -4.819360e+001 -1.242223e+002 -3.290502e+000 8.729061e+001
26888537500 -3.885074e+000 1.522435e+002 -4.843445e+001 -1.273210e+002 -4.813191e+001 -1.266643e+002 -3.312074e+000 8.676982e+001
26907281250 -3.880055e+000 1.516642e+002 -4.828384e+001 -1.294655e+002 -4.790281e+001 -1.252647e+002 -3.324833e+000 8.627567e+001
26926025000 -3.870887e+000 1.511038e+002 -4.816207e+001 -1.289462e+002 -4.755867e+001 -1.275933e+002 -3.348535e+000 8.579433e+001
26944768750 -3.866457e+000 1.505156e+002 -4.847639e+001 -1.302366e+002 -4.776637e+001 -1.253521e+002 -3.365240e+000 8.529147e+001
26963512500 -3.853587e+000 1.499414e+002 -4.845691e+001 -1.307252e+002 -4.782677e+001 -1.283473e+002 -3.378919e+000 8.474258e+001
26982256250 -3.842942e+000 1.494135e+002 -4.847123e+001 -1.322079e+002 -4.755679e+001 -1.285106e+002 -3.397673e+000 8.425253e+001
27001000000 -3.843094e+000 1.488872e+002 -4.867176e+001 -1.356799e+002 -4.777805e+001 -1.276725e+002 -3.416858e+000 8.371133e+001
27019743750 -3.832136e+000 1.483321e+002 -4.876104e+001 -1.374235e+002 -4.778339e+001 -1.285859e+002 -3.431304e+000 8.321224e+001
27038487500 -3.828742e+000 1.478043e+002 -4.860318e+001 -1.380924e+002 -4.790982e+001 -1.283109e+002 -3.447228e+000 8.274554e+001
27057231250 -3.827401e+000 1.472216e+002 -4.854869e+001 -1.412511e+002 -4.792683e+001 -1.298268e+002 -3.462548e+000 8.220581e+001
27075975000 -3.809673e+000 1.466819e+002 -4.876177e+001 -1.419828e+002 -4.798424e+001 -1.315683e+002 -3.475655e+000 8.169738e+001
27094718750 -3.798379e+000 1.461729e+002 -4.877508e+001 -1.433166e+002 -4.792826e+001 -1.336713e+002 -3.490624e+000 8.120970e+001
27113462500 -3.798213e+000 1.456346e+002 -4.840788e+001 -1.451466e+002 -4.792795e+001 -1.354472e+002 -3.507646e+000 8.066116e+001
27132206250 -3.791441e+000 1.450798e+002 -4.833040e+001 -1.457198e+002 -4.793325e+001 -1.359816e+002 -3.519490e+000 8.015336e+001
27150950000 -3.786252e+000 1.445399e+002 -4.832857e+001 -1.469689e+002 -4.761136e+001 -1.335948e+002 -3.540651e+000 7.964093e+001
27169693750 -3.780658e+000 1.439718e+002 -4.847236e+001 -1.479180e+002 -4.757126e+001 -1.334070e+002 -3.554127e+000 7.910178e+001
27188437500 -3.766697e+000 1.434018e+002 -4.877814e+001 -1.495874e+002 -4.761808e+001 -1.357406e+002 -3.564788e+000 7.862247e+001
27207181250 -3.760119e+000 1.429206e+002 -4.899577e+001 -1.513154e+002 -4.766372e+001 -1.394091e+002 -3.580194e+000 7.809933e+001
27225925000 -3.759733e+000 1.423617e+002 -4.850449e+001 -1.560765e+002 -4.764115e+001 -1.427770e+002 -3.599049e+000 7.755586e+001
27244668750 -3.752436e+000 1.418193e+002 -4.827959e+001 -1.572271e+002 -4.771779e+001 -1.440103e+002 -3.608050e+000 7.701890e+001
27263412500 -3.749286e+000 1.412837e+002 -4.818843e+001 -1.591100e+002 -4.743093e+001 -1.439070e+002 -3.627101e+000 7.651518e+001
27282156250 -3.742370e+000 1.406872e+002 -4.783589e+001 -1.604257e+002 -4.749183e+001 -1.448758e+002 -3.634744e+000 7.596025e+001
27300900000 -3.726370e+000 1.401786e+002 -4.770509e+001 -1.601902e+002 -4.779702e+001 -1.469608e+002 -3.643936e+000 7.545788e+001
27319643750 -3.720273e+000 1.396868e+002 -4.781453e+001 -1.593548e+002 -4.777402e+001 -1.500599e+002 -3.659637e+000 7.498304e+001
27338387500 -3.717185e+000 1.391283e+002 -4.786935e+001 -1.597350e+002 -4.791425e+001 -1.508461e+002 -3.667738e+000 7.446261e+001
27357131250 -3.709212e+000 1.385854e+002 -4.792076e+001 -1.605444e+002 -4.812790e+001 -1.519626e+002 -3.674375e+000 7.398691e+001
27375875000 -3.704295e+000 1.380514e+002 -4.761533e+001 -1.642193e+002 -4.833384e+001 -1.551201e+002 -3.692466e+000 7.346564e+001
27394618750 -3.697361e+000 1.374401e+002 -4.771830e+001 -1.660451e+002 -4.846260e+001 -1.588793e+002 -3.703871e+000 7.294693e+001
27413362500 -3.678655e+000 1.369051e+002 -4.759738e+001 -1.669358e+002 -4.847026e+001 -1.620665e+002 -3.714033e+000 7.249597e+001
27432106250 -3.674761e+000 1.364253e+002 -4.759499e+001 -1.695001e+002 -4.850613e+001 -1.668128e+002 -3.728314e+000 7.201359e+001
27450850000 -3.673357e+000 1.358611e+002 -4.762593e+001 -1.698267e+002 -4.873042e+001 -1.713466e+002 -3.733872e+000 7.148132e+001
27469593750 -3.661315e+000 1.353180e+002 -4.783818e+001 -1.699593e+002 -4.883387e+001 -1.772475e+002 -3.749372e+000 7.095564e+001
27488337500 -3.660386e+000 1.347713e+002 -4.780965e+001 -1.722589e+002 -4.863017e+001 1.797417e+002 -3.767209e+000 7.043755e+001
27507081250 -3.651481e+000 1.342029e+002 -4.767562e+001 -1.761221e+002 -4.858836e+001 1.783100e+002 -3.771768e+000 6.994222e+001
27525825000 -3.634553e+000 1.337269e+002 -4.763889e+001 -1.787830e+002 -4.894595e+001 1.757115e+002 -3.782083e+000 6.948839e+001
27544568750 -3.634696e+000 1.332382e+002 -4.781938e+001 1.791914e+002 -4.926097e+001 1.737339e+002 -3.797063e+000 6.900081e+001
27563312500 -3.628250e+000 1.327120e+002 -4.804097e+001 1.761827e+002 -4.914793e+001 1.699606e+002 -3.796263e+000 6.850980e+001
27582056250 -3.622725e+000 1.322076e+002 -4.782076e+001 1.736014e+002 -4.924511e+001 1.670908e+002 -3.801671e+000 6.809743e+001
27600800000 -3.626119e+000 1.316388e+002 -4.777328e+001 1.718323e+002 -4.932182e+001 1.663170e+002 -3.814537e+000 6.758466e+001
27619543750 -3.612477e+000 1.310703e+002 -4.764373e+001 1.698881e+002 -4.933213e+001 1.659320e+002 -3.814487e+000 6.708588e+001
27638287500 -3.594704e+000 1.306176e+002 -4.771074e+001 1.682251e+002 -4.951079e+001 1.672584e+002 -3.823672e+000 6.666477e+001
27657031250 -3.596220e+000 1.301390e+002 -4.787357e+001 1.686428e+002 -4.987896e+001 1.680923e+002 -3.832809e+000 6.619906e+001
27675775000 -3.591653e+000 1.296167e+002 -4.803948e+001 1.651555e+002 -4.984302e+001 1.632879e+002 -3.835123e+000 6.575064e+001
27694518750 -3.586291e+000 1.291254e+002 -4.826205e+001 1.634932e+002 -5.019416e+001 1.596365e+002 -3.841566e+000 6.531588e+001
27713262500 -3.588763e+000 1.285782e+002 -4.843523e+001 1.621294e+002 -5.061413e+001 1.537407e+002 -3.855442e+000 6.483031e+001
27732006250 -3.577354e+000 1.279979e+002 -4.870034e+001 1.594478e+002 -5.069267e+001 1.516198e+002 -3.848824e+000 6.436739e+001
27750750000 -3.565690e+000 1.275444e+002 -4.883319e+001 1.566315e+002 -5.077564e+001 1.484397e+002 -3.857456e+000 6.391951e+001
27769493750 -3.567473e+000 1.270377e+002 -4.892601e+001 1.516870e+002 -5.082627e+001 1.456583e+002 -3.863822e+000 6.338574e+001
27788237500 -3.556535e+000 1.265281e+002 -4.949519e+001 1.422974e+002 -5.088829e+001 1.374191e+002 -3.861565e+000 6.290531e+001
27806981250 -3.557750e+000 1.260559e+002 -4.981482e+001 1.409978e+002 -5.053093e+001 1.329080e+002 -3.864910e+000 6.248817e+001
27825725000 -3.555892e+000 1.255116e+002 -4.982521e+001 1.369108e+002 -5.046656e+001 1.296763e+002 -3.872421e+000 6.197199e+001
27844468750 -3.542001e+000 1.249796e+002 -5.005101e+001 1.348287e+002 -5.070033e+001 1.295659e+002 -3.867825e+000 6.146786e+001
27863212500 -3.533388e+000 1.245217e+002 -4.975801e+001 1.332306e+002 -5.047211e+001 1.284625e+002 -3.873047e+000 6.100092e+001
27881956250 -3.532482e+000 1.240091e+002 -5.008301e+001 1.303786e+002 -5.010949e+001 1.290635e+002 -3.876583e+000 6.048242e+001
27900700000 -3.526717e+000 1.234983e+002 -5.017849e+001 1.248151e+002 -5.011596e+001 1.304049e+002 -3.865276e+000 6.005865e+001
27919443750 -3.528559e+000 1.230282e+002 -5.031512e+001 1.234896e+002 -5.017211e+001 1.295686e+002 -3.872881e+000 5.963610e+001
27938187500 -3.528336e+000 1.224259e+002 -5.053811e+001 1.206861e+002 -5.015408e+001 1.269618e+002 -3.876371e+000 5.908413e+001
27956931250 -3.514427e+000 1.219221e+002 -5.068672e+001 1.200504e+002 -4.998972e+001 1.228834e+002 -3.873121e+000 5.860579e+001
27975675000 -3.508253e+000 1.214862e+002 -5.102343e+001 1.186687e+002 -4.991682e+001 1.222754e+002 -3.882078e+000 5.812048e+001
27994418750 -3.509833e+000 1.209473e+002 -5.117109e+001 1.152555e+002 -5.026005e+001 1.223562e+002 -3.882909e+000 5.758963e+001
28013162500 -3.501200e+000 1.204706e+002 -5.158084e+001 1.118572e+002 -5.071431e+001 1.208821e+002 -3.883704e+000 5.711926e+001
28031906250 -3.501010e+000 1.199990e+002 -5.172425e+001 1.107532e+002 -5.058994e+001 1.175678e+002 -3.895405e+000 5.667348e+001
28050650000 -3.499877e+000 1.194216e+002 -5.191969e+001 1.085540e+002 -5.066785e+001 1.134280e+002 -3.904903e+000 5.612717e+001
28069393750 -3.492054e+000 1.188667e+002 -5.199754e+001 1.082623e+002 -5.058498e+001 1.108390e+002 -3.909901e+000 5.563881e+001
28088137500 -3.488256e+000 1.184120e+002 -5.239774e+001 1.059743e+002 -5.058504e+001 1.072352e+002 -3.926213e+000 5.509446e+001
28106881250 -3.485176e+000 1.178816e+002 -5.259886e+001 1.025946e+002 -5.145145e+001 1.122098e+002 -3.927468e+000 5.451968e+001
28125625000 -3.477946e+000 1.173916e+002 -5.292045e+001 9.925449e+001 -5.144537e+001 1.103145e+002 -3.931420e+000 5.404208e+001
28144368750 -3.482735e+000 1.168984e+002 -5.350140e+001 9.686012e+001 -5.108423e+001 1.119123e+002 -3.943939e+000 5.352067e+001
28163112500 -3.480867e+000 1.163314e+002 -5.401937e+001 9.904980e+001 -5.127658e+001 1.095122e+002 -3.957485e+000 5.296612e+001
28181856250 -3.465830e+000 1.158382e+002 -5.422118e+001 9.469895e+001 -5.162831e+001 1.086122e+002 -3.969053e+000 5.246983e+001
28200600000 -3.461073e+000 1.154280e+002 -5.454716e+001 9.323613e+001 -5.169009e+001 1.037112e+002 -3.990225e+000 5.194251e+001
28219343750 -3.461110e+000 1.149211e+002 -5.423018e+001 9.602158e+001 -5.169387e+001 1.068681e+002 -3.997022e+000 5.139072e+001
28238087500 -3.457344e+000 1.144325e+002 -5.442141e+001 9.532398e+001 -5.203706e+001 1.066750e+002 -4.009403e+000 5.087445e+001
28256831250 -3.463018e+000 1.139513e+002 -5.496523e+001 9.313514e+001 -5.217284e+001 1.084041e+002 -4.028096e+000 5.033899e+001
28275575000 -3.462237e+000 1.134000e+002 -5.525342e+001 8.492823e+001 -5.226540e+001 1.047277e+002 -4.042791e+000 4.975320e+001
28294318750 -3.450702e+000 1.129279e+002 -5.548845e+001 8.373639e+001 -5.300501e+001 1.025035e+002 -4.064036e+000 4.921335e+001
28313062500 -3.449506e+000 1.124904e+002 -5.544551e+001 8.114606e+001 -5.324583e+001 1.003654e+002 -4.084480e+000 4.862922e+001
28331806250 -3.450541e+000 1.120435e+002 -5.522911e+001 7.980466e+001 -5.337126e+001 9.563283e+001 -4.097365e+000 4.801466e+001
28350550000 -3.446488e+000 1.115976e+002 -5.519509e+001 7.980692e+001 -5.335263e+001 9.087018e+001 -4.116080e+000 4.746823e+001
28369293750 -3.455000e+000 1.111321e+002 -5.540921e+001 8.007082e+001 -5.335151e+001 8.769125e+001 -4.143196e+000 4.687506e+001
28388037500 -3.451820e+000 1.105767e+002 -5.541999e+001 7.809598e+001 -5.364611e+001 8.698508e+001 -4.167226e+000 4.628462e+001
28406781250 -3.441175e+000 1.101041e+002 -5.507893e+001 7.565440e+001 -5.355917e+001 8.221030e+001 -4.196727e+000 4.570213e+001
28425525000 -3.435854e+000 1.096844e+002 -5.550476e+001 6.649330e+001 -5.334437e+001 7.693286e+001 -4.223562e+000 4.503996e+001
28444268750 -3.436460e+000 1.092265e+002 -5.556118e+001 6.169794e+001 -5.344712e+001 7.592587e+001 -4.243657e+000 4.440921e+001
28463012500 -3.438280e+000 1.087980e+002 -5.576067e+001 5.848170e+001 -5.363048e+001 7.029094e+001 -4.269200e+000 4.383861e+001
28481756250 -3.445752e+000 1.083286e+002 -5.603057e+001 5.216656e+001 -5.367816e+001 6.732929e+001 -4.294840e+000 4.321560e+001
28500500000 -3.439030e+000 1.078442e+002 -5.606672e+001 4.961534e+001 -5.377634e+001 6.364483e+001 -4.318773e+000 4.263702e+001
28519243750 -3.430674e+000 1.074221e+002 -5.603036e+001 4.717103e+001 -5.339809e+001 5.895429e+001 -4.349354e+000 4.205698e+001
28537987500 -3.429109e+000 1.070023e+002 -5.602213e+001 4.525072e+001 -5.293396e+001 5.068057e+001 -4.385140e+000 4.139499e+001
28556731250 -3.428335e+000 1.065701e+002 -5.609521e+001 4.328318e+001 -5.302090e+001 4.831696e+001 -4.409941e+000 4.074164e+001
28575475000 -3.424187e+000 1.061558e+002 -5.551414e+001 3.965681e+001 -5.341385e+001 4.399607e+001 -4.443691e+000 4.011147e+001
28594218750 -3.428337e+000 1.056878e+002 -5.495222e+001 3.200600e+001 -5.303995e+001 3.951592e+001 -4.477417e+000 3.946180e+001
28612962500 -3.425634e+000 1.051895e+002 -5.478355e+001 3.059526e+001 -5.285555e+001 3.830680e+001 -4.506365e+000 3.882084e+001
28631706250 -3.417649e+000 1.047562e+002 -5.490977e+001 3.157645e+001 -5.269455e+001 3.724336e+001 -4.541594e+000 3.815778e+001
28650450000 -3.418167e+000 1.043273e+002 -5.511412e+001 2.873331e+001 -5.297116e+001 3.577929e+001 -4.576669e+000 3.744320e+001
28669193750 -3.413181e+000 1.039206e+002 -5.487358e+001 2.346285e+001 -5.279240e+001 3.151541e+001 -4.609123e+000 3.679885e+001
28687937500 -3.411867e+000 1.035204e+002 -5.440341e+001 2.156396e+001 -5.288725e+001 2.841473e+001 -4.648844e+000 3.613669e+001
28706681250 -3.416396e+000 1.030731e+002 -5.412162e+001 2.081535e+001 -5.311564e+001 2.655781e+001 -4.688437e+000 3.548871e+001
28725425000 -3.409420e+000 1.026082e+002 -5.420295e+001 1.762344e+001 -5.291844e+001 2.357355e+001 -4.730646e+000 3.482146e+001
28744168750 -3.403162e+000 1.021889e+002 -5.428690e+001 1.306386e+001 -5.292776e+001 1.870810e+001 -4.778838e+000 3.413831e+001
28762912500 -3.401006e+000 1.017583e+002 -5.418409e+001 9.332227e+000 -5.308259e+001 1.568112e+001 -4.823424e+000 3.342091e+001
28781656250 -3.395979e+000 1.013423e+002 -5.423737e+001 3.467323e+000 -5.331724e+001 1.346450e+001 -4.859436e+000 3.273906e+001
28800400000 -3.396398e+000 1.009100e+002 -5.393015e+001 -1.086330e+000 -5.359678e+001 9.773407e+000 -4.903955e+000 3.206711e+001
28819143750 -3.399240e+000 1.004670e+002 -5.393255e+001 -4.835151e+000 -5.329076e+001 5.888644e+000 -4.948298e+000 3.135968e+001
28837887500 -3.393618e+000 1.000112e+002 -5.409397e+001 -8.321799e+000 -5.400471e+001 4.011563e+000 -4.991029e+000 3.068485e+001
28856631250 -3.391327e+000 9.958242e+001 -5.368925e+001 -6.210857e+000 -5.387324e+001 2.023823e+000 -5.046569e+000 2.993759e+001
28875375000 -3.386060e+000 9.916423e+001 -5.349828e+001 -5.498402e+000 -5.356597e+001 -3.642631e+000 -5.091197e+000 2.916843e+001
28894118750 -3.383405e+000 9.874629e+001 -5.327267e+001 -1.023511e+001 -5.337203e+001 -2.686170e+000 -5.138490e+000 2.843419e+001
28912862500 -3.380135e+000 9.832545e+001 -5.302303e+001 -1.018963e+001 -5.333418e+001 -5.695032e+000 -5.191375e+000 2.769672e+001
28931606250 -3.378004e+000 9.784478e+001 -5.269659e+001 -1.411074e+001 -5.344465e+001 -8.666074e+000 -5.240508e+000 2.691729e+001
28950350000 -3.370004e+000 9.739869e+001 -5.266361e+001 -2.057190e+001 -5.352655e+001 -9.398336e+000 -5.294336e+000 2.616695e+001
28969093750 -3.361479e+000 9.698171e+001 -5.259517e+001 -1.999771e+001 -5.336586e+001 -1.327685e+001 -5.350368e+000 2.539521e+001
28987837500 -3.353837e+000 9.656562e+001 -5.201326e+001 -2.276893e+001 -5.314635e+001 -1.617290e+001 -5.404629e+000 2.459509e+001
29006581250 -3.352437e+000 9.616146e+001 -5.195039e+001 -2.531595e+001 -5.279054e+001 -1.890708e+001 -5.459313e+000 2.383989e+001
29025325000 -3.350882e+000 9.574954e+001 -5.245540e+001 -2.501465e+001 -5.281578e+001 -1.910189e+001 -5.518967e+000 2.302852e+001
29044068750 -3.347114e+000 9.526440e+001 -5.268993e+001 -2.527923e+001 -5.271547e+001 -2.213317e+001 -5.575157e+000 2.220853e+001
29062812500 -3.339596e+000 9.478713e+001 -5.232857e+001 -2.834454e+001 -5.290157e+001 -2.455798e+001 -5.638651e+000 2.144471e+001
29081556250 -3.331994e+000 9.435456e+001 -5.186373e+001 -2.959738e+001 -5.241718e+001 -2.887650e+001 -5.703247e+000 2.060775e+001
29100300000 -3.328129e+000 9.391756e+001 -5.173719e+001 -2.978881e+001 -5.224982e+001 -3.009265e+001 -5.761283e+000 1.976774e+001
29119043750 -3.328833e+000 9.349220e+001 -5.185868e+001 -3.194946e+001 -5.206707e+001 -3.296348e+001 -5.821564e+000 1.895818e+001
29137787500 -3.327892e+000 9.301171e+001 -5.194653e+001 -3.156766e+001 -5.162811e+001 -3.519238e+001 -5.886707e+000 1.808528e+001
29156531250 -3.327032e+000 9.250580e+001 -5.174812e+001 -3.364585e+001 -5.128588e+001 -3.661209e+001 -5.947450e+000 1.727040e+001
29175275000 -3.319073e+000 9.200744e+001 -5.167347e+001 -3.178103e+001 -5.133200e+001 -3.560021e+001 -6.016648e+000 1.643203e+001
29194018750 -3.306964e+000 9.156347e+001 -5.165729e+001 -3.363287e+001 -5.114610e+001 -3.471783e+001 -6.089158e+000 1.553553e+001
29212762500 -3.302209e+000 9.112846e+001 -5.153402e+001 -3.552100e+001 -5.126195e+001 -3.741473e+001 -6.151759e+000 1.464322e+001
29231506250 -3.300359e+000 9.069805e+001 -5.161209e+001 -3.582793e+001 -5.099346e+001 -3.749203e+001 -6.224300e+000 1.378313e+001
29250250000 -3.305936e+000 9.021732e+001 -5.150155e+001 -3.718073e+001 -5.072546e+001 -3.882580e+001 -6.293823e+000 1.286834e+001
29268993750 -3.304103e+000 8.970049e+001 -5.155899e+001 -3.820210e+001 -4.993064e+001 -4.050301e+001 -6.363729e+000 1.199440e+001
29287737500 -3.299342e+000 8.918839e+001 -5.151059e+001 -3.685206e+001 -4.989678e+001 -4.165582e+001 -6.447881e+000 1.116590e+001
29306481250 -3.295935e+000 8.872554e+001 -5.142146e+001 -3.831213e+001 -4.976637e+001 -4.570037e+001 -6.526826e+000 1.026631e+001
29325225000 -3.290781e+000 8.827928e+001 -5.135047e+001 -3.855246e+001 -4.979523e+001 -4.855297e+001 -6.599482e+000 9.390107e+000
29343968750 -3.298774e+000 8.783871e+001 -5.099958e+001 -3.892873e+001 -4.958172e+001 -4.845786e+001 -6.684841e+000 8.504455e+000
29362712500 -3.306033e+000 8.737173e+001 -5.100674e+001 -4.108736e+001 -4.914904e+001 -5.007099e+001 -6.763216e+000 7.592893e+000
29381456250 -3.305530e+000 8.684103e+001 -5.040876e+001 -4.050139e+001 -4.906050e+001 -5.353128e+001 -6.843070e+000 6.722571e+000
29400200000 -3.307126e+000 8.633121e+001 -5.055488e+001 -4.232016e+001 -4.883120e+001 -5.211733e+001 -6.939467e+000 5.828484e+000
29418943750 -3.310951e+000 8.584287e+001 -5.054313e+001 -4.473587e+001 -4.859819e+001 -5.358125e+001 -7.027108e+000 4.929677e+000
29437687500 -3.313693e+000 8.540003e+001 -5.039532e+001 -4.518176e+001 -4.841264e+001 -5.416934e+001 -7.117638e+000 4.069150e+000
29456431250 -3.324089e+000 8.493694e+001 -4.945562e+001 -4.930566e+001 -4.818458e+001 -5.556501e+001 -7.216164e+000 3.186567e+000
29475175000 -3.336973e+000 8.446294e+001 -4.899005e+001 -5.199939e+001 -4.790821e+001 -5.822499e+001 -7.314137e+000 2.318246e+000
29493918750 -3.347076e+000 8.396311e+001 -4.853729e+001 -5.575836e+001 -4.765557e+001 -5.965631e+001 -7.419118e+000 1.454156e+000
29512662500 -3.352310e+000 8.349297e+001 -4.845103e+001 -5.768501e+001 -4.766441e+001 -6.164046e+001 -7.530692e+000 5.571905e-001
29531406250 -3.357357e+000 8.304620e+001 -4.824393e+001 -6.051260e+001 -4.750584e+001 -6.423946e+001 -7.638753e+000 -3.276782e-001
29550150000 -3.367104e+000 8.263817e+001 -4.781768e+001 -6.202579e+001 -4.725182e+001 -6.760001e+001 -7.754109e+000 -1.154090e+000
29568893750 -3.384161e+000 8.224487e+001 -4.733069e+001 -6.427683e+001 -4.710954e+001 -7.126958e+001 -7.875056e+000 -1.974001e+000
29587637500 -3.398626e+000 8.179847e+001 -4.724105e+001 -6.710891e+001 -4.683304e+001 -7.332674e+001 -7.991572e+000 -2.785753e+000
29606381250 -3.408102e+000 8.136319e+001 -4.682530e+001 -7.258182e+001 -4.643568e+001 -7.760719e+001 -8.123527e+000 -3.542809e+000
29625125000 -3.422312e+000 8.093880e+001 -4.679628e+001 -7.399325e+001 -4.611549e+001 -8.167737e+001 -8.257746e+000 -4.335846e+000
29643868750 -3.430022e+000 8.053976e+001 -4.671170e+001 -7.543119e+001 -4.566262e+001 -8.321735e+001 -8.394198e+000 -5.083823e+000
29662612500 -3.441997e+000 8.020231e+001 -4.640992e+001 -7.965965e+001 -4.545677e+001 -8.664462e+001 -8.535374e+000 -5.796638e+000
29681356250 -3.461068e+000 7.980323e+001 -4.615076e+001 -8.351624e+001 -4.532196e+001 -8.830032e+001 -8.678727e+000 -6.464272e+000
29700100000 -3.480404e+000 7.940418e+001 -4.565608e+001 -8.640755e+001 -4.509840e+001 -9.081286e+001 -8.821248e+000 -7.057365e+000
29718843750 -3.497671e+000 7.903676e+001 -4.531126e+001 -9.040137e+001 -4.495697e+001 -9.371567e+001 -8.970668e+000 -7.601224e+000
29737587500 -3.513476e+000 7.864941e+001 -4.500338e+001 -9.358826e+001 -4.467813e+001 -9.528664e+001 -9.124023e+000 -8.146872e+000
29756331250 -3.527685e+000 7.832450e+001 -4.484747e+001 -9.630396e+001 -4.442953e+001 -9.812255e+001 -9.286590e+000 -8.611503e+000
29775075000 -3.543840e+000 7.803162e+001 -4.473084e+001 -1.002175e+002 -4.433789e+001 -1.021363e+002 -9.446644e+000 -9.012285e+000
29793818750 -3.566783e+000 7.769452e+001 -4.457609e+001 -1.035332e+002 -4.435806e+001 -1.048076e+002 -9.617342e+000 -9.376044e+000
29812562500 -3.592952e+000 7.738432e+001 -4.454814e+001 -1.071761e+002 -4.432322e+001 -1.059127e+002 -9.773442e+000 -9.683998e+000
29831306250 -3.618727e+000 7.708018e+001 -4.403073e+001 -1.117019e+002 -4.431828e+001 -1.101992e+002 -9.925144e+000 -9.891582e+000
29850050000 -3.641488e+000 7.676888e+001 -4.380865e+001 -1.149379e+002 -4.443508e+001 -1.122441e+002 -1.008437e+001 -1.013634e+001
29868793750 -3.657551e+000 7.646188e+001 -4.373564e+001 -1.189102e+002 -4.447596e+001 -1.147793e+002 -1.022657e+001 -1.037856e+001
29887537500 -3.671111e+000 7.623531e+001 -4.370037e+001 -1.221733e+002 -4.456456e+001 -1.174048e+002 -1.036307e+001 -1.052768e+001
29906281250 -3.689063e+000 7.604170e+001 -4.354683e+001 -1.256807e+002 -4.462067e+001 -1.186512e+002 -1.049333e+001 -1.068759e+001
29925025000 -3.708496e+000 7.584734e+001 -4.357727e+001 -1.282457e+002 -4.460299e+001 -1.203226e+002 -1.060850e+001 -1.076499e+001
29943768750 -3.730083e+000 7.564572e+001 -4.344151e+001 -1.311942e+002 -4.462494e+001 -1.218795e+002 -1.072932e+001 -1.074142e+001
29962512500 -3.747413e+000 7.541399e+001 -4.331407e+001 -1.341399e+002 -4.474876e+001 -1.236885e+002 -1.084842e+001 -1.080315e+001
29981256250 -3.755361e+000 7.520100e+001 -4.326421e+001 -1.371228e+002 -4.479637e+001 -1.246759e+002 -1.095022e+001 -1.083796e+001
30000000000 -3.762144e+000 7.505525e+001 -4.327663e+001 -1.391298e+002 -4.494049e+001 -1.254705e+002 -1.104504e+001 -1.082050e+001
