!Agilent Technologies,E8364B,MY43040894,A.07.50.67
!Agilent E8364B: A.07.50.67
!Date: Tuesday, May 12, 2020 09:52:37
!Correction: S11(Full 2 Port(1,2)) 
!S21(Full 2 Port(1,2)) 
!S12(Full 2 Port(1,2)) 
!S22(Full 2 Port(1,2)) 
!S2P File: Measurements: S11, S21, S12, S22:
# Hz S  dB   R 50
10000000 -2.916575e-001 -6.201745e+000 -4.647628e+001 -1.103375e+002 -4.655088e+001 5.542876e+001 -6.853727e-002 -1.984570e+000
28743750 -2.983809e-001 -6.975927e+000 -4.750154e+001 -1.253436e+002 -4.724028e+001 4.781861e+001 -6.599052e-002 -2.278457e+000
47487500 -3.064484e-001 -7.835464e+000 -4.820902e+001 -1.428989e+002 -4.795732e+001 4.198909e+001 -6.391779e-002 -2.600385e+000
66231250 -3.129399e-001 -8.740090e+000 -4.907469e+001 -1.567873e+002 -4.888224e+001 2.972721e+001 -6.233498e-002 -2.937932e+000
84975000 -3.227211e-001 -9.718588e+000 -4.968153e+001 -1.755025e+002 -4.979934e+001 1.046795e+001 -6.091502e-002 -3.308285e+000
103718750 -3.358335e-001 -1.076046e+001 -5.025624e+001 1.675442e+002 -5.055209e+001 -1.397901e+001 -5.738861e-002 -3.704247e+000
122462500 -3.480596e-001 -1.185519e+001 -5.108274e+001 1.524012e+002 -5.150347e+001 -3.332124e+001 -5.226927e-002 -4.106952e+000
141206250 -3.607846e-001 -1.301763e+001 -5.204133e+001 1.316560e+002 -5.280877e+001 -4.776109e+001 -4.934319e-002 -4.539103e+000
159950000 -3.761970e-001 -1.425379e+001 -5.316396e+001 1.172739e+002 -5.409538e+001 -6.830974e+001 -4.497800e-002 -4.996199e+000
178693750 -3.919381e-001 -1.555257e+001 -5.378500e+001 9.660348e+001 -5.482507e+001 -8.893505e+001 -4.102653e-002 -5.464402e+000
197437500 -4.070560e-001 -1.690975e+001 -5.455649e+001 7.857691e+001 -5.577709e+001 -1.082586e+002 -3.650087e-002 -5.970733e+000
216181250 -4.268320e-001 -1.832044e+001 -5.547931e+001 5.601134e+001 -5.665252e+001 -1.317722e+002 -3.156242e-002 -6.493456e+000
234925000 -4.445171e-001 -1.979980e+001 -5.637862e+001 3.765860e+001 -5.735925e+001 -1.531738e+002 -2.623354e-002 -7.055984e+000
253668750 -4.680387e-001 -2.128855e+001 -5.620177e+001 2.258292e+001 -5.765966e+001 -1.695753e+002 -2.270219e-002 -7.591240e+000
272412500 -4.903156e-001 -2.275727e+001 -5.723668e+001 6.517525e+000 -5.760915e+001 -1.778357e+002 -1.698612e-002 -8.120127e+000
291156250 -5.136551e-001 -2.424599e+001 -5.809399e+001 -4.303783e+000 -5.838029e+001 1.665445e+002 -1.322862e-002 -8.640584e+000
309900000 -5.363687e-001 -2.571775e+001 -5.848522e+001 -9.100346e+000 -5.918816e+001 1.484674e+002 -8.473391e-003 -9.177673e+000
328643750 -5.591121e-001 -2.716712e+001 -5.881339e+001 -1.402209e+001 -5.966353e+001 1.303496e+002 -2.863829e-003 -9.693149e+000
347387500 -5.830559e-001 -2.862223e+001 -5.875246e+001 -1.424611e+001 -5.995565e+001 1.133363e+002 3.453434e-003 -1.023301e+001
366131250 -6.053582e-001 -3.006594e+001 -5.913123e+001 -1.769936e+001 -5.999530e+001 9.700996e+001 7.552423e-003 -1.076993e+001
384875000 -6.309033e-001 -3.148624e+001 -5.917736e+001 -2.105883e+001 -5.997040e+001 8.344775e+001 1.110243e-002 -1.129369e+001
403618750 -6.553034e-001 -3.293822e+001 -5.907359e+001 -1.684435e+001 -5.992562e+001 6.947028e+001 1.551640e-002 -1.183046e+001
422362500 -6.775470e-001 -3.436176e+001 -5.944334e+001 -1.791498e+001 -6.036558e+001 5.829675e+001 1.996040e-002 -1.235845e+001
441106250 -7.013028e-001 -3.577451e+001 -5.948870e+001 -1.851602e+001 -6.037934e+001 4.060818e+001 2.546073e-002 -1.289082e+001
459850000 -7.266214e-001 -3.718960e+001 -5.944063e+001 -2.450089e+001 -6.085152e+001 2.109171e+001 2.988669e-002 -1.342568e+001
478593750 -7.513471e-001 -3.857738e+001 -6.019864e+001 -2.522577e+001 -6.122519e+001 1.346930e+000 3.560320e-002 -1.395459e+001
497337500 -7.767224e-001 -3.997940e+001 -6.038173e+001 -3.016158e+001 -6.149743e+001 -1.251715e+001 4.071350e-002 -1.449791e+001
516081250 -8.005326e-001 -4.135987e+001 -6.048704e+001 -3.232558e+001 -6.164820e+001 -1.546346e+001 4.487900e-002 -1.501922e+001
534825000 -8.224853e-001 -4.274338e+001 -6.083540e+001 -3.530736e+001 -6.181037e+001 -1.469558e+001 4.696209e-002 -1.554152e+001
553568750 -8.460611e-001 -4.413175e+001 -6.159302e+001 -4.141102e+001 -6.183226e+001 -1.866437e+001 4.649832e-002 -1.608796e+001
572312500 -8.701701e-001 -4.550501e+001 -6.179815e+001 -3.807610e+001 -6.174051e+001 -2.865474e+001 4.847314e-002 -1.663231e+001
591056250 -8.917974e-001 -4.687469e+001 -6.136216e+001 -4.362017e+001 -6.152627e+001 -2.852041e+001 4.857438e-002 -1.716383e+001
609800000 -9.139088e-001 -4.823579e+001 -6.206873e+001 -3.732914e+001 -6.151451e+001 -3.220587e+001 4.955170e-002 -1.772198e+001
628543750 -9.380227e-001 -4.958259e+001 -6.207655e+001 -3.687790e+001 -6.164513e+001 -3.635056e+001 5.237699e-002 -1.826017e+001
647287500 -9.587057e-001 -5.094796e+001 -6.196553e+001 -3.228033e+001 -6.168285e+001 -3.691799e+001 5.248765e-002 -1.880445e+001
666031250 -9.810725e-001 -5.229679e+001 -6.198629e+001 -3.576978e+001 -6.220813e+001 -4.248409e+001 5.236979e-002 -1.934763e+001
684775000 -1.004838e+000 -5.363245e+001 -6.238815e+001 -3.785989e+001 -6.244770e+001 -4.550269e+001 4.920071e-002 -1.989747e+001
703518750 -1.026073e+000 -5.497814e+001 -6.227289e+001 -4.074340e+001 -6.254279e+001 -4.344650e+001 4.705790e-002 -2.045443e+001
722262500 -1.046356e+000 -5.630373e+001 -6.221799e+001 -4.206570e+001 -6.244040e+001 -4.440477e+001 4.633998e-002 -2.101039e+001
741006250 -1.068331e+000 -5.763688e+001 -6.219073e+001 -4.317090e+001 -6.249812e+001 -4.374252e+001 4.369061e-002 -2.156048e+001
759750000 -1.090597e+000 -5.896273e+001 -6.225701e+001 -4.203873e+001 -6.280156e+001 -3.947392e+001 4.126923e-002 -2.211241e+001
778493750 -1.109156e+000 -6.027880e+001 -6.261111e+001 -4.175195e+001 -6.281523e+001 -4.115621e+001 3.722304e-002 -2.266753e+001
797237500 -1.131087e+000 -6.159706e+001 -6.289458e+001 -3.859113e+001 -6.298760e+001 -4.380302e+001 3.421471e-002 -2.322428e+001
815981250 -1.153415e+000 -6.290994e+001 -6.301807e+001 -3.837771e+001 -6.313637e+001 -4.677365e+001 3.149880e-002 -2.378630e+001
834725000 -1.171550e+000 -6.420470e+001 -6.367927e+001 -3.146769e+001 -6.346637e+001 -4.978360e+001 2.913394e-002 -2.435464e+001
853468750 -1.191139e+000 -6.550765e+001 -6.382912e+001 -2.937750e+001 -6.363802e+001 -5.510139e+001 2.438119e-002 -2.491281e+001
872212500 -1.211010e+000 -6.681638e+001 -6.374454e+001 -3.114047e+001 -6.373386e+001 -5.558980e+001 1.914294e-002 -2.548220e+001
890956250 -1.229446e+000 -6.812423e+001 -6.380762e+001 -2.959405e+001 -6.363784e+001 -5.462370e+001 1.264858e-002 -2.604969e+001
909700000 -1.247474e+000 -6.942558e+001 -6.322884e+001 -3.222164e+001 -6.347739e+001 -5.735737e+001 5.815693e-003 -2.661452e+001
928443750 -1.267387e+000 -7.072765e+001 -6.404811e+001 -3.810360e+001 -6.311572e+001 -5.372197e+001 -5.081001e-004 -2.717389e+001
947187500 -1.287202e+000 -7.202237e+001 -6.422881e+001 -3.721512e+001 -6.298195e+001 -5.525916e+001 -5.162077e-003 -2.774521e+001
965931250 -1.306129e+000 -7.331001e+001 -6.426285e+001 -3.713020e+001 -6.307394e+001 -5.372336e+001 -1.122937e-002 -2.831283e+001
984675000 -1.325325e+000 -7.458981e+001 -6.398169e+001 -3.545942e+001 -6.325559e+001 -5.639153e+001 -1.686941e-002 -2.887622e+001
1003418750 -1.343803e+000 -7.586241e+001 -6.386427e+001 -4.085392e+001 -6.321684e+001 -5.937184e+001 -2.229829e-002 -2.944542e+001
1022162500 -1.361865e+000 -7.712708e+001 -6.412169e+001 -3.777419e+001 -6.347726e+001 -6.499747e+001 -2.738522e-002 -3.002458e+001
1040906250 -1.380980e+000 -7.838689e+001 -6.386567e+001 -4.423078e+001 -6.378333e+001 -6.266181e+001 -3.351118e-002 -3.059157e+001
1059650000 -1.398749e+000 -7.966499e+001 -6.421390e+001 -4.619538e+001 -6.367943e+001 -6.386535e+001 -4.153488e-002 -3.115186e+001
1078393750 -1.416899e+000 -8.092022e+001 -6.469226e+001 -4.693993e+001 -6.430695e+001 -6.038232e+001 -4.866071e-002 -3.171694e+001
1097137500 -1.437967e+000 -8.217616e+001 -6.498099e+001 -4.569485e+001 -6.419069e+001 -6.029024e+001 -5.646271e-002 -3.226094e+001
1115881250 -1.456146e+000 -8.343274e+001 -6.488116e+001 -4.250447e+001 -6.399157e+001 -5.589931e+001 -6.240122e-002 -3.282203e+001
1134625000 -1.475193e+000 -8.468812e+001 -6.498646e+001 -3.888026e+001 -6.372782e+001 -6.027945e+001 -6.767786e-002 -3.337772e+001
1153368750 -1.493278e+000 -8.592831e+001 -6.492455e+001 -3.643165e+001 -6.409711e+001 -6.263432e+001 -7.136574e-002 -3.394072e+001
1172112500 -1.511765e+000 -8.714988e+001 -6.515551e+001 -4.059959e+001 -6.405652e+001 -6.608801e+001 -7.698546e-002 -3.451669e+001
1190856250 -1.529170e+000 -8.838705e+001 -6.547797e+001 -4.592845e+001 -6.364626e+001 -6.835960e+001 -8.391067e-002 -3.509482e+001
1209600000 -1.546070e+000 -8.961328e+001 -6.626257e+001 -4.400341e+001 -6.379833e+001 -7.046339e+001 -9.153666e-002 -3.565006e+001
1228343750 -1.563960e+000 -9.084850e+001 -6.625318e+001 -5.115126e+001 -6.393071e+001 -6.793372e+001 -9.786473e-002 -3.620771e+001
1247087500 -1.580163e+000 -9.207747e+001 -6.643082e+001 -5.426881e+001 -6.389495e+001 -6.862010e+001 -1.036465e-001 -3.676685e+001
1265831250 -1.598247e+000 -9.330903e+001 -6.654980e+001 -6.380120e+001 -6.386882e+001 -6.743947e+001 -1.087274e-001 -3.730288e+001
1284575000 -1.616169e+000 -9.452509e+001 -6.662859e+001 -6.677413e+001 -6.390997e+001 -6.700711e+001 -1.125476e-001 -3.786306e+001
1303318750 -1.634037e+000 -9.573791e+001 -6.677583e+001 -6.665965e+001 -6.381950e+001 -6.908479e+001 -1.177203e-001 -3.841410e+001
1322062500 -1.651064e+000 -9.694596e+001 -6.654858e+001 -6.726179e+001 -6.395424e+001 -6.342593e+001 -1.203082e-001 -3.896469e+001
1340806250 -1.668880e+000 -9.814628e+001 -6.673336e+001 -6.618413e+001 -6.380016e+001 -5.646441e+001 -1.256087e-001 -3.953116e+001
1359550000 -1.686501e+000 -9.934062e+001 -6.576794e+001 -5.928893e+001 -6.418690e+001 -5.674838e+001 -1.286651e-001 -4.008575e+001
1378293750 -1.703825e+000 -1.005657e+002 -6.570703e+001 -5.755720e+001 -6.428191e+001 -5.560384e+001 -1.323100e-001 -4.064297e+001
1397037500 -1.722135e+000 -1.017733e+002 -6.584201e+001 -5.631457e+001 -6.426830e+001 -6.008707e+001 -1.338446e-001 -4.119724e+001
1415781250 -1.740580e+000 -1.029773e+002 -6.585494e+001 -5.498608e+001 -6.408286e+001 -5.848731e+001 -1.333671e-001 -4.174683e+001
1434525000 -1.759735e+000 -1.041677e+002 -6.582937e+001 -5.079438e+001 -6.430360e+001 -5.035604e+001 -1.331593e-001 -4.230370e+001
1453268750 -1.778258e+000 -1.053548e+002 -6.580434e+001 -4.807644e+001 -6.405144e+001 -4.603928e+001 -1.345768e-001 -4.285047e+001
1472012500 -1.795942e+000 -1.065378e+002 -6.626975e+001 -4.396587e+001 -6.443485e+001 -5.167264e+001 -1.353113e-001 -4.338683e+001
1490756250 -1.814406e+000 -1.077229e+002 -6.650639e+001 -4.667191e+001 -6.464005e+001 -5.229135e+001 -1.361351e-001 -4.394561e+001
1509500000 -1.831867e+000 -1.089151e+002 -6.640067e+001 -5.181728e+001 -6.382859e+001 -5.611555e+001 -1.350585e-001 -4.449302e+001
1528243750 -1.848691e+000 -1.101070e+002 -6.607421e+001 -5.127944e+001 -6.373255e+001 -5.557784e+001 -1.310020e-001 -4.505490e+001
1546987500 -1.865113e+000 -1.112801e+002 -6.641861e+001 -5.408858e+001 -6.358886e+001 -5.947852e+001 -1.269356e-001 -4.559805e+001
1565731250 -1.882817e+000 -1.124426e+002 -6.631541e+001 -5.154511e+001 -6.352830e+001 -5.778581e+001 -1.265875e-001 -4.614641e+001
1584475000 -1.900028e+000 -1.136178e+002 -6.676767e+001 -5.736042e+001 -6.277813e+001 -5.683598e+001 -1.279791e-001 -4.668715e+001
1603218750 -1.916155e+000 -1.147957e+002 -6.641537e+001 -5.415719e+001 -6.271347e+001 -5.532047e+001 -1.258197e-001 -4.721695e+001
1621962500 -1.935421e+000 -1.159686e+002 -6.590552e+001 -4.811191e+001 -6.254197e+001 -5.901245e+001 -1.225760e-001 -4.775256e+001
1640706250 -1.953632e+000 -1.171464e+002 -6.481006e+001 -4.886945e+001 -6.278065e+001 -6.078787e+001 -1.183656e-001 -4.828462e+001
1659450000 -1.971349e+000 -1.183010e+002 -6.482555e+001 -4.586935e+001 -6.287180e+001 -7.470824e+001 -1.132953e-001 -4.884066e+001
1678193750 -1.988458e+000 -1.194641e+002 -6.523297e+001 -4.900089e+001 -6.335877e+001 -8.346222e+001 -1.090875e-001 -4.938610e+001
1696937500 -2.004445e+000 -1.206048e+002 -6.461324e+001 -5.998127e+001 -6.322686e+001 -9.658114e+001 -1.071009e-001 -4.993888e+001
1715681250 -2.020645e+000 -1.217586e+002 -6.450711e+001 -7.584737e+001 -6.297650e+001 -1.135242e+002 -1.048624e-001 -5.047241e+001
1734425000 -2.035749e+000 -1.229198e+002 -6.448029e+001 -8.900963e+001 -6.314998e+001 -1.271803e+002 -1.005537e-001 -5.100204e+001
1753168750 -2.054317e+000 -1.240647e+002 -6.470570e+001 -1.006890e+002 -6.317874e+001 -1.434077e+002 -9.929571e-002 -5.153426e+001
1771912500 -2.074095e+000 -1.252252e+002 -6.480858e+001 -1.113426e+002 -6.321376e+001 -1.599933e+002 -9.519938e-002 -5.206696e+001
1790656250 -2.091537e+000 -1.263662e+002 -6.513960e+001 -1.260812e+002 -6.349396e+001 -1.721927e+002 -9.128375e-002 -5.260670e+001
1809400000 -2.107669e+000 -1.274769e+002 -6.537097e+001 -1.463434e+002 -6.328590e+001 1.702945e+002 -8.827061e-002 -5.314705e+001
1828143750 -2.122733e+000 -1.285932e+002 -6.524091e+001 -1.685361e+002 -6.356220e+001 1.633888e+002 -8.496065e-002 -5.368448e+001
1846887500 -2.137376e+000 -1.297124e+002 -6.536406e+001 1.727508e+002 -6.353889e+001 1.477987e+002 -8.461984e-002 -5.422356e+001
1865631250 -2.150316e+000 -1.308611e+002 -6.550842e+001 1.612568e+002 -6.301787e+001 1.290122e+002 -8.222823e-002 -5.474410e+001
1884375000 -2.167573e+000 -1.319916e+002 -6.568977e+001 1.509668e+002 -6.298092e+001 1.106704e+002 -8.018349e-002 -5.527918e+001
1903118750 -2.183965e+000 -1.331117e+002 -6.524751e+001 1.471155e+002 -6.319469e+001 1.021781e+002 -7.728356e-002 -5.582463e+001
1921862500 -2.200371e+000 -1.342140e+002 -6.524583e+001 1.558558e+002 -6.289987e+001 8.914242e+001 -7.575071e-002 -5.636251e+001
1940606250 -2.215872e+000 -1.353173e+002 -6.539018e+001 1.696265e+002 -6.308722e+001 7.326285e+001 -7.476003e-002 -5.691062e+001
1959350000 -2.231182e+000 -1.364165e+002 -6.545630e+001 1.718114e+002 -6.297926e+001 6.132280e+001 -7.824530e-002 -5.744339e+001
1978093750 -2.246830e+000 -1.375262e+002 -6.506359e+001 1.734501e+002 -6.317234e+001 4.970874e+001 -8.078104e-002 -5.798112e+001
1996837500 -2.263702e+000 -1.386462e+002 -6.548754e+001 1.765242e+002 -6.342080e+001 3.028248e+001 -8.078975e-002 -5.851434e+001
2015581250 -2.281418e+000 -1.397559e+002 -6.496517e+001 -1.796205e+002 -6.339220e+001 1.489758e+001 -8.142146e-002 -5.905349e+001
2034325000 -2.297956e+000 -1.408542e+002 -6.505346e+001 1.755246e+002 -6.361208e+001 2.287531e+000 -8.477727e-002 -5.959899e+001
2053068750 -2.311610e+000 -1.419616e+002 -6.499259e+001 1.726136e+002 -6.396877e+001 -1.405015e+001 -8.682046e-002 -6.014217e+001
2071812500 -2.327194e+000 -1.430611e+002 -6.556528e+001 1.706874e+002 -6.371302e+001 -2.830750e+001 -8.919085e-002 -6.069884e+001
2090556250 -2.342712e+000 -1.441502e+002 -6.542193e+001 1.678473e+002 -6.343972e+001 -3.681179e+001 -9.204971e-002 -6.124265e+001
2109300000 -2.359385e+000 -1.452426e+002 -6.491808e+001 1.725424e+002 -6.381066e+001 -4.391146e+001 -9.551397e-002 -6.178944e+001
2128043750 -2.376221e+000 -1.463521e+002 -6.508122e+001 -1.775737e+002 -6.409704e+001 -4.981686e+001 -9.788266e-002 -6.233027e+001
2146787500 -2.394161e+000 -1.474352e+002 -6.499814e+001 -1.612714e+002 -6.401257e+001 -4.943781e+001 -1.004869e-001 -6.288580e+001
2165531250 -2.410859e+000 -1.485108e+002 -6.486122e+001 -1.543500e+002 -6.425095e+001 -4.973859e+001 -1.045827e-001 -6.343686e+001
2184275000 -2.425538e+000 -1.496035e+002 -6.493493e+001 -1.436670e+002 -6.431004e+001 -5.313879e+001 -1.057818e-001 -6.398887e+001
2203018750 -2.437824e+000 -1.506715e+002 -6.515134e+001 -1.374227e+002 -6.422459e+001 -5.298952e+001 -1.100831e-001 -6.453179e+001
2221762500 -2.453115e+000 -1.517544e+002 -6.474562e+001 -1.271929e+002 -6.385916e+001 -5.561290e+001 -1.141652e-001 -6.506196e+001
2240506250 -2.467905e+000 -1.528281e+002 -6.462972e+001 -1.077865e+002 -6.417692e+001 -5.247229e+001 -1.180021e-001 -6.561000e+001
2259250000 -2.483921e+000 -1.539197e+002 -6.460679e+001 -8.869584e+001 -6.400433e+001 -5.753102e+001 -1.222508e-001 -6.615453e+001
2277993750 -2.499261e+000 -1.550088e+002 -6.438729e+001 -7.828525e+001 -6.387429e+001 -5.602546e+001 -1.254453e-001 -6.669559e+001
2296737500 -2.516757e+000 -1.560783e+002 -6.401138e+001 -6.938162e+001 -6.395440e+001 -6.066174e+001 -1.313149e-001 -6.724422e+001
2315481250 -2.530318e+000 -1.571405e+002 -6.405356e+001 -6.293900e+001 -6.397121e+001 -5.999693e+001 -1.346778e-001 -6.778674e+001
2334225000 -2.545124e+000 -1.582150e+002 -6.403981e+001 -6.312384e+001 -6.324937e+001 -6.481477e+001 -1.410069e-001 -6.832801e+001
2352968750 -2.560269e+000 -1.592733e+002 -6.354400e+001 -7.195127e+001 -6.358538e+001 -6.683002e+001 -1.456556e-001 -6.886668e+001
2371712500 -2.575847e+000 -1.603430e+002 -6.339289e+001 -8.563908e+001 -6.380693e+001 -6.413242e+001 -1.493584e-001 -6.939944e+001
2390456250 -2.589204e+000 -1.614016e+002 -6.380321e+001 -9.538015e+001 -6.411490e+001 -6.607478e+001 -1.517916e-001 -6.994058e+001
2409200000 -2.604912e+000 -1.624607e+002 -6.409232e+001 -9.627724e+001 -6.415119e+001 -6.848862e+001 -1.559812e-001 -7.048802e+001
2427943750 -2.618470e+000 -1.635159e+002 -6.407872e+001 -1.004710e+002 -6.384618e+001 -6.617548e+001 -1.611189e-001 -7.103892e+001
2446687500 -2.633111e+000 -1.645642e+002 -6.408926e+001 -9.806139e+001 -6.432069e+001 -5.872601e+001 -1.640552e-001 -7.158734e+001
2465431250 -2.646699e+000 -1.656127e+002 -6.389494e+001 -9.346337e+001 -6.404274e+001 -5.028974e+001 -1.652084e-001 -7.211197e+001
2484175000 -2.661118e+000 -1.666451e+002 -6.422939e+001 -9.485252e+001 -6.382903e+001 -3.438014e+001 -1.693972e-001 -7.266362e+001
2502918750 -2.676512e+000 -1.676895e+002 -6.376277e+001 -9.522427e+001 -6.353249e+001 -1.616427e+001 -1.728434e-001 -7.319405e+001
2521662500 -2.691483e+000 -1.687399e+002 -6.385152e+001 -9.043645e+001 -6.341949e+001 9.227142e-001 -1.755408e-001 -7.370850e+001
2540406250 -2.705886e+000 -1.697827e+002 -6.390033e+001 -9.322256e+001 -6.287995e+001 2.011465e+001 -1.804782e-001 -7.425397e+001
2559150000 -2.720399e+000 -1.708262e+002 -6.356124e+001 -9.139651e+001 -6.309214e+001 3.786886e+001 -1.844716e-001 -7.479358e+001
2577893750 -2.733394e+000 -1.718701e+002 -6.360413e+001 -9.648257e+001 -6.319947e+001 5.022672e+001 -1.893790e-001 -7.532040e+001
2596637500 -2.748655e+000 -1.729073e+002 -6.381299e+001 -9.076851e+001 -6.323248e+001 6.100576e+001 -1.927730e-001 -7.585698e+001
2615381250 -2.761852e+000 -1.739336e+002 -6.375211e+001 -8.823061e+001 -6.322993e+001 7.749765e+001 -1.961957e-001 -7.637125e+001
2634125000 -2.774564e+000 -1.749826e+002 -6.413415e+001 -7.568022e+001 -6.357607e+001 9.044197e+001 -1.986647e-001 -7.689548e+001
2652868750 -2.788743e+000 -1.760182e+002 -6.460816e+001 -6.512742e+001 -6.347226e+001 1.033831e+002 -2.040105e-001 -7.745345e+001
2671612500 -2.805507e+000 -1.770627e+002 -6.465723e+001 -5.141629e+001 -6.324443e+001 1.170682e+002 -2.071407e-001 -7.797619e+001
2690356250 -2.820694e+000 -1.780940e+002 -6.499019e+001 -3.763832e+001 -6.295599e+001 1.306368e+002 -2.099416e-001 -7.851828e+001
2709100000 -2.835896e+000 -1.791139e+002 -6.498473e+001 -1.642627e+001 -6.343366e+001 1.424754e+002 -2.126639e-001 -7.905547e+001
2727843750 -2.847560e+000 1.798557e+002 -6.536729e+001 4.574886e+000 -6.327380e+001 1.605194e+002 -2.152414e-001 -7.958055e+001
2746587500 -2.860894e+000 1.788143e+002 -6.535137e+001 1.775295e+001 -6.323438e+001 1.739337e+002 -2.200638e-001 -8.010872e+001
2765331250 -2.874479e+000 1.777750e+002 -6.515346e+001 3.242950e+001 -6.304078e+001 -1.729198e+002 -2.234299e-001 -8.063120e+001
2784075000 -2.888552e+000 1.767141e+002 -6.506041e+001 4.904261e+001 -6.278601e+001 -1.571426e+002 -2.272119e-001 -8.117838e+001
2802818750 -2.902689e+000 1.756824e+002 -6.499081e+001 6.906894e+001 -6.289576e+001 -1.514473e+002 -2.316284e-001 -8.170980e+001
2821562500 -2.916249e+000 1.746491e+002 -6.453520e+001 8.869955e+001 -6.332904e+001 -1.359606e+002 -2.354127e-001 -8.222955e+001
2840306250 -2.927920e+000 1.736199e+002 -6.427257e+001 1.042706e+002 -6.308670e+001 -1.226615e+002 -2.382736e-001 -8.275126e+001
2859050000 -2.940013e+000 1.725921e+002 -6.419455e+001 1.159406e+002 -6.320446e+001 -1.051380e+002 -2.421653e-001 -8.328317e+001
2877793750 -2.949205e+000 1.715525e+002 -6.436376e+001 1.293673e+002 -6.330946e+001 -9.670719e+001 -2.411321e-001 -8.380470e+001
2896537500 -2.962550e+000 1.705238e+002 -6.470938e+001 1.491008e+002 -6.327654e+001 -9.402522e+001 -2.475427e-001 -8.435881e+001
2915281250 -2.979275e+000 1.694864e+002 -6.430666e+001 1.676935e+002 -6.338432e+001 -9.115652e+001 -2.506118e-001 -8.490779e+001
2934025000 -2.990608e+000 1.684492e+002 -6.458581e+001 -1.758344e+002 -6.362467e+001 -9.039626e+001 -2.510182e-001 -8.543663e+001
2952768750 -3.002431e+000 1.674359e+002 -6.459347e+001 -1.648852e+002 -6.406326e+001 -9.210937e+001 -2.587800e-001 -8.597334e+001
2971512500 -3.016778e+000 1.663996e+002 -6.436459e+001 -1.459438e+002 -6.358121e+001 -9.729179e+001 -2.643911e-001 -8.652239e+001
2990256250 -3.025188e+000 1.653958e+002 -6.477090e+001 -1.322798e+002 -6.317456e+001 -9.950052e+001 -2.656618e-001 -8.704262e+001
3009000000 -3.038897e+000 1.643822e+002 -6.517336e+001 -1.171263e+002 -6.377311e+001 -9.289335e+001 -2.724555e-001 -8.757266e+001
3027743750 -3.052651e+000 1.633537e+002 -6.516723e+001 -1.049406e+002 -6.442995e+001 -8.394980e+001 -2.769943e-001 -8.813137e+001
3046487500 -3.062614e+000 1.623431e+002 -6.507066e+001 -9.328386e+001 -6.398941e+001 -8.436790e+001 -2.795004e-001 -8.867240e+001
3065231250 -3.078710e+000 1.613336e+002 -6.428108e+001 -8.883793e+001 -6.360932e+001 -8.533476e+001 -2.828663e-001 -8.920440e+001
3083975000 -3.088682e+000 1.602819e+002 -6.401598e+001 -8.543062e+001 -6.371049e+001 -8.477854e+001 -2.878444e-001 -8.973309e+001
3102718750 -3.093791e+000 1.592826e+002 -6.407764e+001 -8.945905e+001 -6.369255e+001 -8.805723e+001 -2.924966e-001 -9.024429e+001
3121462500 -3.108742e+000 1.582732e+002 -6.358868e+001 -9.020429e+001 -6.401517e+001 -8.700545e+001 -3.005973e-001 -9.078738e+001
3140206250 -3.118596e+000 1.572205e+002 -6.337795e+001 -9.130786e+001 -6.400162e+001 -8.993012e+001 -3.061919e-001 -9.131630e+001
3158950000 -3.128499e+000 1.562449e+002 -6.314175e+001 -9.814621e+001 -6.419616e+001 -8.969167e+001 -3.126150e-001 -9.183779e+001
3177693750 -3.146345e+000 1.552402e+002 -6.296371e+001 -1.007758e+002 -6.409907e+001 -8.799799e+001 -3.188211e-001 -9.239798e+001
3196437500 -3.156745e+000 1.541978e+002 -6.327940e+001 -1.075013e+002 -6.448380e+001 -9.075703e+001 -3.225121e-001 -9.292486e+001
3215181250 -3.161935e+000 1.532269e+002 -6.359671e+001 -1.223515e+002 -6.447525e+001 -9.155313e+001 -3.288767e-001 -9.342576e+001
3233925000 -3.177981e+000 1.522122e+002 -6.356430e+001 -1.444195e+002 -6.457632e+001 -8.636935e+001 -3.332789e-001 -9.401009e+001
3252668750 -3.188611e+000 1.511561e+002 -6.344921e+001 -1.578521e+002 -6.378566e+001 -9.035798e+001 -3.364272e-001 -9.453023e+001
3271412500 -3.195342e+000 1.501623e+002 -6.391272e+001 -1.751548e+002 -6.381007e+001 -8.762529e+001 -3.413789e-001 -9.504668e+001
3290156250 -3.213336e+000 1.491360e+002 -6.330530e+001 1.685486e+002 -6.360030e+001 -9.323502e+001 -3.450829e-001 -9.559467e+001
3308900000 -3.225259e+000 1.481001e+002 -6.386219e+001 1.446395e+002 -6.302272e+001 -9.258887e+001 -3.514622e-001 -9.608360e+001
3327643750 -3.232354e+000 1.471037e+002 -6.378690e+001 1.229449e+002 -6.344722e+001 -8.389761e+001 -3.563534e-001 -9.658974e+001
3346387500 -3.245495e+000 1.460955e+002 -6.379950e+001 1.068979e+002 -6.399302e+001 -7.429910e+001 -3.626044e-001 -9.712424e+001
3365131250 -3.254976e+000 1.450817e+002 -6.374073e+001 8.910062e+001 -6.421397e+001 -6.214777e+001 -3.684013e-001 -9.763291e+001
3383875000 -3.262744e+000 1.440817e+002 -6.443133e+001 7.931135e+001 -6.402709e+001 -4.759402e+001 -3.759787e-001 -9.816653e+001
3402618750 -3.275764e+000 1.430703e+002 -6.445257e+001 6.015450e+001 -6.424287e+001 -2.830210e+001 -3.790987e-001 -9.870102e+001
3421362500 -3.287110e+000 1.420549e+002 -6.447419e+001 4.652271e+001 -6.546040e+001 -2.019829e+000 -3.819471e-001 -9.920332e+001
3440106250 -3.296042e+000 1.410509e+002 -6.395400e+001 3.250611e+001 -6.514431e+001 1.947400e+001 -3.858856e-001 -9.972343e+001
3458850000 -3.309650e+000 1.400221e+002 -6.393239e+001 1.943365e+001 -6.423466e+001 4.311174e+001 -3.937390e-001 -1.002491e+002
3477593750 -3.318563e+000 1.390014e+002 -6.383598e+001 1.883580e+000 -6.450502e+001 6.900324e+001 -3.968784e-001 -1.007654e+002
3496337500 -3.326049e+000 1.380180e+002 -6.404519e+001 -1.623013e+001 -6.482243e+001 9.897526e+001 -4.073682e-001 -1.012911e+002
3515081250 -3.340622e+000 1.370146e+002 -6.397770e+001 -2.887264e+001 -6.497278e+001 1.238425e+002 -4.107356e-001 -1.018345e+002
3533825000 -3.349987e+000 1.360030e+002 -6.397168e+001 -3.842194e+001 -6.525864e+001 1.443510e+002 -4.114476e-001 -1.023642e+002
3552568750 -3.358821e+000 1.350111e+002 -6.499086e+001 -5.357227e+001 -6.519051e+001 1.668661e+002 -4.193000e-001 -1.028896e+002
3571312500 -3.371529e+000 1.339800e+002 -6.484590e+001 -6.931844e+001 -6.553559e+001 -1.696626e+002 -4.239853e-001 -1.034524e+002
3590056250 -3.383868e+000 1.329405e+002 -6.508907e+001 -8.522952e+001 -6.562231e+001 -1.581489e+002 -4.274154e-001 -1.039879e+002
3608800000 -3.387639e+000 1.319197e+002 -6.533832e+001 -1.043403e+002 -6.572125e+001 -1.476929e+002 -4.298230e-001 -1.044885e+002
3627543750 -3.396530e+000 1.309477e+002 -6.529495e+001 -1.161697e+002 -6.545601e+001 -1.260580e+002 -4.347889e-001 -1.050314e+002
3646287500 -3.410741e+000 1.299056e+002 -6.536891e+001 -1.191767e+002 -6.561639e+001 -1.124793e+002 -4.365549e-001 -1.055671e+002
3665031250 -3.413468e+000 1.289012e+002 -6.531124e+001 -1.174156e+002 -6.552946e+001 -9.825610e+001 -4.415079e-001 -1.060485e+002
3683775000 -3.420552e+000 1.279491e+002 -6.552237e+001 -1.200111e+002 -6.564902e+001 -8.095901e+001 -4.465394e-001 -1.065784e+002
3702518750 -3.437365e+000 1.269178e+002 -6.546436e+001 -1.177413e+002 -6.594870e+001 -6.932207e+001 -4.534875e-001 -1.071162e+002
3721262500 -3.435770e+000 1.258962e+002 -6.661250e+001 -1.239236e+002 -6.632676e+001 -5.516908e+001 -4.535381e-001 -1.076612e+002
3740006250 -3.443546e+000 1.249438e+002 -6.625966e+001 -1.241700e+002 -6.598338e+001 -4.290627e+001 -4.598641e-001 -1.081714e+002
3758750000 -3.458674e+000 1.238998e+002 -6.632265e+001 -1.254173e+002 -6.535179e+001 -3.769236e+001 -4.642584e-001 -1.087303e+002
3777493750 -3.457190e+000 1.228759e+002 -6.659187e+001 -1.334684e+002 -6.472166e+001 -4.045501e+001 -4.647826e-001 -1.092505e+002
3796237500 -3.466902e+000 1.219130e+002 -6.643423e+001 -1.344595e+002 -6.453883e+001 -3.962136e+001 -4.676943e-001 -1.097567e+002
3814981250 -3.479162e+000 1.208357e+002 -6.630392e+001 -1.407280e+002 -6.466843e+001 -3.407460e+001 -4.720875e-001 -1.102942e+002
3833725000 -3.476162e+000 1.198340e+002 -6.631338e+001 -1.387752e+002 -6.508659e+001 -3.574333e+001 -4.697891e-001 -1.108135e+002
3852468750 -3.487800e+000 1.188379e+002 -6.596909e+001 -1.361133e+002 -6.411026e+001 -4.468998e+001 -4.755724e-001 -1.113229e+002
3871212500 -3.496154e+000 1.177782e+002 -6.620027e+001 -1.384900e+002 -6.401990e+001 -5.853899e+001 -4.791643e-001 -1.118594e+002
3889956250 -3.491202e+000 1.167756e+002 -6.617554e+001 -1.387252e+002 -6.394360e+001 -7.756927e+001 -4.781027e-001 -1.123845e+002
3908700000 -3.504646e+000 1.157738e+002 -6.657288e+001 -1.334150e+002 -6.401572e+001 -1.005913e+002 -4.828541e-001 -1.128867e+002
3927443750 -3.513818e+000 1.146896e+002 -6.659664e+001 -1.264659e+002 -6.383450e+001 -1.322582e+002 -4.861678e-001 -1.134129e+002
3946187500 -3.510635e+000 1.136855e+002 -6.705865e+001 -1.265024e+002 -6.353409e+001 -1.575701e+002 -4.870479e-001 -1.139246e+002
3964931250 -3.526560e+000 1.126785e+002 -6.729538e+001 -1.342450e+002 -6.324310e+001 -1.783492e+002 -4.923475e-001 -1.144347e+002
3983675000 -3.528547e+000 1.115984e+002 -6.677805e+001 -1.371934e+002 -6.319244e+001 1.515408e+002 -4.934320e-001 -1.149411e+002
4002418750 -3.523819e+000 1.106310e+002 -6.707618e+001 -1.395536e+002 -6.272076e+001 1.338374e+002 -4.944420e-001 -1.154581e+002
4021162500 -3.534502e+000 1.096277e+002 -6.692915e+001 -1.437222e+002 -6.278446e+001 1.178692e+002 -4.987267e-001 -1.159532e+002
4039906250 -3.540455e+000 1.085706e+002 -6.694174e+001 -1.410746e+002 -6.304803e+001 1.014073e+002 -5.031347e-001 -1.164775e+002
4058650000 -3.539084e+000 1.075458e+002 -6.756607e+001 -1.390596e+002 -6.333387e+001 8.260796e+001 -5.057575e-001 -1.170139e+002
4077393750 -3.548756e+000 1.065524e+002 -6.747989e+001 -1.410348e+002 -6.317861e+001 7.242418e+001 -5.114745e-001 -1.175066e+002
4096137500 -3.553377e+000 1.054875e+002 -6.762788e+001 -1.461415e+002 -6.280727e+001 5.785261e+001 -5.138447e-001 -1.180374e+002
4114881250 -3.553106e+000 1.044599e+002 -6.761953e+001 -1.573033e+002 -6.316116e+001 3.940567e+001 -5.188473e-001 -1.185781e+002
4133625000 -3.558268e+000 1.034638e+002 -6.726153e+001 -1.638336e+002 -6.388824e+001 2.303609e+001 -5.214731e-001 -1.190675e+002
4152368750 -3.566060e+000 1.024191e+002 -6.652499e+001 -1.639462e+002 -6.389747e+001 1.172845e+001 -5.290630e-001 -1.195844e+002
4171112500 -3.566211e+000 1.013812e+002 -6.632005e+001 -1.616167e+002 -6.468435e+001 -9.602597e+000 -5.320660e-001 -1.201694e+002
4189856250 -3.571205e+000 1.003799e+002 -6.636263e+001 -1.655491e+002 -6.524744e+001 -2.741482e+001 -5.364636e-001 -1.206641e+002
4208600000 -3.576014e+000 9.932368e+001 -6.615958e+001 -1.622225e+002 -6.538873e+001 -3.816799e+001 -5.424848e-001 -1.211865e+002
4227343750 -3.575685e+000 9.828785e+001 -6.628970e+001 -1.629481e+002 -6.526808e+001 -5.575906e+001 -5.464825e-001 -1.217184e+002
4246087500 -3.579677e+000 9.729356e+001 -6.580784e+001 -1.647768e+002 -6.539375e+001 -8.131874e+001 -5.506513e-001 -1.222020e+002
4264831250 -3.583311e+000 9.624132e+001 -6.569209e+001 -1.672412e+002 -6.548258e+001 -1.075086e+002 -5.599861e-001 -1.227302e+002
4283575000 -3.581961e+000 9.521789e+001 -6.563341e+001 -1.722077e+002 -6.526036e+001 -1.377741e+002 -5.633994e-001 -1.232670e+002
4302318750 -3.583166e+000 9.421055e+001 -6.556064e+001 -1.727984e+002 -6.518198e+001 -1.657334e+002 -5.649242e-001 -1.237964e+002
4321062500 -3.589914e+000 9.318140e+001 -6.572385e+001 -1.752295e+002 -6.562341e+001 1.744343e+002 -5.702002e-001 -1.242893e+002
4339806250 -3.587735e+000 9.212653e+001 -6.558329e+001 1.788071e+002 -6.557364e+001 1.673893e+002 -5.782041e-001 -1.248478e+002
4358550000 -3.585382e+000 9.113243e+001 -6.564606e+001 1.709242e+002 -6.613808e+001 1.652791e+002 -5.791101e-001 -1.253775e+002
4377293750 -3.589345e+000 9.008861e+001 -6.543105e+001 1.637446e+002 -6.637556e+001 1.600179e+002 -5.865592e-001 -1.259237e+002
4396037500 -3.585048e+000 8.904530e+001 -6.515614e+001 1.673078e+002 -6.659614e+001 1.598396e+002 -5.904234e-001 -1.264430e+002
4414781250 -3.590742e+000 8.802426e+001 -6.489650e+001 1.690170e+002 -6.654182e+001 1.646491e+002 -5.955836e-001 -1.269648e+002
4433525000 -3.594516e+000 8.695811e+001 -6.467265e+001 1.705918e+002 -6.642740e+001 1.604434e+002 -6.017609e-001 -1.274909e+002
4452268750 -3.589447e+000 8.591416e+001 -6.451130e+001 1.689767e+002 -6.636471e+001 1.620746e+002 -6.048362e-001 -1.280220e+002
4471012500 -3.592568e+000 8.487033e+001 -6.429836e+001 1.663467e+002 -6.597629e+001 1.670713e+002 -6.129799e-001 -1.285312e+002
4489756250 -3.593934e+000 8.380866e+001 -6.336980e+001 1.633884e+002 -6.584261e+001 1.650864e+002 -6.185968e-001 -1.290662e+002
4508500000 -3.588395e+000 8.277551e+001 -6.354987e+001 1.625533e+002 -6.653471e+001 1.587126e+002 -6.221281e-001 -1.295831e+002
4527243750 -3.592270e+000 8.172942e+001 -6.335701e+001 1.669234e+002 -6.688924e+001 1.610586e+002 -6.305404e-001 -1.300919e+002
4545987500 -3.591398e+000 8.065646e+001 -6.389202e+001 -1.790695e+002 -6.661039e+001 1.635128e+002 -6.357828e-001 -1.306365e+002
4564731250 -3.588539e+000 7.961053e+001 -6.432756e+001 -1.738076e+002 -6.560050e+001 1.652022e+002 -6.374980e-001 -1.311737e+002
4583475000 -3.591593e+000 7.856155e+001 -6.430000e+001 -1.727899e+002 -6.559916e+001 1.620182e+002 -6.474052e-001 -1.316813e+002
4602218750 -3.594088e+000 7.749078e+001 -6.449070e+001 -1.710562e+002 -6.514373e+001 1.655978e+002 -6.539786e-001 -1.322014e+002
4620962500 -3.585730e+000 7.642201e+001 -6.434466e+001 -1.718789e+002 -6.456969e+001 1.661771e+002 -6.559024e-001 -1.327307e+002
4639706250 -3.586191e+000 7.540208e+001 -6.426210e+001 -1.712335e+002 -6.477515e+001 1.593531e+002 -6.613379e-001 -1.332268e+002
4658450000 -3.585900e+000 7.431196e+001 -6.443343e+001 -1.712896e+002 -6.453411e+001 1.575482e+002 -6.712863e-001 -1.337754e+002
4677193750 -3.581818e+000 7.327039e+001 -6.496352e+001 -1.717862e+002 -6.436911e+001 1.573158e+002 -6.705452e-001 -1.343038e+002
4695937500 -3.586590e+000 7.221987e+001 -6.521753e+001 -1.720011e+002 -6.416930e+001 1.615480e+002 -6.807289e-001 -1.348126e+002
4714681250 -3.579093e+000 7.112392e+001 -6.515842e+001 -1.740162e+002 -6.434919e+001 1.727314e+002 -6.879265e-001 -1.353650e+002
4733425000 -3.578898e+000 7.006976e+001 -6.517189e+001 -1.744188e+002 -6.422339e+001 -1.744618e+002 -6.943382e-001 -1.358659e+002
4752168750 -3.579390e+000 6.899441e+001 -6.490710e+001 -1.728099e+002 -6.377628e+001 -1.691911e+002 -7.055509e-001 -1.364121e+002
4770912500 -3.572770e+000 6.793044e+001 -6.477831e+001 -1.737358e+002 -6.375896e+001 -1.719350e+002 -7.071774e-001 -1.369356e+002
4789656250 -3.574151e+000 6.685769e+001 -6.488549e+001 -1.711671e+002 -6.378316e+001 -1.680620e+002 -7.117208e-001 -1.374318e+002
4808400000 -3.573174e+000 6.580569e+001 -6.457651e+001 -1.724609e+002 -6.358378e+001 -1.692895e+002 -7.226762e-001 -1.379374e+002
4827143750 -3.566078e+000 6.472190e+001 -6.462327e+001 -1.741817e+002 -6.402699e+001 -1.709723e+002 -7.264214e-001 -1.384951e+002
4845887500 -3.558026e+000 6.367973e+001 -6.482439e+001 -1.756906e+002 -6.400598e+001 -1.722510e+002 -7.312815e-001 -1.389962e+002
4864631250 -3.558496e+000 6.263937e+001 -6.527636e+001 -1.795911e+002 -6.392131e+001 -1.751744e+002 -7.414793e-001 -1.394992e+002
4883375000 -3.553852e+000 6.155056e+001 -6.541801e+001 -1.755645e+002 -6.377005e+001 -1.766689e+002 -7.434252e-001 -1.400474e+002
4902118750 -3.547134e+000 6.050128e+001 -6.564597e+001 -1.754785e+002 -6.421603e+001 1.734182e+002 -7.466915e-001 -1.405637e+002
4920862500 -3.545728e+000 5.944608e+001 -6.616519e+001 -1.738785e+002 -6.420923e+001 1.717910e+002 -7.566218e-001 -1.410859e+002
4939606250 -3.537660e+000 5.833941e+001 -6.591689e+001 -1.719135e+002 -6.347832e+001 1.706752e+002 -7.573711e-001 -1.416501e+002
4958350000 -3.529917e+000 5.729472e+001 -6.749092e+001 -1.744483e+002 -6.339509e+001 1.633854e+002 -7.624807e-001 -1.421584e+002
4977093750 -3.528773e+000 5.624950e+001 -6.702032e+001 1.792282e+002 -6.342278e+001 1.636439e+002 -7.704581e-001 -1.426720e+002
4995837500 -3.521461e+000 5.514952e+001 -6.647755e+001 1.747342e+002 -6.345182e+001 1.571618e+002 -7.715423e-001 -1.432240e+002
5014581250 -3.512395e+000 5.410064e+001 -6.644167e+001 1.749521e+002 -6.340479e+001 1.599179e+002 -7.764014e-001 -1.437051e+002
5033325000 -3.502517e+000 5.302914e+001 -6.638663e+001 1.745229e+002 -6.358925e+001 1.585214e+002 -7.847996e-001 -1.442478e+002
5052068750 -3.495340e+000 5.194746e+001 -6.631583e+001 1.767140e+002 -6.459383e+001 1.634847e+002 -7.876562e-001 -1.447680e+002
5070812500 -3.491447e+000 5.086768e+001 -6.629917e+001 1.752726e+002 -6.414121e+001 1.679415e+002 -7.956774e-001 -1.452820e+002
5089556250 -3.482534e+000 4.978732e+001 -6.599885e+001 1.731367e+002 -6.439253e+001 1.664161e+002 -8.024324e-001 -1.458314e+002
5108300000 -3.473916e+000 4.870140e+001 -6.552441e+001 1.685769e+002 -6.430131e+001 1.646346e+002 -8.073848e-001 -1.463609e+002
5127043750 -3.465366e+000 4.761513e+001 -6.543801e+001 1.642720e+002 -6.389647e+001 1.649357e+002 -8.121802e-001 -1.468538e+002
5145787500 -3.462493e+000 4.654435e+001 -6.568585e+001 1.624410e+002 -6.385747e+001 1.613505e+002 -8.199834e-001 -1.473875e+002
5164531250 -3.451389e+000 4.546183e+001 -6.581553e+001 1.573165e+002 -6.409685e+001 1.593758e+002 -8.233869e-001 -1.479159e+002
5183275000 -3.442067e+000 4.439499e+001 -6.593687e+001 1.526102e+002 -6.428246e+001 1.578738e+002 -8.267958e-001 -1.484170e+002
5202018750 -3.436557e+000 4.331354e+001 -6.620294e+001 1.578330e+002 -6.400070e+001 1.590753e+002 -8.356906e-001 -1.489496e+002
5220762500 -3.424218e+000 4.224219e+001 -6.571412e+001 1.553753e+002 -6.395277e+001 1.529499e+002 -8.409059e-001 -1.494852e+002
5239506250 -3.415742e+000 4.115517e+001 -6.590981e+001 1.575310e+002 -6.408284e+001 1.485322e+002 -8.454347e-001 -1.499928e+002
5258250000 -3.408139e+000 4.006165e+001 -6.578461e+001 1.552024e+002 -6.354922e+001 1.476585e+002 -8.545599e-001 -1.505256e+002
5276993750 -3.398215e+000 3.897350e+001 -6.553361e+001 1.543323e+002 -6.400266e+001 1.458461e+002 -8.574604e-001 -1.510674e+002
5295737500 -3.387960e+000 3.790201e+001 -6.538748e+001 1.572160e+002 -6.413829e+001 1.486558e+002 -8.627869e-001 -1.515811e+002
5314481250 -3.375978e+000 3.680886e+001 -6.556702e+001 1.547385e+002 -6.477593e+001 1.543592e+002 -8.702121e-001 -1.521045e+002
5333225000 -3.366008e+000 3.572611e+001 -6.556969e+001 1.523656e+002 -6.498165e+001 1.691396e+002 -8.748425e-001 -1.526265e+002
5351968750 -3.356338e+000 3.464441e+001 -6.538851e+001 1.474919e+002 -6.487289e+001 -1.738994e+002 -8.815131e-001 -1.531282e+002
5370712500 -3.348580e+000 3.354605e+001 -6.574686e+001 1.377042e+002 -6.503605e+001 -1.597989e+002 -8.893529e-001 -1.536582e+002
5389456250 -3.334875e+000 3.246423e+001 -6.457597e+001 1.354820e+002 -6.489131e+001 -1.431886e+002 -8.949435e-001 -1.541892e+002
5408200000 -3.326599e+000 3.138567e+001 -6.449560e+001 1.344162e+002 -6.495393e+001 -1.313914e+002 -9.013699e-001 -1.547006e+002
5426943750 -3.315066e+000 3.027474e+001 -6.473289e+001 1.321476e+002 -6.517081e+001 -1.162395e+002 -9.104174e-001 -1.552210e+002
5445687500 -3.302697e+000 2.918492e+001 -6.463577e+001 1.309001e+002 -6.504002e+001 -1.105372e+002 -9.141843e-001 -1.557403e+002
5464431250 -3.293698e+000 2.810209e+001 -6.450277e+001 1.267594e+002 -6.564910e+001 -1.042086e+002 -9.215775e-001 -1.562437e+002
5483175000 -3.285204e+000 2.699391e+001 -6.489863e+001 1.213351e+002 -6.507240e+001 -1.058471e+002 -9.283783e-001 -1.567776e+002
5501918750 -3.269601e+000 2.590980e+001 -6.484791e+001 1.226860e+002 -6.566129e+001 -1.014122e+002 -9.318697e-001 -1.572920e+002
5520662500 -3.262576e+000 2.483103e+001 -6.510607e+001 1.188618e+002 -6.554011e+001 -1.009649e+002 -9.370053e-001 -1.577883e+002
5539406250 -3.250982e+000 2.372367e+001 -6.497736e+001 1.215622e+002 -6.531741e+001 -9.589456e+001 -9.441243e-001 -1.583163e+002
5558150000 -3.236646e+000 2.263971e+001 -6.528036e+001 1.239096e+002 -6.541613e+001 -9.805877e+001 -9.483088e-001 -1.588197e+002
5576893750 -3.226060e+000 2.153696e+001 -6.554630e+001 1.224777e+002 -6.572539e+001 -9.652508e+001 -9.548334e-001 -1.593310e+002
5595637500 -3.214370e+000 2.042423e+001 -6.571912e+001 1.225282e+002 -6.578344e+001 -8.944130e+001 -9.625990e-001 -1.598579e+002
5614381250 -3.198276e+000 1.932487e+001 -6.543428e+001 1.190617e+002 -6.607433e+001 -8.513895e+001 -9.674773e-001 -1.603784e+002
5633125000 -3.189118e+000 1.822103e+001 -6.498080e+001 1.128657e+002 -6.627528e+001 -8.383617e+001 -9.746382e-001 -1.608974e+002
5651868750 -3.175332e+000 1.710161e+001 -6.516152e+001 1.130300e+002 -6.601514e+001 -8.808709e+001 -9.800709e-001 -1.614182e+002
5670612500 -3.160568e+000 1.601292e+001 -6.522820e+001 1.091064e+002 -6.617783e+001 -8.471581e+001 -9.841079e-001 -1.619129e+002
5689356250 -3.151915e+000 1.490891e+001 -6.538934e+001 1.064376e+002 -6.599693e+001 -8.575858e+001 -9.915389e-001 -1.624180e+002
5708100000 -3.136565e+000 1.379052e+001 -6.541792e+001 1.015529e+002 -6.559626e+001 -9.229926e+001 -9.990934e-001 -1.629354e+002
5726843750 -3.121825e+000 1.267608e+001 -6.518525e+001 9.422836e+001 -6.581419e+001 -9.988190e+001 -1.003609e+000 -1.634496e+002
5745587500 -3.115192e+000 1.158324e+001 -6.522125e+001 9.174775e+001 -6.552200e+001 -1.111280e+002 -1.012766e+000 -1.639597e+002
5764331250 -3.098616e+000 1.047831e+001 -6.501741e+001 8.930466e+001 -6.478279e+001 -1.215173e+002 -1.019441e+000 -1.644830e+002
5783075000 -3.084666e+000 9.369401e+000 -6.486368e+001 9.155421e+001 -6.527028e+001 -1.406229e+002 -1.022491e+000 -1.649814e+002
5801818750 -3.070452e+000 8.261733e+000 -6.457343e+001 9.704954e+001 -6.519640e+001 -1.550657e+002 -1.033792e+000 -1.654854e+002
5820562500 -3.057201e+000 7.156172e+000 -6.402419e+001 9.822355e+001 -6.510755e+001 -1.745225e+002 -1.038363e+000 -1.660010e+002
5839306250 -3.043060e+000 6.022880e+000 -6.399674e+001 9.707928e+001 -6.503558e+001 1.683194e+002 -1.041464e+000 -1.665126e+002
5858050000 -3.028004e+000 4.919771e+000 -6.402998e+001 9.377962e+001 -6.521963e+001 1.509458e+002 -1.049814e+000 -1.670213e+002
5876793750 -3.016302e+000 3.847747e+000 -6.407862e+001 9.282620e+001 -6.526357e+001 1.389593e+002 -1.054934e+000 -1.675452e+002
5895537500 -3.006929e+000 2.697613e+000 -6.421289e+001 9.052251e+001 -6.456323e+001 1.293978e+002 -1.060158e+000 -1.680433e+002
5914281250 -2.987737e+000 1.582773e+000 -6.411549e+001 9.488396e+001 -6.455486e+001 1.213945e+002 -1.070489e+000 -1.685577e+002
5933025000 -2.975747e+000 5.072300e-001 -6.455020e+001 8.926244e+001 -6.427695e+001 1.076049e+002 -1.077518e+000 -1.690855e+002
5951768750 -2.960268e+000 -6.460056e-001 -6.450047e+001 8.865588e+001 -6.490849e+001 1.039886e+002 -1.083462e+000 -1.696018e+002
5970512500 -2.941448e+000 -1.769501e+000 -6.459099e+001 9.025527e+001 -6.518414e+001 1.001307e+002 -1.090681e+000 -1.701163e+002
5989256250 -2.930825e+000 -2.849099e+000 -6.493780e+001 9.882268e+001 -6.522810e+001 1.008979e+002 -1.093930e+000 -1.706342e+002
6008000000 -2.916425e+000 -4.004948e+000 -6.448380e+001 1.114321e+002 -6.543587e+001 9.574869e+001 -1.101453e+000 -1.711361e+002
6026743750 -2.898116e+000 -5.127698e+000 -6.476646e+001 1.266487e+002 -6.507323e+001 8.185355e+001 -1.107559e+000 -1.716552e+002
6045487500 -2.890088e+000 -6.207485e+000 -6.503625e+001 1.443841e+002 -6.479163e+001 7.363744e+001 -1.113533e+000 -1.721586e+002
6064231250 -2.872350e+000 -7.355679e+000 -6.517494e+001 1.553041e+002 -6.461053e+001 6.423769e+001 -1.120857e+000 -1.726635e+002
6082975000 -2.857123e+000 -8.467589e+000 -6.567280e+001 1.724191e+002 -6.497052e+001 6.886256e+001 -1.129094e+000 -1.731843e+002
6101718750 -2.846420e+000 -9.560179e+000 -6.561559e+001 -1.576288e+002 -6.479028e+001 6.517497e+001 -1.132433e+000 -1.737003e+002
6120462500 -2.829397e+000 -1.072904e+001 -6.565956e+001 -1.344561e+002 -6.529474e+001 6.025199e+001 -1.142018e+000 -1.742066e+002
6139206250 -2.814920e+000 -1.182373e+001 -6.583007e+001 -1.084196e+002 -6.549922e+001 6.399326e+001 -1.147684e+000 -1.747413e+002
6157950000 -2.805483e+000 -1.292136e+001 -6.580051e+001 -8.051186e+001 -6.533668e+001 6.015820e+001 -1.154907e+000 -1.752531e+002
6176693750 -2.784359e+000 -1.410438e+001 -6.557414e+001 -5.152283e+001 -6.497148e+001 6.178411e+001 -1.164642e+000 -1.757666e+002
6195437500 -2.771599e+000 -1.521316e+001 -6.562575e+001 -2.381600e+001 -6.517520e+001 5.743622e+001 -1.171037e+000 -1.762906e+002
6214181250 -2.758794e+000 -1.635203e+001 -6.551133e+001 1.100831e+000 -6.499832e+001 5.333504e+001 -1.176595e+000 -1.768051e+002
6232925000 -2.744236e+000 -1.748197e+001 -6.535664e+001 2.830116e+001 -6.529787e+001 4.206219e+001 -1.182095e+000 -1.773197e+002
6251668750 -2.729631e+000 -1.860260e+001 -6.576463e+001 5.393939e+001 -6.534644e+001 4.082900e+001 -1.189579e+000 -1.778510e+002
6270412500 -2.720179e+000 -1.973340e+001 -6.641529e+001 8.562432e+001 -6.523474e+001 3.565992e+001 -1.195439e+000 -1.783480e+002
6289156250 -2.702349e+000 -2.089795e+001 -6.634348e+001 1.154051e+002 -6.486653e+001 3.533197e+001 -1.206014e+000 -1.788798e+002
6307900000 -2.686884e+000 -2.200645e+001 -6.656323e+001 1.455531e+002 -6.469564e+001 3.257119e+001 -1.210253e+000 -1.794324e+002
6326643750 -2.674809e+000 -2.312400e+001 -6.678469e+001 1.734134e+002 -6.492455e+001 3.021904e+001 -1.213134e+000 -1.799344e+002
6345387500 -2.662175e+000 -2.427823e+001 -6.651849e+001 -1.639905e+002 -6.483616e+001 2.918411e+001 -1.222938e+000 1.795331e+002
6364131250 -2.645451e+000 -2.538214e+001 -6.634507e+001 -1.314276e+002 -6.475916e+001 3.244321e+001 -1.228595e+000 1.789989e+002
6382875000 -2.636610e+000 -2.648998e+001 -6.640459e+001 -1.027676e+002 -6.484727e+001 2.688426e+001 -1.235583e+000 1.785036e+002
6401618750 -2.622384e+000 -2.763843e+001 -6.741462e+001 -8.262452e+001 -6.480788e+001 2.730681e+001 -1.248059e+000 1.779601e+002
6420362500 -2.604727e+000 -2.874400e+001 -6.729839e+001 -7.719608e+001 -6.503587e+001 2.664360e+001 -1.253300e+000 1.774181e+002
6439106250 -2.595498e+000 -2.987087e+001 -6.747099e+001 -6.624507e+001 -6.472733e+001 2.658130e+001 -1.258734e+000 1.769184e+002
6457850000 -2.582078e+000 -3.101836e+001 -6.684850e+001 -5.013803e+001 -6.502243e+001 2.246003e+001 -1.273387e+000 1.763844e+002
6476593750 -2.562605e+000 -3.214015e+001 -6.726059e+001 -3.273216e+001 -6.492175e+001 2.181783e+001 -1.276659e+000 1.758408e+002
6495337500 -2.554916e+000 -3.326335e+001 -6.726549e+001 -1.693376e+001 -6.516719e+001 2.327837e+001 -1.282532e+000 1.753298e+002
6514081250 -2.538719e+000 -3.440740e+001 -6.673228e+001 -7.964575e+000 -6.471131e+001 1.771938e+001 -1.294551e+000 1.747845e+002
6532825000 -2.524544e+000 -3.553613e+001 -6.682163e+001 1.959647e-001 -6.457238e+001 1.990113e+001 -1.298724e+000 1.742372e+002
6551568750 -2.514096e+000 -3.666068e+001 -6.675513e+001 6.123327e+000 -6.453869e+001 2.586326e+001 -1.305644e+000 1.737243e+002
6570312500 -2.497556e+000 -3.782097e+001 -6.655891e+001 1.382662e+001 -6.458903e+001 2.740158e+001 -1.317612e+000 1.731790e+002
6589056250 -2.482571e+000 -3.895955e+001 -6.669677e+001 1.404879e+001 -6.503165e+001 3.430721e+001 -1.319487e+000 1.726407e+002
6607800000 -2.471745e+000 -4.007250e+001 -6.675668e+001 1.353028e+001 -6.579329e+001 2.712078e+001 -1.326334e+000 1.721251e+002
6626543750 -2.455333e+000 -4.120507e+001 -6.670132e+001 1.469409e+001 -6.585416e+001 2.508238e+001 -1.335566e+000 1.715555e+002
6645287500 -2.447325e+000 -4.231640e+001 -6.671851e+001 1.279902e+001 -6.596028e+001 3.020061e+001 -1.338946e+000 1.710205e+002
6664031250 -2.433242e+000 -4.349781e+001 -6.668280e+001 1.251894e+001 -6.618125e+001 3.567976e+001 -1.349903e+000 1.705044e+002
6682775000 -2.419753e+000 -4.462271e+001 -6.632993e+001 1.522040e+001 -6.641533e+001 3.769631e+001 -1.359108e+000 1.699331e+002
6701518750 -2.406672e+000 -4.574095e+001 -6.574950e+001 1.318167e+001 -6.665906e+001 3.979486e+001 -1.364895e+000 1.693883e+002
6720262500 -2.395893e+000 -4.687663e+001 -6.600330e+001 1.744291e+001 -6.668221e+001 4.185860e+001 -1.371951e+000 1.688740e+002
6739006250 -2.381321e+000 -4.803594e+001 -6.594099e+001 1.346337e+001 -6.713281e+001 4.118381e+001 -1.384292e+000 1.683183e+002
6757750000 -2.370774e+000 -4.915863e+001 -6.551991e+001 1.621817e+001 -6.692575e+001 3.621386e+001 -1.389918e+000 1.677742e+002
6776493750 -2.357815e+000 -5.030502e+001 -6.585308e+001 2.316376e+001 -6.728888e+001 2.283281e+001 -1.399183e+000 1.672500e+002
6795237500 -2.345446e+000 -5.146975e+001 -6.567654e+001 2.212596e+001 -6.712171e+001 1.604290e+001 -1.406836e+000 1.666714e+002
6813981250 -2.333652e+000 -5.262003e+001 -6.539637e+001 2.385297e+001 -6.687335e+001 1.323783e+001 -1.409955e+000 1.661358e+002
6832725000 -2.321537e+000 -5.376473e+001 -6.453360e+001 2.910601e+001 -6.677625e+001 8.884718e+000 -1.417308e+000 1.656004e+002
6851468750 -2.312270e+000 -5.490591e+001 -6.410912e+001 4.094657e+001 -6.664292e+001 7.390168e+000 -1.426276e+000 1.650303e+002
6870212500 -2.304298e+000 -5.604673e+001 -6.399913e+001 4.427548e+001 -6.662418e+001 5.812037e+000 -1.430487e+000 1.644961e+002
6888956250 -2.292235e+000 -5.720310e+001 -6.440989e+001 4.590359e+001 -6.646619e+001 1.100412e+001 -1.437968e+000 1.639514e+002
6907700000 -2.282562e+000 -5.835178e+001 -6.413708e+001 4.220543e+001 -6.624579e+001 9.614441e+000 -1.447175e+000 1.633665e+002
6926443750 -2.272903e+000 -5.950832e+001 -6.429563e+001 4.441080e+001 -6.687526e+001 1.179958e+001 -1.450353e+000 1.628264e+002
6945187500 -2.263682e+000 -6.067636e+001 -6.432919e+001 4.378440e+001 -6.693520e+001 1.358893e+001 -1.459534e+000 1.622655e+002
6963931250 -2.254520e+000 -6.183062e+001 -6.417826e+001 3.476181e+001 -6.683736e+001 1.007382e+001 -1.467094e+000 1.617028e+002
6982675000 -2.248770e+000 -6.298371e+001 -6.431007e+001 3.908895e+001 -6.697612e+001 -5.263090e+000 -1.469662e+000 1.611539e+002
7001418750 -2.240504e+000 -6.415368e+001 -6.433512e+001 3.661711e+001 -6.708739e+001 -2.402414e+001 -1.482202e+000 1.606121e+002
7020162500 -2.230273e+000 -6.531920e+001 -6.436958e+001 3.389994e+001 -6.777010e+001 -4.601503e+001 -1.489973e+000 1.600507e+002
7038906250 -2.225308e+000 -6.648323e+001 -6.463383e+001 3.351395e+001 -6.735983e+001 -5.917473e+001 -1.492260e+000 1.594997e+002
7057650000 -2.217302e+000 -6.765223e+001 -6.459466e+001 3.214371e+001 -6.735664e+001 -7.770065e+001 -1.505892e+000 1.589598e+002
7076393750 -2.208155e+000 -6.882422e+001 -6.493376e+001 3.102371e+001 -6.738843e+001 -9.853015e+001 -1.511867e+000 1.583921e+002
7095137500 -2.203802e+000 -6.997379e+001 -6.505949e+001 3.065565e+001 -6.690654e+001 -1.174840e+002 -1.515200e+000 1.578316e+002
7113881250 -2.195196e+000 -7.115156e+001 -6.511341e+001 2.904889e+001 -6.674627e+001 -1.356427e+002 -1.528650e+000 1.572904e+002
7132625000 -2.186223e+000 -7.234377e+001 -6.524303e+001 2.491680e+001 -6.690150e+001 -1.511988e+002 -1.531880e+000 1.567233e+002
7151368750 -2.180897e+000 -7.348855e+001 -6.503486e+001 1.928978e+001 -6.698886e+001 -1.719962e+002 -1.539759e+000 1.561773e+002
7170112500 -2.173733e+000 -7.465732e+001 -6.493526e+001 1.799710e+001 -6.695156e+001 1.723842e+002 -1.550864e+000 1.556346e+002
7188856250 -2.166784e+000 -7.584803e+001 -6.539984e+001 1.571075e+001 -6.715610e+001 1.566803e+002 -1.556754e+000 1.550525e+002
7207600000 -2.163384e+000 -7.699015e+001 -6.537123e+001 1.318245e+001 -6.724246e+001 1.478805e+002 -1.561321e+000 1.545169e+002
7226343750 -2.159909e+000 -7.818378e+001 -6.530014e+001 1.159716e+001 -6.721883e+001 1.390098e+002 -1.573124e+000 1.539708e+002
7245087500 -2.154998e+000 -7.935677e+001 -6.579375e+001 1.156788e+001 -6.681741e+001 1.291402e+002 -1.578923e+000 1.533920e+002
7263831250 -2.150108e+000 -8.051519e+001 -6.539021e+001 8.276379e+000 -6.688035e+001 1.119520e+002 -1.586693e+000 1.528514e+002
7282575000 -2.144652e+000 -8.171350e+001 -6.534343e+001 4.547921e+000 -6.669562e+001 9.521877e+001 -1.598641e+000 1.522816e+002
7301318750 -2.139191e+000 -8.289581e+001 -6.563171e+001 3.959394e+000 -6.618183e+001 8.013137e+001 -1.603699e+000 1.516955e+002
7320062500 -2.135607e+000 -8.406663e+001 -6.552869e+001 8.001950e-001 -6.595493e+001 6.199351e+001 -1.612116e+000 1.511525e+002
7338806250 -2.132825e+000 -8.525995e+001 -6.533699e+001 -1.583673e+000 -6.627592e+001 4.394795e+001 -1.621880e+000 1.505861e+002
7357550000 -2.130213e+000 -8.644154e+001 -6.541240e+001 -7.012131e+000 -6.557314e+001 2.782447e+001 -1.628884e+000 1.500213e+002
7376293750 -2.126213e+000 -8.761039e+001 -6.540421e+001 -1.427185e+001 -6.531493e+001 9.774100e+000 -1.639944e+000 1.495048e+002
7395037500 -2.123941e+000 -8.883362e+001 -6.509291e+001 -1.507112e+001 -6.541141e+001 -7.914541e+000 -1.652114e+000 1.489604e+002
7413781250 -2.118148e+000 -8.999631e+001 -6.507104e+001 -2.098269e+001 -6.513801e+001 -1.566093e+001 -1.663769e+000 1.483666e+002
7432525000 -2.120721e+000 -9.117018e+001 -6.516986e+001 -2.346333e+001 -6.482299e+001 -1.921975e+001 -1.662930e+000 1.478195e+002
7451268750 -2.119719e+000 -9.238910e+001 -6.496771e+001 -2.136989e+001 -6.355109e+001 -1.920015e+001 -1.674868e+000 1.472620e+002
7470012500 -2.111364e+000 -9.356505e+001 -6.466643e+001 -2.409354e+001 -6.330721e+001 -2.048173e+001 -1.684319e+000 1.466964e+002
7488756250 -2.118710e+000 -9.473703e+001 -6.482336e+001 -2.670058e+001 -6.362269e+001 -1.854703e+001 -1.690805e+000 1.461527e+002
7507500000 -2.116453e+000 -9.596070e+001 -6.452849e+001 -2.738629e+001 -6.340007e+001 -1.803131e+001 -1.703686e+000 1.455651e+002
7526243750 -2.113279e+000 -9.713601e+001 -6.516115e+001 -2.904705e+001 -6.337074e+001 -1.905048e+001 -1.709966e+000 1.450078e+002
7544987500 -2.122010e+000 -9.834102e+001 -6.518742e+001 -3.305453e+001 -6.327570e+001 -1.960618e+001 -1.715725e+000 1.444637e+002
7563731250 -2.120526e+000 -9.957125e+001 -6.502306e+001 -3.309042e+001 -6.307324e+001 -2.500962e+001 -1.728252e+000 1.438639e+002
7582475000 -2.121029e+000 -1.007722e+002 -6.529390e+001 -3.629166e+001 -6.333038e+001 -2.708441e+001 -1.731823e+000 1.432933e+002
7601218750 -2.130870e+000 -1.019816e+002 -6.524687e+001 -3.258482e+001 -6.307874e+001 -2.832898e+001 -1.739875e+000 1.427479e+002
7619962500 -2.127676e+000 -1.032085e+002 -6.455136e+001 -3.579232e+001 -6.276382e+001 -2.979592e+001 -1.751912e+000 1.421688e+002
7638706250 -2.131096e+000 -1.044133e+002 -6.415781e+001 -4.225655e+001 -6.228930e+001 -2.922361e+001 -1.754198e+000 1.415936e+002
7657450000 -2.140487e+000 -1.056326e+002 -6.429176e+001 -4.386661e+001 -6.262498e+001 -3.721637e+001 -1.765975e+000 1.410565e+002
7676193750 -2.138507e+000 -1.068801e+002 -6.387912e+001 -5.005460e+001 -6.250207e+001 -4.025851e+001 -1.776679e+000 1.404513e+002
7694937500 -2.144883e+000 -1.080816e+002 -6.421115e+001 -5.170187e+001 -6.232657e+001 -4.144030e+001 -1.779413e+000 1.398914e+002
7713681250 -2.155380e+000 -1.093138e+002 -6.434652e+001 -5.151064e+001 -6.264695e+001 -4.709228e+001 -1.791091e+000 1.393517e+002
7732425000 -2.155636e+000 -1.105610e+002 -6.389967e+001 -5.360712e+001 -6.304331e+001 -5.135849e+001 -1.800318e+000 1.387458e+002
7751168750 -2.165359e+000 -1.117440e+002 -6.371606e+001 -5.587823e+001 -6.338166e+001 -5.020407e+001 -1.801032e+000 1.381868e+002
7769912500 -2.176408e+000 -1.129922e+002 -6.380119e+001 -5.990811e+001 -6.347804e+001 -5.241832e+001 -1.814955e+000 1.376509e+002
7788656250 -2.179685e+000 -1.142478e+002 -6.353783e+001 -6.202840e+001 -6.382235e+001 -6.217628e+001 -1.821935e+000 1.370398e+002
7807400000 -2.191476e+000 -1.154401e+002 -6.336104e+001 -6.279974e+001 -6.392605e+001 -6.573092e+001 -1.822340e+000 1.364800e+002
7826143750 -2.202394e+000 -1.166657e+002 -6.357119e+001 -6.421770e+001 -6.390300e+001 -6.833248e+001 -1.836125e+000 1.358900e+002
7844887500 -2.211868e+000 -1.179431e+002 -6.347501e+001 -7.189854e+001 -6.378362e+001 -7.387656e+001 -1.838187e+000 1.353114e+002
7863631250 -2.221474e+000 -1.191668e+002 -6.352177e+001 -7.648093e+001 -6.351831e+001 -7.699817e+001 -1.850976e+000 1.347690e+002
7882375000 -2.233523e+000 -1.203940e+002 -6.368739e+001 -8.548322e+001 -6.398423e+001 -7.680728e+001 -1.864458e+000 1.341747e+002
7901118750 -2.250084e+000 -1.216636e+002 -6.407694e+001 -9.340634e+001 -6.419935e+001 -7.271145e+001 -1.866838e+000 1.335460e+002
7919862500 -2.258239e+000 -1.229087e+002 -6.393415e+001 -9.361610e+001 -6.367783e+001 -7.520392e+001 -1.872830e+000 1.330197e+002
7938606250 -2.271555e+000 -1.241348e+002 -6.422539e+001 -9.837529e+001 -6.360793e+001 -8.343884e+001 -1.886346e+000 1.324350e+002
7957350000 -2.288959e+000 -1.254021e+002 -6.352534e+001 -1.046178e+002 -6.342591e+001 -8.695024e+001 -1.890061e+000 1.318184e+002
7976093750 -2.299512e+000 -1.266482e+002 -6.384228e+001 -1.035204e+002 -6.328220e+001 -9.227055e+001 -1.897751e+000 1.312838e+002
7994837500 -2.314668e+000 -1.278930e+002 -6.437331e+001 -1.092542e+002 -6.369429e+001 -8.991328e+001 -1.913600e+000 1.307031e+002
8013581250 -2.333215e+000 -1.291579e+002 -6.425642e+001 -1.098507e+002 -6.326711e+001 -9.325307e+001 -1.918045e+000 1.300874e+002
8032325000 -2.344624e+000 -1.304193e+002 -6.415376e+001 -1.167268e+002 -6.350336e+001 -1.023271e+002 -1.925519e+000 1.295679e+002
8051068750 -2.364146e+000 -1.316637e+002 -6.463313e+001 -1.176023e+002 -6.379565e+001 -9.829379e+001 -1.939445e+000 1.289539e+002
8069812500 -2.382982e+000 -1.329389e+002 -6.462983e+001 -1.209212e+002 -6.390271e+001 -1.018212e+002 -1.945621e+000 1.283549e+002
8088556250 -2.397985e+000 -1.342310e+002 -6.454359e+001 -1.235646e+002 -6.351624e+001 -9.904761e+001 -1.952596e+000 1.278173e+002
8107300000 -2.417824e+000 -1.354861e+002 -6.512939e+001 -1.191075e+002 -6.370064e+001 -1.017420e+002 -1.965138e+000 1.272100e+002
8126043750 -2.439756e+000 -1.367673e+002 -6.543639e+001 -1.099093e+002 -6.415235e+001 -1.051925e+002 -1.967414e+000 1.266075e+002
8144787500 -2.455356e+000 -1.380586e+002 -6.517081e+001 -9.775806e+001 -6.389727e+001 -1.057860e+002 -1.976591e+000 1.260815e+002
8163531250 -2.477057e+000 -1.393034e+002 -6.551302e+001 -9.006804e+001 -6.407389e+001 -1.015010e+002 -1.991474e+000 1.254755e+002
8182275000 -2.500358e+000 -1.406078e+002 -6.549017e+001 -8.564510e+001 -6.441182e+001 -9.833022e+001 -1.996335e+000 1.248807e+002
8201018750 -2.520626e+000 -1.419177e+002 -6.574359e+001 -7.688165e+001 -6.440456e+001 -9.893179e+001 -2.005189e+000 1.243313e+002
8219762500 -2.541917e+000 -1.431859e+002 -6.593082e+001 -6.632576e+001 -6.485309e+001 -9.652475e+001 -2.019062e+000 1.237224e+002
8238506250 -2.566672e+000 -1.445041e+002 -6.630577e+001 -5.385647e+001 -6.516660e+001 -9.701955e+001 -2.023340e+000 1.231290e+002
8257250000 -2.588259e+000 -1.457987e+002 -6.700216e+001 -4.968517e+001 -6.522556e+001 -9.786317e+001 -2.034212e+000 1.225840e+002
8275993750 -2.611135e+000 -1.470645e+002 -6.739584e+001 -3.360152e+001 -6.537090e+001 -9.927228e+001 -2.046061e+000 1.219644e+002
8294737500 -2.638978e+000 -1.483893e+002 -6.745493e+001 -1.577703e+001 -6.593342e+001 -1.010957e+002 -2.049282e+000 1.213834e+002
8313481250 -2.664513e+000 -1.497197e+002 -6.743492e+001 1.080416e+001 -6.567487e+001 -1.036273e+002 -2.059356e+000 1.208162e+002
8332225000 -2.688942e+000 -1.510066e+002 -6.756021e+001 3.925478e+001 -6.615458e+001 -1.028462e+002 -2.071088e+000 1.202135e+002
8350968750 -2.715963e+000 -1.523412e+002 -6.786962e+001 5.637532e+001 -6.653020e+001 -9.723090e+001 -2.076369e+000 1.196187e+002
8369712500 -2.743166e+000 -1.536628e+002 -6.784498e+001 7.559618e+001 -6.641050e+001 -9.070106e+001 -2.089873e+000 1.190690e+002
8388456250 -2.771255e+000 -1.549692e+002 -6.823488e+001 8.993746e+001 -6.676038e+001 -9.026170e+001 -2.103910e+000 1.184433e+002
8407200000 -2.801090e+000 -1.563234e+002 -6.809262e+001 9.417495e+001 -6.692607e+001 -9.050416e+001 -2.110561e+000 1.178612e+002
8425943750 -2.830555e+000 -1.576479e+002 -6.799672e+001 1.115727e+002 -6.648179e+001 -9.151149e+001 -2.123774e+000 1.172837e+002
8444687500 -2.861284e+000 -1.589790e+002 -6.807436e+001 1.222915e+002 -6.699214e+001 -8.726160e+001 -2.133578e+000 1.166651e+002
8463431250 -2.891064e+000 -1.603551e+002 -6.843846e+001 1.402544e+002 -6.714679e+001 -8.058260e+001 -2.138290e+000 1.160765e+002
8482175000 -2.921108e+000 -1.616810e+002 -6.850085e+001 1.504357e+002 -6.705399e+001 -8.743810e+001 -2.153303e+000 1.155158e+002
8500918750 -2.956176e+000 -1.630184e+002 -6.870871e+001 1.679020e+002 -6.698526e+001 -9.372652e+001 -2.163194e+000 1.148864e+002
8519662500 -2.987269e+000 -1.643963e+002 -6.900982e+001 -1.732117e+002 -6.749496e+001 -1.086993e+002 -2.172224e+000 1.143057e+002
8538406250 -3.020243e+000 -1.657433e+002 -6.869608e+001 -1.591998e+002 -6.772702e+001 -1.249955e+002 -2.188833e+000 1.137245e+002
8557150000 -3.056476e+000 -1.671162e+002 -6.837911e+001 -1.545307e+002 -6.765094e+001 -1.398596e+002 -2.201735e+000 1.130991e+002
8575893750 -3.090908e+000 -1.685105e+002 -6.876505e+001 -1.531578e+002 -6.811172e+001 -1.591962e+002 -2.209787e+000 1.125077e+002
8594637500 -3.127199e+000 -1.698527e+002 -6.881557e+001 -1.498324e+002 -6.808857e+001 1.798000e+002 -2.226194e+000 1.119010e+002
8613381250 -3.167059e+000 -1.712381e+002 -6.877403e+001 -1.435368e+002 -6.768420e+001 1.546874e+002 -2.236768e+000 1.112755e+002
8632125000 -3.204904e+000 -1.726614e+002 -6.861731e+001 -1.342230e+002 -6.726460e+001 1.389119e+002 -2.246878e+000 1.106861e+002
8650868750 -3.243597e+000 -1.740242e+002 -6.864571e+001 -1.279176e+002 -6.660705e+001 1.230305e+002 -2.262421e+000 1.100573e+002
8669612500 -3.284332e+000 -1.754482e+002 -6.843346e+001 -1.240732e+002 -6.652611e+001 1.102816e+002 -2.272131e+000 1.094272e+002
8688356250 -3.322169e+000 -1.768810e+002 -6.846442e+001 -1.187597e+002 -6.646186e+001 1.046180e+002 -2.281268e+000 1.088334e+002
8707100000 -3.363346e+000 -1.782530e+002 -6.830895e+001 -1.151669e+002 -6.641458e+001 9.428447e+001 -2.299482e+000 1.082167e+002
8725843750 -3.405885e+000 -1.796767e+002 -6.822096e+001 -1.191589e+002 -6.607387e+001 7.860789e+001 -2.310340e+000 1.075669e+002
8744587500 -3.446063e+000 1.788797e+002 -6.809190e+001 -1.254059e+002 -6.579865e+001 6.102490e+001 -2.324464e+000 1.069691e+002
8763331250 -3.489482e+000 1.774797e+002 -6.790942e+001 -1.311153e+002 -6.504366e+001 3.425315e+001 -2.341676e+000 1.063410e+002
8782075000 -3.532987e+000 1.760181e+002 -6.776689e+001 -1.359859e+002 -6.542031e+001 1.331402e+001 -2.349400e+000 1.056901e+002
8800818750 -3.573354e+000 1.745620e+002 -6.756779e+001 -1.391414e+002 -6.578319e+001 2.266162e+000 -2.359370e+000 1.050815e+002
8819562500 -3.619749e+000 1.731567e+002 -6.733027e+001 -1.412457e+002 -6.621680e+001 -4.145216e+000 -2.374118e+000 1.044609e+002
8838306250 -3.667267e+000 1.716850e+002 -6.759127e+001 -1.397315e+002 -6.651926e+001 -1.576907e+001 -2.383022e+000 1.038114e+002
8857050000 -3.712194e+000 1.702227e+002 -6.747276e+001 -1.423117e+002 -6.659564e+001 -2.331378e+001 -2.395429e+000 1.031967e+002
8875793750 -3.761359e+000 1.687751e+002 -6.747784e+001 -1.422716e+002 -6.641869e+001 -2.835333e+001 -2.411940e+000 1.025526e+002
8894537500 -3.809567e+000 1.672800e+002 -6.719302e+001 -1.437849e+002 -6.630946e+001 -3.897472e+001 -2.423657e+000 1.019037e+002
8913281250 -3.854350e+000 1.658028e+002 -6.708009e+001 -1.315294e+002 -6.627876e+001 -3.665706e+001 -2.435955e+000 1.012714e+002
8932025000 -3.903888e+000 1.643421e+002 -6.719827e+001 -1.290757e+002 -6.627496e+001 -2.198837e+001 -2.452175e+000 1.006302e+002
8950768750 -3.953556e+000 1.628286e+002 -6.766919e+001 -1.312656e+002 -6.632004e+001 1.988973e-001 -2.462018e+000 9.997559e+001
8969512500 -4.003851e+000 1.613456e+002 -6.767654e+001 -1.382363e+002 -6.617355e+001 2.634558e+001 -2.475677e+000 9.933464e+001
8988256250 -4.057231e+000 1.598420e+002 -6.814241e+001 -1.367278e+002 -6.688837e+001 5.337246e+001 -2.487159e+000 9.866433e+001
9007000000 -4.107498e+000 1.583092e+002 -6.814822e+001 -1.328037e+002 -6.661356e+001 7.951070e+001 -2.496929e+000 9.801871e+001
9025743750 -4.156954e+000 1.568055e+002 -6.822223e+001 -1.224676e+002 -6.637575e+001 9.562065e+001 -2.510190e+000 9.738407e+001
9044487500 -4.212229e+000 1.552902e+002 -6.879942e+001 -1.121635e+002 -6.638912e+001 1.098875e+002 -2.523727e+000 9.671960e+001
9063231250 -4.261560e+000 1.537526e+002 -6.867773e+001 -1.126715e+002 -6.685752e+001 1.253531e+002 -2.535193e+000 9.606339e+001
9081975000 -4.315090e+000 1.522303e+002 -6.885526e+001 -1.102759e+002 -6.729227e+001 1.438259e+002 -2.553137e+000 9.542862e+001
9100718750 -4.372329e+000 1.506755e+002 -6.915269e+001 -1.080234e+002 -6.729318e+001 1.524350e+002 -2.564107e+000 9.472601e+001
9119462500 -4.422270e+000 1.490945e+002 -6.883354e+001 -1.022293e+002 -6.765227e+001 1.576699e+002 -2.575544e+000 9.406673e+001
9138206250 -4.478693e+000 1.475530e+002 -6.917024e+001 -1.012191e+002 -6.751524e+001 1.720032e+002 -2.588796e+000 9.342330e+001
9156950000 -4.537345e+000 1.459834e+002 -6.910385e+001 -9.689436e+001 -6.854629e+001 -1.746657e+002 -2.598910e+000 9.275468e+001
9175693750 -4.590162e+000 1.443971e+002 -6.907074e+001 -9.355251e+001 -6.872639e+001 -1.531095e+002 -2.608175e+000 9.210436e+001
9194437500 -4.650125e+000 1.428160e+002 -6.905683e+001 -9.489693e+001 -6.876974e+001 -1.340228e+002 -2.622228e+000 9.145316e+001
9213181250 -4.709776e+000 1.411992e+002 -6.886777e+001 -8.755269e+001 -6.845314e+001 -1.142271e+002 -2.633583e+000 9.077193e+001
9231925000 -4.765467e+000 1.395829e+002 -6.928419e+001 -7.588932e+001 -6.818867e+001 -1.041434e+002 -2.644832e+000 9.012147e+001
9250668750 -4.823426e+000 1.379927e+002 -6.930133e+001 -5.344545e+001 -6.770393e+001 -9.280306e+001 -2.660120e+000 8.946141e+001
9269412500 -4.884321e+000 1.363582e+002 -6.923321e+001 -2.679005e+001 -6.768589e+001 -7.647804e+001 -2.672310e+000 8.877590e+001
9288156250 -4.941029e+000 1.347153e+002 -6.923225e+001 -5.784811e+000 -6.777746e+001 -6.524065e+001 -2.682209e+000 8.810944e+001
9306900000 -5.001302e+000 1.330745e+002 -6.912196e+001 1.919668e+001 -6.792321e+001 -5.903719e+001 -2.696788e+000 8.744500e+001
9325643750 -5.062074e+000 1.314000e+002 -6.933361e+001 3.709284e+001 -6.778615e+001 -5.299860e+001 -2.706164e+000 8.674129e+001
9344387500 -5.120359e+000 1.297401e+002 -6.925179e+001 4.573063e+001 -6.751443e+001 -5.077714e+001 -2.718116e+000 8.608958e+001
9363131250 -5.182229e+000 1.280730e+002 -6.893589e+001 6.177979e+001 -6.793218e+001 -5.205025e+001 -2.732830e+000 8.541515e+001
9381875000 -5.243908e+000 1.263868e+002 -6.802982e+001 7.797443e+001 -6.748560e+001 -5.871746e+001 -2.744128e+000 8.471992e+001
9400618750 -5.301298e+000 1.246841e+002 -6.766665e+001 9.854569e+001 -6.727204e+001 -6.825371e+001 -2.755685e+000 8.406581e+001
9419362500 -5.363087e+000 1.229698e+002 -6.696096e+001 1.135807e+002 -6.640411e+001 -7.684904e+001 -2.770645e+000 8.337171e+001
9438106250 -5.422841e+000 1.212383e+002 -6.680804e+001 1.262662e+002 -6.627293e+001 -8.057479e+001 -2.779038e+000 8.265717e+001
9456850000 -5.480490e+000 1.195004e+002 -6.670538e+001 1.356318e+002 -6.604577e+001 -7.989283e+001 -2.791498e+000 8.200078e+001
9475593750 -5.542639e+000 1.177707e+002 -6.609167e+001 1.399931e+002 -6.629282e+001 -7.459981e+001 -2.806214e+000 8.129103e+001
9494337500 -5.605114e+000 1.160268e+002 -6.613921e+001 1.551966e+002 -6.583073e+001 -7.266691e+001 -2.813609e+000 8.059049e+001
9513081250 -5.665697e+000 1.142531e+002 -6.587899e+001 1.698095e+002 -6.515599e+001 -7.275362e+001 -2.823134e+000 7.992203e+001
9531825000 -5.727454e+000 1.124751e+002 -6.541529e+001 -1.747806e+002 -6.539496e+001 -6.580341e+001 -2.837095e+000 7.922999e+001
9550568750 -5.789179e+000 1.106921e+002 -6.505968e+001 -1.588386e+002 -6.493407e+001 -6.342157e+001 -2.843856e+000 7.852537e+001
9569312500 -5.847285e+000 1.088995e+002 -6.449020e+001 -1.447066e+002 -6.481026e+001 -6.278687e+001 -2.859716e+000 7.785418e+001
9588056250 -5.909510e+000 1.071031e+002 -6.445956e+001 -1.278735e+002 -6.357532e+001 -5.845068e+001 -2.874429e+000 7.711763e+001
9606800000 -5.971233e+000 1.053072e+002 -6.441016e+001 -1.140061e+002 -6.356271e+001 -5.978236e+001 -2.883676e+000 7.641772e+001
9625543750 -6.028745e+000 1.034712e+002 -6.377106e+001 -9.774682e+001 -6.345935e+001 -5.842705e+001 -2.899160e+000 7.571329e+001
9644287500 -6.088627e+000 1.016345e+002 -6.389990e+001 -8.597024e+001 -6.316831e+001 -6.337604e+001 -2.913104e+000 7.497112e+001
9663031250 -6.146594e+000 9.978372e+001 -6.319253e+001 -7.691444e+001 -6.314972e+001 -6.577118e+001 -2.920889e+000 7.425523e+001
9681775000 -6.203316e+000 9.791599e+001 -6.294943e+001 -7.648045e+001 -6.261359e+001 -6.859191e+001 -2.935023e+000 7.357263e+001
9700518750 -6.262570e+000 9.606107e+001 -6.279414e+001 -7.649338e+001 -6.237171e+001 -7.446459e+001 -2.948519e+000 7.282585e+001
9719262500 -6.322265e+000 9.418233e+001 -6.223940e+001 -7.782944e+001 -6.189730e+001 -7.888569e+001 -2.961408e+000 7.212512e+001
9738006250 -6.377694e+000 9.228375e+001 -6.181296e+001 -8.130349e+001 -6.132979e+001 -7.982202e+001 -2.978550e+000 7.142012e+001
9756750000 -6.435679e+000 9.038405e+001 -6.147723e+001 -8.208961e+001 -6.112648e+001 -7.680610e+001 -2.995227e+000 7.066609e+001
9775493750 -6.489939e+000 8.846147e+001 -6.122504e+001 -8.073834e+001 -6.085960e+001 -7.820040e+001 -3.004564e+000 6.994907e+001
9794237500 -6.538099e+000 8.650539e+001 -6.090209e+001 -8.110850e+001 -6.007910e+001 -8.388968e+001 -3.019608e+000 6.926376e+001
9812981250 -6.590689e+000 8.461514e+001 -6.087597e+001 -8.282379e+001 -5.994663e+001 -8.614403e+001 -3.035261e+000 6.850909e+001
9831725000 -6.647788e+000 8.265777e+001 -6.111240e+001 -8.215503e+001 -5.965647e+001 -8.430015e+001 -3.044163e+000 6.776504e+001
9850468750 -6.694331e+000 8.068303e+001 -6.081781e+001 -8.231499e+001 -5.914354e+001 -8.562926e+001 -3.061184e+000 6.708548e+001
9869212500 -6.743716e+000 7.876675e+001 -6.050499e+001 -8.330082e+001 -5.878512e+001 -8.826506e+001 -3.080312e+000 6.633493e+001
9887956250 -6.799329e+000 7.678644e+001 -6.001251e+001 -8.473738e+001 -5.869443e+001 -8.890466e+001 -3.092531e+000 6.558478e+001
9906700000 -6.840363e+000 7.477092e+001 -5.962366e+001 -8.249165e+001 -5.809294e+001 -8.981001e+001 -3.105971e+000 6.487245e+001
9925443750 -6.888463e+000 7.282650e+001 -5.918500e+001 -8.429967e+001 -5.809047e+001 -9.088062e+001 -3.124305e+000 6.413040e+001
9944187500 -6.939933e+000 7.080317e+001 -5.887256e+001 -8.782635e+001 -5.777168e+001 -9.328495e+001 -3.139602e+000 6.339746e+001
9962931250 -6.977233e+000 6.877473e+001 -5.881430e+001 -8.968149e+001 -5.700451e+001 -9.665006e+001 -3.156913e+000 6.265961e+001
9981675000 -7.023747e+000 6.678828e+001 -5.850262e+001 -9.169133e+001 -5.684592e+001 -9.659967e+001 -3.173123e+000 6.189135e+001
10000418750 -7.067416e+000 6.472639e+001 -5.816797e+001 -9.195586e+001 -5.660133e+001 -9.886903e+001 -3.185114e+000 6.113897e+001
10019162500 -7.097595e+000 6.268903e+001 -5.792912e+001 -9.402184e+001 -5.649527e+001 -9.888650e+001 -3.200973e+000 6.040972e+001
10037906250 -7.141718e+000 6.066175e+001 -5.762024e+001 -9.495350e+001 -5.621214e+001 -1.022197e+002 -3.217817e+000 5.963439e+001
10056650000 -7.179591e+000 5.858463e+001 -5.750489e+001 -9.608300e+001 -5.585257e+001 -1.038004e+002 -3.233427e+000 5.889702e+001
10075393750 -7.210343e+000 5.653245e+001 -5.706871e+001 -9.731579e+001 -5.545045e+001 -1.038332e+002 -3.252806e+000 5.814521e+001
10094137500 -7.250001e+000 5.448440e+001 -5.706206e+001 -1.006832e+002 -5.521731e+001 -1.034783e+002 -3.270127e+000 5.735274e+001
10112881250 -7.280874e+000 5.236926e+001 -5.670197e+001 -1.014550e+002 -5.520655e+001 -1.049513e+002 -3.284311e+000 5.658669e+001
10131625000 -7.304870e+000 5.031576e+001 -5.608036e+001 -1.052705e+002 -5.490868e+001 -1.030203e+002 -3.302301e+000 5.583173e+001
10150368750 -7.339165e+000 4.822033e+001 -5.584812e+001 -1.060118e+002 -5.463136e+001 -1.051681e+002 -3.315933e+000 5.503193e+001
10169112500 -7.363842e+000 4.609785e+001 -5.556254e+001 -1.066242e+002 -5.427404e+001 -1.077343e+002 -3.328863e+000 5.426946e+001
10187856250 -7.385795e+000 4.402601e+001 -5.517428e+001 -1.080155e+002 -5.385628e+001 -1.103201e+002 -3.347773e+000 5.350438e+001
10206600000 -7.414294e+000 4.191476e+001 -5.485323e+001 -1.097421e+002 -5.370552e+001 -1.109878e+002 -3.363217e+000 5.269638e+001
10225343750 -7.436174e+000 3.982559e+001 -5.478647e+001 -1.112127e+002 -5.350037e+001 -1.106317e+002 -3.378664e+000 5.190807e+001
10244087500 -7.458162e+000 3.772876e+001 -5.437840e+001 -1.125939e+002 -5.317351e+001 -1.106186e+002 -3.394041e+000 5.113670e+001
10262831250 -7.477252e+000 3.560810e+001 -5.362867e+001 -1.143679e+002 -5.300573e+001 -1.126618e+002 -3.413273e+000 5.035816e+001
10281575000 -7.493108e+000 3.352628e+001 -5.340332e+001 -1.156249e+002 -5.291970e+001 -1.132542e+002 -3.429509e+000 4.956299e+001
10300318750 -7.509500e+000 3.139110e+001 -5.300888e+001 -1.168322e+002 -5.260247e+001 -1.140567e+002 -3.445392e+000 4.876332e+001
10319062500 -7.517107e+000 2.926047e+001 -5.270850e+001 -1.177378e+002 -5.227525e+001 -1.153247e+002 -3.461055e+000 4.796579e+001
10337806250 -7.528818e+000 2.719277e+001 -5.252803e+001 -1.182440e+002 -5.197392e+001 -1.161281e+002 -3.481951e+000 4.717268e+001
10356550000 -7.542795e+000 2.505566e+001 -5.213350e+001 -1.196311e+002 -5.152705e+001 -1.179875e+002 -3.497319e+000 4.635300e+001
10375293750 -7.543872e+000 2.292624e+001 -5.177259e+001 -1.214292e+002 -5.128778e+001 -1.186877e+002 -3.512613e+000 4.554409e+001
10394037500 -7.552620e+000 2.085252e+001 -5.139288e+001 -1.215984e+002 -5.101898e+001 -1.195162e+002 -3.531804e+000 4.475007e+001
10412781250 -7.556903e+000 1.872579e+001 -5.100082e+001 -1.237041e+002 -5.068507e+001 -1.222154e+002 -3.553201e+000 4.394037e+001
10431525000 -7.551634e+000 1.661632e+001 -5.057164e+001 -1.252511e+002 -5.035550e+001 -1.235582e+002 -3.570752e+000 4.312772e+001
10450268750 -7.558424e+000 1.454118e+001 -5.012293e+001 -1.270943e+002 -4.999800e+001 -1.253751e+002 -3.591412e+000 4.231871e+001
10469012500 -7.557194e+000 1.242092e+001 -4.991560e+001 -1.280544e+002 -4.948423e+001 -1.267401e+002 -3.607326e+000 4.149156e+001
10487756250 -7.552046e+000 1.031902e+001 -4.964709e+001 -1.294223e+002 -4.930602e+001 -1.281053e+002 -3.623774e+000 4.068665e+001
10506500000 -7.551044e+000 8.248862e+000 -4.925792e+001 -1.301724e+002 -4.901450e+001 -1.299425e+002 -3.643682e+000 3.987608e+001
10525243750 -7.542190e+000 6.125807e+000 -4.878091e+001 -1.308161e+002 -4.855534e+001 -1.317883e+002 -3.662905e+000 3.904893e+001
10543987500 -7.530055e+000 4.049401e+000 -4.855502e+001 -1.326207e+002 -4.826294e+001 -1.329981e+002 -3.681108e+000 3.822546e+001
10562731250 -7.527156e+000 1.987545e+000 -4.822247e+001 -1.342195e+002 -4.785873e+001 -1.341624e+002 -3.704452e+000 3.740097e+001
10581475000 -7.513910e+000 -1.010832e-001 -4.796189e+001 -1.357390e+002 -4.756924e+001 -1.353708e+002 -3.724083e+000 3.655695e+001
10600218750 -7.500078e+000 -2.163900e+000 -4.768961e+001 -1.376277e+002 -4.731026e+001 -1.372815e+002 -3.745326e+000 3.574604e+001
10618962500 -7.490843e+000 -4.232013e+000 -4.734986e+001 -1.394154e+002 -4.710109e+001 -1.375944e+002 -3.767983e+000 3.491786e+001
10637706250 -7.471771e+000 -6.312559e+000 -4.704139e+001 -1.411068e+002 -4.687981e+001 -1.388499e+002 -3.787518e+000 3.405856e+001
10656450000 -7.456261e+000 -8.340826e+000 -4.667139e+001 -1.430655e+002 -4.657082e+001 -1.408370e+002 -3.809292e+000 3.322005e+001
10675193750 -7.444476e+000 -1.039840e+001 -4.646561e+001 -1.443942e+002 -4.621373e+001 -1.423321e+002 -3.835217e+000 3.236417e+001
10693937500 -7.423559e+000 -1.242902e+001 -4.624642e+001 -1.459994e+002 -4.593670e+001 -1.432945e+002 -3.852739e+000 3.148983e+001
10712681250 -7.408878e+000 -1.445055e+001 -4.597403e+001 -1.476593e+002 -4.559965e+001 -1.448738e+002 -3.876668e+000 3.065552e+001
10731425000 -7.393692e+000 -1.649212e+001 -4.565421e+001 -1.489661e+002 -4.535256e+001 -1.467684e+002 -3.901708e+000 2.979642e+001
10750168750 -7.368858e+000 -1.852783e+001 -4.539294e+001 -1.504037e+002 -4.499276e+001 -1.482932e+002 -3.922879e+000 2.893187e+001
10768912500 -7.349869e+000 -2.052139e+001 -4.505064e+001 -1.518067e+002 -4.468600e+001 -1.504350e+002 -3.947388e+000 2.807901e+001
10787656250 -7.328324e+000 -2.253666e+001 -4.482114e+001 -1.534035e+002 -4.442585e+001 -1.518566e+002 -3.975774e+000 2.719252e+001
10806400000 -7.303478e+000 -2.450944e+001 -4.450414e+001 -1.545615e+002 -4.414751e+001 -1.536521e+002 -3.996125e+000 2.630740e+001
10825143750 -7.283286e+000 -2.648242e+001 -4.410343e+001 -1.564137e+002 -4.386174e+001 -1.552055e+002 -4.023736e+000 2.545402e+001
10843887500 -7.262354e+000 -2.849461e+001 -4.386012e+001 -1.576416e+002 -4.356631e+001 -1.562242e+002 -4.049337e+000 2.456099e+001
10862631250 -7.236491e+000 -3.046041e+001 -4.355578e+001 -1.588574e+002 -4.326801e+001 -1.578280e+002 -4.073084e+000 2.365771e+001
10881375000 -7.216045e+000 -3.241231e+001 -4.322456e+001 -1.605244e+002 -4.297491e+001 -1.598720e+002 -4.102145e+000 2.277549e+001
10900118750 -7.194180e+000 -3.437460e+001 -4.284436e+001 -1.622200e+002 -4.271884e+001 -1.612166e+002 -4.132410e+000 2.186333e+001
10918862500 -7.168787e+000 -3.631186e+001 -4.250698e+001 -1.637257e+002 -4.237975e+001 -1.628221e+002 -4.158015e+000 2.093442e+001
10937606250 -7.151873e+000 -3.825947e+001 -4.218277e+001 -1.654183e+002 -4.205182e+001 -1.647573e+002 -4.186654e+000 2.004692e+001
10956350000 -7.130322e+000 -4.020550e+001 -4.184885e+001 -1.671130e+002 -4.174714e+001 -1.661136e+002 -4.216330e+000 1.911396e+001
10975093750 -7.106356e+000 -4.212210e+001 -4.150281e+001 -1.687072e+002 -4.138713e+001 -1.674955e+002 -4.245966e+000 1.819019e+001
10993837500 -7.085049e+000 -4.404053e+001 -4.120690e+001 -1.701866e+002 -4.102352e+001 -1.694286e+002 -4.276490e+000 1.727653e+001
11012581250 -7.065458e+000 -4.593367e+001 -4.085325e+001 -1.715966e+002 -4.068763e+001 -1.711574e+002 -4.306466e+000 1.634521e+001
11031325000 -7.046700e+000 -4.781919e+001 -4.051024e+001 -1.731056e+002 -4.036680e+001 -1.727188e+002 -4.335350e+000 1.540743e+001
11050068750 -7.029201e+000 -4.971555e+001 -4.017925e+001 -1.749591e+002 -4.001596e+001 -1.748732e+002 -4.368446e+000 1.447870e+001
11068812500 -7.010587e+000 -5.160644e+001 -3.986279e+001 -1.764732e+002 -3.966492e+001 -1.765910e+002 -4.401628e+000 1.353525e+001
11087556250 -6.991541e+000 -5.348827e+001 -3.954883e+001 -1.778456e+002 -3.933382e+001 -1.785602e+002 -4.435465e+000 1.258543e+001
11106300000 -6.974458e+000 -5.535772e+001 -3.922067e+001 -1.796577e+002 -3.903919e+001 1.795334e+002 -4.469625e+000 1.161730e+001
11125043750 -6.958308e+000 -5.723131e+001 -3.889996e+001 1.787430e+002 -3.870464e+001 1.776619e+002 -4.504405e+000 1.064141e+001
11143787500 -6.943570e+000 -5.908138e+001 -3.853900e+001 1.769650e+002 -3.837456e+001 1.757149e+002 -4.537085e+000 9.678069e+000
11162531250 -6.931404e+000 -6.094668e+001 -3.819473e+001 1.753599e+002 -3.804193e+001 1.741473e+002 -4.575943e+000 8.720740e+000
11181275000 -6.918705e+000 -6.279460e+001 -3.785130e+001 1.736888e+002 -3.769954e+001 1.723751e+002 -4.612413e+000 7.734388e+000
11200018750 -6.905423e+000 -6.462682e+001 -3.751225e+001 1.719029e+002 -3.735015e+001 1.706472e+002 -4.651268e+000 6.762339e+000
11218762500 -6.896037e+000 -6.646928e+001 -3.715068e+001 1.699268e+002 -3.699654e+001 1.688006e+002 -4.690817e+000 5.776661e+000
11237506250 -6.888204e+000 -6.829640e+001 -3.681094e+001 1.679499e+002 -3.663155e+001 1.670801e+002 -4.730715e+000 4.753867e+000
11256250000 -6.882670e+000 -7.012218e+001 -3.647707e+001 1.661055e+002 -3.628796e+001 1.654061e+002 -4.770610e+000 3.760447e+000
11274993750 -6.877763e+000 -7.195266e+001 -3.610345e+001 1.643359e+002 -3.591325e+001 1.633013e+002 -4.816496e+000 2.769937e+000
11293737500 -6.876705e+000 -7.378025e+001 -3.575583e+001 1.620775e+002 -3.559065e+001 1.613748e+002 -4.858685e+000 1.740426e+000
11312481250 -6.872466e+000 -7.559160e+001 -3.541677e+001 1.602205e+002 -3.522911e+001 1.593552e+002 -4.903887e+000 7.476252e-001
11331225000 -6.872659e+000 -7.740548e+001 -3.506895e+001 1.583895e+002 -3.484621e+001 1.573077e+002 -4.950944e+000 -2.816401e-001
11349968750 -6.877717e+000 -7.919212e+001 -3.471248e+001 1.562311e+002 -3.448382e+001 1.551800e+002 -4.995965e+000 -1.337226e+000
11368712500 -6.883635e+000 -8.098253e+001 -3.436209e+001 1.542384e+002 -3.411642e+001 1.531518e+002 -5.043391e+000 -2.363643e+000
11387456250 -6.893541e+000 -8.279222e+001 -3.400061e+001 1.523777e+002 -3.373471e+001 1.512210e+002 -5.095792e+000 -3.397743e+000
11406200000 -6.905102e+000 -8.459289e+001 -3.363201e+001 1.504102e+002 -3.338191e+001 1.490859e+002 -5.146927e+000 -4.468286e+000
11424943750 -6.915404e+000 -8.635812e+001 -3.326250e+001 1.482800e+002 -3.299643e+001 1.469548e+002 -5.199050e+000 -5.525626e+000
11443687500 -6.932950e+000 -8.813235e+001 -3.290921e+001 1.461922e+002 -3.263716e+001 1.450804e+002 -5.256568e+000 -6.615535e+000
11462431250 -6.952405e+000 -8.989720e+001 -3.253170e+001 1.442349e+002 -3.227762e+001 1.428185e+002 -5.308825e+000 -7.718683e+000
11481175000 -6.974044e+000 -9.166687e+001 -3.216467e+001 1.421413e+002 -3.190299e+001 1.406801e+002 -5.362833e+000 -8.792418e+000
11499918750 -7.002100e+000 -9.344283e+001 -3.176196e+001 1.399804e+002 -3.153908e+001 1.385008e+002 -5.425375e+000 -9.888802e+000
11518662500 -7.031855e+000 -9.520257e+001 -3.135857e+001 1.377296e+002 -3.116036e+001 1.364131e+002 -5.484953e+000 -1.101111e+001
11537406250 -7.065545e+000 -9.693759e+001 -3.097628e+001 1.355233e+002 -3.078265e+001 1.342713e+002 -5.547227e+000 -1.208840e+001
11556150000 -7.106869e+000 -9.867772e+001 -3.059283e+001 1.332623e+002 -3.041048e+001 1.320060e+002 -5.615011e+000 -1.321796e+001
11574893750 -7.150764e+000 -1.004291e+002 -3.021865e+001 1.310962e+002 -3.002551e+001 1.295181e+002 -5.681385e+000 -1.437314e+001
11593637500 -7.196944e+000 -1.021526e+002 -2.984746e+001 1.287473e+002 -2.962479e+001 1.271432e+002 -5.747406e+000 -1.548207e+001
11612381250 -7.251504e+000 -1.038776e+002 -2.944998e+001 1.263792e+002 -2.925122e+001 1.248299e+002 -5.820818e+000 -1.662618e+001
11631125000 -7.306983e+000 -1.055977e+002 -2.905081e+001 1.241062e+002 -2.886394e+001 1.223873e+002 -5.892883e+000 -1.777406e+001
11649868750 -7.367418e+000 -1.072557e+002 -2.867006e+001 1.217211e+002 -2.847020e+001 1.198847e+002 -5.970325e+000 -1.890816e+001
11668612500 -7.440061e+000 -1.089430e+002 -2.828545e+001 1.192297e+002 -2.810221e+001 1.173810e+002 -6.051366e+000 -2.007458e+001
11687356250 -7.510832e+000 -1.106190e+002 -2.788141e+001 1.168029e+002 -2.771451e+001 1.148238e+002 -6.128941e+000 -2.123528e+001
11706100000 -7.589122e+000 -1.122544e+002 -2.749597e+001 1.141505e+002 -2.732561e+001 1.122606e+002 -6.208798e+000 -2.238541e+001
11724843750 -7.674335e+000 -1.138952e+002 -2.709815e+001 1.116141e+002 -2.694189e+001 1.096447e+002 -6.297573e+000 -2.354373e+001
11743587500 -7.759846e+000 -1.154889e+002 -2.669369e+001 1.090077e+002 -2.655441e+001 1.070020e+002 -6.384729e+000 -2.471633e+001
11762331250 -7.855645e+000 -1.170376e+002 -2.630063e+001 1.063166e+002 -2.615837e+001 1.043557e+002 -6.480126e+000 -2.587735e+001
11781075000 -7.958725e+000 -1.186148e+002 -2.590042e+001 1.035578e+002 -2.576338e+001 1.015967e+002 -6.578238e+000 -2.704740e+001
11799818750 -8.058289e+000 -1.201502e+002 -2.551161e+001 1.007993e+002 -2.537919e+001 9.889520e+001 -6.676089e+000 -2.822605e+001
11818562500 -8.168399e+000 -1.216034e+002 -2.512859e+001 9.794134e+001 -2.499879e+001 9.602121e+001 -6.774716e+000 -2.936588e+001
11837306250 -8.287840e+000 -1.230631e+002 -2.473674e+001 9.509604e+001 -2.461677e+001 9.310856e+001 -6.882726e+000 -3.048619e+001
11856050000 -8.404277e+000 -1.244785e+002 -2.434414e+001 9.219720e+001 -2.424515e+001 9.016972e+001 -6.992671e+000 -3.165290e+001
11874793750 -8.534163e+000 -1.257847e+002 -2.395444e+001 8.919987e+001 -2.385634e+001 8.712811e+001 -7.101885e+000 -3.275274e+001
11893537500 -8.672553e+000 -1.271199e+002 -2.356691e+001 8.610664e+001 -2.348521e+001 8.413727e+001 -7.224955e+000 -3.387909e+001
11912281250 -8.803824e+000 -1.283640e+002 -2.318075e+001 8.300798e+001 -2.312286e+001 8.100818e+001 -7.335196e+000 -3.502451e+001
11931025000 -8.946828e+000 -1.295293e+002 -2.280855e+001 7.984139e+001 -2.274287e+001 7.784442e+001 -7.453417e+000 -3.606429e+001
11949768750 -9.085796e+000 -1.307175e+002 -2.243662e+001 7.664236e+001 -2.237890e+001 7.472844e+001 -7.585424e+000 -3.713942e+001
11968512500 -9.219760e+000 -1.317757e+002 -2.207215e+001 7.344889e+001 -2.202364e+001 7.146547e+001 -7.706719e+000 -3.826944e+001
11987256250 -9.369318e+000 -1.327315e+002 -2.170971e+001 7.011721e+001 -2.166307e+001 6.818072e+001 -7.836323e+000 -3.928574e+001
12006000000 -9.514686e+000 -1.337111e+002 -2.134876e+001 6.676808e+001 -2.132040e+001 6.495806e+001 -7.971708e+000 -4.035228e+001
12024743750 -9.656119e+000 -1.345672e+002 -2.099704e+001 6.345298e+001 -2.098475e+001 6.155149e+001 -8.099219e+000 -4.142602e+001
12043487500 -9.804717e+000 -1.353840e+002 -2.065864e+001 6.002346e+001 -2.063633e+001 5.812106e+001 -8.237455e+000 -4.238048e+001
12062231250 -9.940785e+000 -1.362248e+002 -2.031729e+001 5.655639e+001 -2.030832e+001 5.473778e+001 -8.382228e+000 -4.340278e+001
12080975000 -1.007097e+001 -1.368950e+002 -1.998838e+001 5.309367e+001 -1.999002e+001 5.125919e+001 -8.512739e+000 -4.442482e+001
12099718750 -1.020948e+001 -1.375270e+002 -1.967124e+001 4.955536e+001 -1.966836e+001 4.774720e+001 -8.657555e+000 -4.534843e+001
12118462500 -1.034051e+001 -1.381615e+002 -1.935202e+001 4.594690e+001 -1.935920e+001 4.426041e+001 -8.799860e+000 -4.635986e+001
12137206250 -1.046543e+001 -1.386808e+002 -1.904511e+001 4.243390e+001 -1.905744e+001 4.067352e+001 -8.933452e+000 -4.733085e+001
12155950000 -1.059186e+001 -1.392278e+002 -1.874966e+001 3.880009e+001 -1.875080e+001 3.709573e+001 -9.080019e+000 -4.820103e+001
12174693750 -1.069688e+001 -1.397646e+002 -1.845181e+001 3.512941e+001 -1.846552e+001 3.351312e+001 -9.226063e+000 -4.915898e+001
12193437500 -1.079816e+001 -1.401543e+002 -1.817512e+001 3.154948e+001 -1.818667e+001 2.987040e+001 -9.360106e+000 -5.008085e+001
12212181250 -1.090370e+001 -1.405628e+002 -1.790765e+001 2.785966e+001 -1.791112e+001 2.625149e+001 -9.507218e+000 -5.092170e+001
12230925000 -1.099863e+001 -1.409665e+002 -1.763545e+001 2.418393e+001 -1.765022e+001 2.258752e+001 -9.647320e+000 -5.182932e+001
12249668750 -1.108910e+001 -1.413433e+002 -1.737964e+001 2.053555e+001 -1.739641e+001 1.889564e+001 -9.784711e+000 -5.269462e+001
12268412500 -1.117013e+001 -1.417573e+002 -1.713379e+001 1.681165e+001 -1.714836e+001 1.524182e+001 -9.928438e+000 -5.352102e+001
12287156250 -1.123724e+001 -1.421681e+002 -1.689345e+001 1.313012e+001 -1.690660e+001 1.156091e+001 -1.006614e+001 -5.441952e+001
12305900000 -1.129463e+001 -1.425514e+002 -1.666188e+001 9.440918e+000 -1.668052e+001 7.887948e+000 -1.020034e+001 -5.529509e+001
12324643750 -1.135459e+001 -1.429233e+002 -1.643445e+001 5.762418e+000 -1.645116e+001 4.177886e+000 -1.033454e+001 -5.614444e+001
12343387500 -1.141049e+001 -1.433431e+002 -1.621871e+001 2.099499e+000 -1.623294e+001 5.703815e-001 -1.047242e+001 -5.701749e+001
12362131250 -1.146193e+001 -1.437818e+002 -1.601062e+001 -1.612178e+000 -1.603011e+001 -3.092226e+000 -1.060540e+001 -5.785122e+001
12380875000 -1.150936e+001 -1.442742e+002 -1.580511e+001 -5.262447e+000 -1.582341e+001 -6.774686e+000 -1.074376e+001 -5.867825e+001
12399618750 -1.154656e+001 -1.447875e+002 -1.560928e+001 -8.932775e+000 -1.562944e+001 -1.036898e+001 -1.088345e+001 -5.954631e+001
12418362500 -1.158193e+001 -1.452900e+002 -1.542025e+001 -1.258922e+001 -1.544576e+001 -1.400541e+001 -1.101676e+001 -6.038924e+001
12437106250 -1.161971e+001 -1.458078e+002 -1.523692e+001 -1.619840e+001 -1.525737e+001 -1.763600e+001 -1.115100e+001 -6.124664e+001
12455850000 -1.165998e+001 -1.464198e+002 -1.506320e+001 -1.982757e+001 -1.508603e+001 -2.116607e+001 -1.128339e+001 -6.212725e+001
12474593750 -1.169924e+001 -1.470391e+002 -1.488727e+001 -2.342699e+001 -1.492138e+001 -2.478699e+001 -1.141446e+001 -6.296045e+001
12493337500 -1.173926e+001 -1.476921e+002 -1.472252e+001 -2.697988e+001 -1.474920e+001 -2.834814e+001 -1.154426e+001 -6.380189e+001
12512081250 -1.177689e+001 -1.484072e+002 -1.456602e+001 -3.055587e+001 -1.459589e+001 -3.183772e+001 -1.168175e+001 -6.467085e+001
12530825000 -1.181610e+001 -1.490976e+002 -1.440271e+001 -3.409491e+001 -1.444434e+001 -3.540941e+001 -1.181308e+001 -6.552965e+001
12549568750 -1.186618e+001 -1.497945e+002 -1.425608e+001 -3.758272e+001 -1.428891e+001 -3.889179e+001 -1.194921e+001 -6.640260e+001
12568312500 -1.191963e+001 -1.505501e+002 -1.410974e+001 -4.109912e+001 -1.415653e+001 -4.232965e+001 -1.208280e+001 -6.729185e+001
12587056250 -1.197580e+001 -1.513244e+002 -1.396294e+001 -4.456196e+001 -1.401918e+001 -4.581755e+001 -1.221549e+001 -6.818986e+001
12605800000 -1.204325e+001 -1.521175e+002 -1.383256e+001 -4.801070e+001 -1.387881e+001 -4.925198e+001 -1.235322e+001 -6.905864e+001
12624543750 -1.210934e+001 -1.529301e+002 -1.369359e+001 -5.147702e+001 -1.375165e+001 -5.266034e+001 -1.249876e+001 -6.995428e+001
12643287500 -1.218039e+001 -1.536887e+002 -1.356204e+001 -5.484984e+001 -1.362270e+001 -5.608054e+001 -1.263500e+001 -7.090744e+001
12662031250 -1.226330e+001 -1.544378e+002 -1.344225e+001 -5.825073e+001 -1.349617e+001 -5.946621e+001 -1.277577e+001 -7.181495e+001
12680775000 -1.235385e+001 -1.552193e+002 -1.332023e+001 -6.167255e+001 -1.338215e+001 -6.278844e+001 -1.291698e+001 -7.276049e+001
12699518750 -1.245108e+001 -1.560141e+002 -1.320064e+001 -6.500162e+001 -1.327058e+001 -6.616628e+001 -1.305632e+001 -7.367226e+001
12718262500 -1.255507e+001 -1.567667e+002 -1.308998e+001 -6.835883e+001 -1.315066e+001 -6.946918e+001 -1.320918e+001 -7.455375e+001
12737006250 -1.266627e+001 -1.574793e+002 -1.297412e+001 -7.169917e+001 -1.304783e+001 -7.274672e+001 -1.336113e+001 -7.552292e+001
12755750000 -1.277782e+001 -1.581678e+002 -1.286683e+001 -7.498814e+001 -1.294486e+001 -7.609169e+001 -1.350871e+001 -7.647301e+001
12774493750 -1.290038e+001 -1.587871e+002 -1.276144e+001 -7.831637e+001 -1.283356e+001 -7.936400e+001 -1.366428e+001 -7.741960e+001
12793237500 -1.302632e+001 -1.594232e+002 -1.265272e+001 -8.156844e+001 -1.274112e+001 -8.258556e+001 -1.381213e+001 -7.841843e+001
12811981250 -1.316190e+001 -1.600007e+002 -1.255656e+001 -8.482407e+001 -1.264314e+001 -8.585325e+001 -1.396101e+001 -7.933871e+001
12830725000 -1.329556e+001 -1.605540e+002 -1.245642e+001 -8.808473e+001 -1.253714e+001 -8.904643e+001 -1.412302e+001 -8.027747e+001
12849468750 -1.343029e+001 -1.610529e+002 -1.235947e+001 -9.128683e+001 -1.244923e+001 -9.225343e+001 -1.427662e+001 -8.129398e+001
12868212500 -1.357398e+001 -1.614499e+002 -1.227189e+001 -9.449493e+001 -1.235854e+001 -9.547485e+001 -1.443230e+001 -8.225846e+001
12886956250 -1.372077e+001 -1.618072e+002 -1.217772e+001 -9.770420e+001 -1.226283e+001 -9.860630e+001 -1.459670e+001 -8.323888e+001
12905700000 -1.387144e+001 -1.621329e+002 -1.209178e+001 -1.008469e+002 -1.217847e+001 -1.017409e+002 -1.474613e+001 -8.427168e+001
12924443750 -1.401634e+001 -1.624328e+002 -1.201101e+001 -1.040343e+002 -1.209135e+001 -1.049210e+002 -1.491391e+001 -8.525738e+001
12943187500 -1.416163e+001 -1.626677e+002 -1.192091e+001 -1.071636e+002 -1.200684e+001 -1.080052e+002 -1.508558e+001 -8.628275e+001
12961931250 -1.430321e+001 -1.627980e+002 -1.184643e+001 -1.102714e+002 -1.192895e+001 -1.111005e+002 -1.524529e+001 -8.737127e+001
12980675000 -1.444172e+001 -1.628322e+002 -1.176535e+001 -1.134194e+002 -1.184612e+001 -1.142263e+002 -1.541097e+001 -8.840376e+001
12999418750 -1.458617e+001 -1.628406e+002 -1.168506e+001 -1.165223e+002 -1.176632e+001 -1.172882e+002 -1.558541e+001 -8.946455e+001
13018162500 -1.473073e+001 -1.628008e+002 -1.161567e+001 -1.196141e+002 -1.169423e+001 -1.203761e+002 -1.575419e+001 -9.053880e+001
13036906250 -1.486577e+001 -1.627694e+002 -1.154027e+001 -1.227051e+002 -1.161555e+001 -1.234228e+002 -1.593088e+001 -9.161587e+001
13055650000 -1.498942e+001 -1.626979e+002 -1.147015e+001 -1.257295e+002 -1.154865e+001 -1.264279e+002 -1.610858e+001 -9.272038e+001
13074393750 -1.511143e+001 -1.624832e+002 -1.140446e+001 -1.287991e+002 -1.147854e+001 -1.294669e+002 -1.628048e+001 -9.386880e+001
13093137500 -1.522635e+001 -1.622276e+002 -1.133017e+001 -1.318588e+002 -1.140708e+001 -1.324605e+002 -1.646887e+001 -9.505050e+001
13111881250 -1.534123e+001 -1.619147e+002 -1.126418e+001 -1.348247e+002 -1.134204e+001 -1.354527e+002 -1.665398e+001 -9.621982e+001
13130625000 -1.545582e+001 -1.615806e+002 -1.120316e+001 -1.378458e+002 -1.127219e+001 -1.384056e+002 -1.684213e+001 -9.747605e+001
13149368750 -1.555716e+001 -1.613152e+002 -1.113173e+001 -1.408232e+002 -1.121035e+001 -1.413685e+002 -1.703712e+001 -9.875272e+001
13168112500 -1.564194e+001 -1.609861e+002 -1.107274e+001 -1.437775e+002 -1.114596e+001 -1.443364e+002 -1.724230e+001 -1.000413e+002
13186856250 -1.571731e+001 -1.605650e+002 -1.101426e+001 -1.467583e+002 -1.108310e+001 -1.472206e+002 -1.744659e+001 -1.014408e+002
13205600000 -1.578763e+001 -1.601383e+002 -1.095124e+001 -1.496715e+002 -1.102426e+001 -1.501361e+002 -1.765924e+001 -1.028640e+002
13224343750 -1.586085e+001 -1.596544e+002 -1.089987e+001 -1.525868e+002 -1.095971e+001 -1.530632e+002 -1.788388e+001 -1.043363e+002
13243087500 -1.592705e+001 -1.591876e+002 -1.084323e+001 -1.555153e+002 -1.090225e+001 -1.559299e+002 -1.811284e+001 -1.059261e+002
13261831250 -1.598327e+001 -1.588000e+002 -1.078710e+001 -1.583929e+002 -1.085067e+001 -1.588313e+002 -1.835131e+001 -1.074926e+002
13280575000 -1.602199e+001 -1.583913e+002 -1.074003e+001 -1.612802e+002 -1.078894e+001 -1.616943e+002 -1.859929e+001 -1.091816e+002
13299318750 -1.604976e+001 -1.579412e+002 -1.068356e+001 -1.641836e+002 -1.073852e+001 -1.645239e+002 -1.884579e+001 -1.109113e+002
13318062500 -1.607236e+001 -1.574481e+002 -1.063367e+001 -1.669990e+002 -1.068755e+001 -1.674205e+002 -1.910611e+001 -1.127211e+002
13336806250 -1.609358e+001 -1.569489e+002 -1.059007e+001 -1.698880e+002 -1.063146e+001 -1.702441e+002 -1.937926e+001 -1.147280e+002
13355550000 -1.612002e+001 -1.564753e+002 -1.053870e+001 -1.727252e+002 -1.058827e+001 -1.730331e+002 -1.964866e+001 -1.168330e+002
13374293750 -1.613293e+001 -1.560999e+002 -1.049635e+001 -1.755298e+002 -1.053893e+001 -1.758945e+002 -1.992775e+001 -1.190258e+002
13393037500 -1.613043e+001 -1.557365e+002 -1.044972e+001 -1.783742e+002 -1.048651e+001 -1.786692e+002 -2.022699e+001 -1.213124e+002
13411781250 -1.612350e+001 -1.554000e+002 -1.040215e+001 1.788342e+002 -1.044854e+001 1.785482e+002 -2.051610e+001 -1.237005e+002
13430525000 -1.611208e+001 -1.550140e+002 -1.036624e+001 1.760550e+002 -1.040020e+001 1.757354e+002 -2.084000e+001 -1.262615e+002
13449268750 -1.609924e+001 -1.546262e+002 -1.032474e+001 1.732592e+002 -1.035422e+001 1.729862e+002 -2.117156e+001 -1.290413e+002
13468012500 -1.609490e+001 -1.542740e+002 -1.028339e+001 1.705184e+002 -1.031935e+001 1.702282e+002 -2.150250e+001 -1.320527e+002
13486756250 -1.608189e+001 -1.540100e+002 -1.024801e+001 1.677598e+002 -1.027115e+001 1.674294e+002 -2.183496e+001 -1.352926e+002
13505500000 -1.605146e+001 -1.538059e+002 -1.020532e+001 1.649840e+002 -1.023127e+001 1.647166e+002 -2.216311e+001 -1.387592e+002
13524243750 -1.601436e+001 -1.535771e+002 -1.016918e+001 1.622768e+002 -1.019948e+001 1.619757e+002 -2.248568e+001 -1.422515e+002
13542987500 -1.597381e+001 -1.533362e+002 -1.013621e+001 1.595274e+002 -1.015643e+001 1.592251e+002 -2.282361e+001 -1.460518e+002
13561731250 -1.593618e+001 -1.530655e+002 -1.010018e+001 1.568058e+002 -1.012006e+001 1.565508e+002 -2.314730e+001 -1.501852e+002
13580475000 -1.590924e+001 -1.528286e+002 -1.006951e+001 1.541030e+002 -1.009001e+001 1.538211e+002 -2.344731e+001 -1.544217e+002
13599218750 -1.587300e+001 -1.526862e+002 -1.003886e+001 1.513958e+002 -1.005005e+001 1.511018e+002 -2.374268e+001 -1.590646e+002
13617962500 -1.583179e+001 -1.526003e+002 -1.000570e+001 1.487251e+002 -1.001813e+001 1.484422e+002 -2.400133e+001 -1.637813e+002
13636706250 -1.578668e+001 -1.524806e+002 -9.980000e+000 1.460477e+002 -9.993364e+000 1.457230e+002 -2.425799e+001 -1.686498e+002
13655450000 -1.573435e+001 -1.523323e+002 -9.950912e+000 1.433592e+002 -9.957014e+000 1.430457e+002 -2.448206e+001 -1.739884e+002
13674193750 -1.568778e+001 -1.521874e+002 -9.923713e+000 1.407171e+002 -9.929151e+000 1.404136e+002 -2.464026e+001 -1.792034e+002
13692937500 -1.564994e+001 -1.520843e+002 -9.900699e+000 1.380642e+002 -9.904119e+000 1.377126e+002 -2.478016e+001 1.753562e+002
13711681250 -1.560348e+001 -1.520482e+002 -9.872506e+000 1.353944e+002 -9.871168e+000 1.350684e+002 -2.487999e+001 1.699564e+002
13730425000 -1.554670e+001 -1.520459e+002 -9.852901e+000 1.328029e+002 -9.849555e+000 1.324679e+002 -2.497173e+001 1.644880e+002
13749168750 -1.548662e+001 -1.520425e+002 -9.832931e+000 1.301412e+002 -9.826068e+000 1.298034e+002 -2.503612e+001 1.587976e+002
13767912500 -1.542161e+001 -1.520116e+002 -9.806949e+000 1.275350e+002 -9.798528e+000 1.271826e+002 -2.503968e+001 1.529773e+002
13786656250 -1.536341e+001 -1.519892e+002 -9.792108e+000 1.249448e+002 -9.780644e+000 1.245776e+002 -2.500319e+001 1.472698e+002
13805400000 -1.530308e+001 -1.519997e+002 -9.773714e+000 1.223182e+002 -9.757361e+000 1.219416e+002 -2.492967e+001 1.416239e+002
13824143750 -1.524185e+001 -1.520952e+002 -9.750852e+000 1.197484e+002 -9.732350e+000 1.193582e+002 -2.482154e+001 1.360500e+002
13842887500 -1.517223e+001 -1.521512e+002 -9.740436e+000 1.171806e+002 -9.719793e+000 1.167677e+002 -2.471681e+001 1.305139e+002
13861631250 -1.509264e+001 -1.522625e+002 -9.721814e+000 1.145806e+002 -9.698968e+000 1.141604e+002 -2.455908e+001 1.248763e+002
13880375000 -1.500942e+001 -1.523419e+002 -9.701501e+000 1.120301e+002 -9.676492e+000 1.116122e+002 -2.434045e+001 1.193600e+002
13899118750 -1.493203e+001 -1.524317e+002 -9.693150e+000 1.094695e+002 -9.666941e+000 1.090213e+002 -2.409341e+001 1.141021e+002
13917862500 -1.485822e+001 -1.525656e+002 -9.680199e+000 1.068993e+002 -9.652665e+000 1.064396e+002 -2.382192e+001 1.090933e+002
13936606250 -1.478318e+001 -1.527644e+002 -9.666789e+000 1.044071e+002 -9.637986e+000 1.039166e+002 -2.354156e+001 1.043308e+002
13955350000 -1.470499e+001 -1.530141e+002 -9.664452e+000 1.018642e+002 -9.629276e+000 1.013505e+002 -2.325549e+001 9.952656e+001
13974093750 -1.461961e+001 -1.532781e+002 -9.655272e+000 9.933736e+001 -9.616036e+000 9.879693e+001 -2.292683e+001 9.481108e+001
13992837500 -1.453011e+001 -1.535542e+002 -9.645869e+000 9.687052e+001 -9.602979e+000 9.628907e+001 -2.256717e+001 9.044736e+001
14011581250 -1.444005e+001 -1.538211e+002 -9.646932e+000 9.434896e+001 -9.596519e+000 9.376162e+001 -2.220694e+001 8.627278e+001
14030325000 -1.435561e+001 -1.542138e+002 -9.637679e+000 9.184843e+001 -9.588600e+000 9.125578e+001 -2.183238e+001 8.251169e+001
14049068750 -1.426802e+001 -1.546027e+002 -9.634870e+000 8.940483e+001 -9.581972e+000 8.878460e+001 -2.148253e+001 7.889275e+001
14067812500 -1.417426e+001 -1.550537e+002 -9.635713e+000 8.689751e+001 -9.578632e+000 8.630264e+001 -2.112133e+001 7.537764e+001
14086556250 -1.407723e+001 -1.555746e+002 -9.627902e+000 8.442574e+001 -9.574449e+000 8.381878e+001 -2.075267e+001 7.223434e+001
14105300000 -1.397915e+001 -1.560981e+002 -9.627554e+000 8.201075e+001 -9.570526e+000 8.136981e+001 -2.040976e+001 6.909812e+001
14124043750 -1.388518e+001 -1.565952e+002 -9.632279e+000 7.953472e+001 -9.572337e+000 7.891173e+001 -2.005958e+001 6.623258e+001
14142787500 -1.380004e+001 -1.571981e+002 -9.628855e+000 7.712589e+001 -9.575975e+000 7.644827e+001 -1.973857e+001 6.342907e+001
14161531250 -1.371255e+001 -1.578558e+002 -9.634344e+000 7.473372e+001 -9.577189e+000 7.403015e+001 -1.941899e+001 6.068663e+001
14180275000 -1.362481e+001 -1.585395e+002 -9.638359e+000 7.228419e+001 -9.580246e+000 7.159058e+001 -1.910277e+001 5.813543e+001
14199018750 -1.354086e+001 -1.593306e+002 -9.637189e+000 6.990984e+001 -9.583734e+000 6.916307e+001 -1.881343e+001 5.583059e+001
14217762500 -1.345346e+001 -1.600623e+002 -9.646199e+000 6.755453e+001 -9.589873e+000 6.677209e+001 -1.852859e+001 5.354590e+001
14236506250 -1.338032e+001 -1.608182e+002 -9.649896e+000 6.514623e+001 -9.598099e+000 6.438226e+001 -1.826597e+001 5.133713e+001
14255250000 -1.330988e+001 -1.616554e+002 -9.653657e+000 6.281399e+001 -9.605356e+000 6.198339e+001 -1.801441e+001 4.918161e+001
14273993750 -1.323986e+001 -1.625540e+002 -9.668164e+000 6.047833e+001 -9.613541e+000 5.962798e+001 -1.776192e+001 4.704009e+001
14292737500 -1.317483e+001 -1.634703e+002 -9.673292e+000 5.811223e+001 -9.626726e+000 5.725797e+001 -1.751164e+001 4.503950e+001
14311481250 -1.311269e+001 -1.644481e+002 -9.681666e+000 5.581214e+001 -9.636134e+000 5.490466e+001 -1.728121e+001 4.314138e+001
14330225000 -1.304507e+001 -1.654101e+002 -9.696168e+000 5.350032e+001 -9.644952e+000 5.259886e+001 -1.706441e+001 4.129989e+001
14348968750 -1.299193e+001 -1.663680e+002 -9.701414e+000 5.117429e+001 -9.659119e+000 5.028780e+001 -1.686084e+001 3.945517e+001
14367712500 -1.293982e+001 -1.674346e+002 -9.713169e+000 4.892137e+001 -9.671234e+000 4.796948e+001 -1.666961e+001 3.764014e+001
14386456250 -1.289218e+001 -1.684913e+002 -9.726837e+000 4.664130e+001 -9.683951e+000 4.568750e+001 -1.647161e+001 3.581090e+001
14405200000 -1.285204e+001 -1.695675e+002 -9.729695e+000 4.436676e+001 -9.696957e+000 4.341831e+001 -1.628613e+001 3.410304e+001
14423943750 -1.281408e+001 -1.706946e+002 -9.742685e+000 4.214621e+001 -9.710706e+000 4.113845e+001 -1.611596e+001 3.242181e+001
14442687500 -1.278087e+001 -1.717965e+002 -9.756908e+000 3.987446e+001 -9.725709e+000 3.887065e+001 -1.594695e+001 3.074138e+001
14461431250 -1.275665e+001 -1.728687e+002 -9.760835e+000 3.765809e+001 -9.740098e+000 3.662231e+001 -1.578288e+001 2.911692e+001
14480175000 -1.273381e+001 -1.740369e+002 -9.770918e+000 3.546442e+001 -9.753095e+000 3.435289e+001 -1.563357e+001 2.748598e+001
14498918750 -1.271722e+001 -1.751987e+002 -9.782119e+000 3.324341e+001 -9.763424e+000 3.212173e+001 -1.548129e+001 2.582836e+001
14517662500 -1.270644e+001 -1.763578e+002 -9.787971e+000 3.106020e+001 -9.778558e+000 2.990627e+001 -1.534342e+001 2.424059e+001
14536406250 -1.269233e+001 -1.775463e+002 -9.803305e+000 2.888708e+001 -9.791862e+000 2.768370e+001 -1.521294e+001 2.261632e+001
14555150000 -1.268628e+001 -1.787171e+002 -9.811789e+000 2.668379e+001 -9.802220e+000 2.548763e+001 -1.508661e+001 2.102476e+001
14573893750 -1.269152e+001 -1.799004e+002 -9.817468e+000 2.452246e+001 -9.816596e+000 2.330720e+001 -1.496553e+001 1.945270e+001
14592637500 -1.269870e+001 1.788645e+002 -9.829807e+000 2.235921e+001 -9.825201e+000 2.110205e+001 -1.485112e+001 1.788467e+001
14611381250 -1.271115e+001 1.776365e+002 -9.837029e+000 2.019192e+001 -9.835463e+000 1.895101e+001 -1.473688e+001 1.630498e+001
14630125000 -1.272209e+001 1.764313e+002 -9.842028e+000 1.806713e+001 -9.849391e+000 1.678725e+001 -1.462704e+001 1.476918e+001
14648868750 -1.273013e+001 1.751526e+002 -9.850079e+000 1.593240e+001 -9.857476e+000 1.461551e+001 -1.453091e+001 1.323155e+001
14667612500 -1.275048e+001 1.739240e+002 -9.855330e+000 1.376591e+001 -9.865475e+000 1.246877e+001 -1.443257e+001 1.170853e+001
14686356250 -1.277670e+001 1.726410e+002 -9.861378e+000 1.164617e+001 -9.877099e+000 1.031062e+001 -1.434731e+001 1.017933e+001
14705100000 -1.279920e+001 1.713191e+002 -9.867986e+000 9.508530e+000 -9.880479e+000 8.161551e+000 -1.427133e+001 8.625219e+000
14723843750 -1.283108e+001 1.700358e+002 -9.868952e+000 7.365248e+000 -9.885484e+000 6.044114e+000 -1.419473e+001 7.090452e+000
14742587500 -1.286209e+001 1.687225e+002 -9.872366e+000 5.268045e+000 -9.896237e+000 3.886765e+000 -1.413196e+001 5.554353e+000
14761331250 -1.289000e+001 1.674029e+002 -9.873972e+000 3.135977e+000 -9.901514e+000 1.748685e+000 -1.406878e+001 3.959961e+000
14780075000 -1.293354e+001 1.661112e+002 -9.873491e+000 1.002346e+000 -9.906219e+000 -3.567986e-001 -1.400712e+001 2.388044e+000
14798818750 -1.297982e+001 1.647683e+002 -9.876527e+000 -1.108286e+000 -9.915524e+000 -2.505698e+000 -1.396052e+001 8.583384e-001
14817562500 -1.302430e+001 1.634111e+002 -9.878720e+000 -3.240982e+000 -9.916941e+000 -4.624611e+000 -1.392074e+001 -6.817319e-001
14836306250 -1.307294e+001 1.620430e+002 -9.877708e+000 -5.367193e+000 -9.925046e+000 -6.730047e+000 -1.387895e+001 -2.230788e+000
14855050000 -1.312143e+001 1.606621e+002 -9.877060e+000 -7.498332e+000 -9.932184e+000 -8.905747e+000 -1.384989e+001 -3.788784e+000
14873793750 -1.316844e+001 1.592816e+002 -9.874795e+000 -9.606367e+000 -9.932112e+000 -1.101837e+001 -1.382762e+001 -5.359902e+000
14892537500 -1.323448e+001 1.578967e+002 -9.874702e+000 -1.174627e+001 -9.939219e+000 -1.311941e+001 -1.381040e+001 -6.892758e+000
14911281250 -1.329875e+001 1.564470e+002 -9.878529e+000 -1.388841e+001 -9.942829e+000 -1.527512e+001 -1.379769e+001 -8.435407e+000
14930025000 -1.336302e+001 1.550054e+002 -9.875361e+000 -1.602781e+001 -9.944115e+000 -1.738497e+001 -1.379337e+001 -1.000626e+001
14948768750 -1.343034e+001 1.535294e+002 -9.875917e+000 -1.816502e+001 -9.952188e+000 -1.948501e+001 -1.378953e+001 -1.154800e+001
14967512500 -1.349949e+001 1.520219e+002 -9.876530e+000 -2.029862e+001 -9.954915e+000 -2.163929e+001 -1.379633e+001 -1.308309e+001
14986256250 -1.357420e+001 1.505121e+002 -9.873474e+000 -2.239335e+001 -9.955357e+000 -2.374644e+001 -1.380094e+001 -1.464166e+001
15005000000 -1.365123e+001 1.489803e+002 -9.877995e+000 -2.454733e+001 -9.963434e+000 -2.588347e+001 -1.381761e+001 -1.618983e+001
15023743750 -1.373712e+001 1.474455e+002 -9.869328e+000 -2.670787e+001 -9.966078e+000 -2.801563e+001 -1.383604e+001 -1.774159e+001
15042487500 -1.382469e+001 1.458510e+002 -9.867173e+000 -2.882022e+001 -9.968890e+000 -3.013059e+001 -1.386153e+001 -1.926102e+001
15061231250 -1.390733e+001 1.442234e+002 -9.870894e+000 -3.099206e+001 -9.975939e+000 -3.227092e+001 -1.389796e+001 -2.082092e+001
15079975000 -1.400697e+001 1.425773e+002 -9.866772e+000 -3.315505e+001 -9.983441e+000 -3.442065e+001 -1.393188e+001 -2.234833e+001
15098718750 -1.410143e+001 1.409324e+002 -9.869605e+000 -3.528241e+001 -9.983055e+000 -3.654987e+001 -1.397688e+001 -2.390199e+001
15117462500 -1.421419e+001 1.392789e+002 -9.871005e+000 -3.748463e+001 -9.992744e+000 -3.864525e+001 -1.402485e+001 -2.546649e+001
15136206250 -1.433087e+001 1.375557e+002 -9.865182e+000 -3.962940e+001 -1.000163e+001 -4.080546e+001 -1.407349e+001 -2.700078e+001
15154950000 -1.443529e+001 1.358077e+002 -9.872844e+000 -4.175751e+001 -1.000191e+001 -4.293316e+001 -1.413204e+001 -2.854000e+001
15173693750 -1.455427e+001 1.340573e+002 -9.875799e+000 -4.396674e+001 -1.001117e+001 -4.503478e+001 -1.419332e+001 -3.010951e+001
15192437500 -1.468059e+001 1.322598e+002 -9.876937e+000 -4.612044e+001 -1.001850e+001 -4.720210e+001 -1.425299e+001 -3.160769e+001
15211181250 -1.480207e+001 1.304413e+002 -9.886803e+000 -4.827453e+001 -1.001926e+001 -4.933679e+001 -1.432466e+001 -3.313785e+001
15229925000 -1.494224e+001 1.285776e+002 -9.889377e+000 -5.048215e+001 -1.003222e+001 -5.147888e+001 -1.439583e+001 -3.469947e+001
15248668750 -1.508156e+001 1.266553e+002 -9.892336e+000 -5.261879e+001 -1.003929e+001 -5.366034e+001 -1.447377e+001 -3.621028e+001
15267412500 -1.521457e+001 1.247293e+002 -9.905023e+000 -5.477812e+001 -1.004223e+001 -5.577581e+001 -1.456929e+001 -3.774436e+001
15286156250 -1.536058e+001 1.227518e+002 -9.908902e+000 -5.697535e+001 -1.005683e+001 -5.787541e+001 -1.465522e+001 -3.930400e+001
15304900000 -1.551174e+001 1.207527e+002 -9.914271e+000 -5.912174e+001 -1.006590e+001 -6.004728e+001 -1.474285e+001 -4.080833e+001
15323643750 -1.566402e+001 1.187024e+002 -9.929182e+000 -6.129564e+001 -1.007296e+001 -6.216109e+001 -1.484220e+001 -4.235229e+001
15342387500 -1.582381e+001 1.165831e+002 -9.932231e+000 -6.349464e+001 -1.008738e+001 -6.426548e+001 -1.494841e+001 -4.389256e+001
15361131250 -1.597946e+001 1.144036e+002 -9.941873e+000 -6.563162e+001 -1.009735e+001 -6.643937e+001 -1.505746e+001 -4.541623e+001
15379875000 -1.613696e+001 1.122265e+002 -9.954760e+000 -6.780682e+001 -1.010609e+001 -6.855099e+001 -1.517877e+001 -4.697242e+001
15398618750 -1.630013e+001 1.100570e+002 -9.957604e+000 -7.001360e+001 -1.012400e+001 -7.067426e+001 -1.529590e+001 -4.854193e+001
15417362500 -1.646079e+001 1.078232e+002 -9.967284e+000 -7.218885e+001 -1.013480e+001 -7.283591e+001 -1.542754e+001 -5.004679e+001
15436106250 -1.664663e+001 1.054647e+002 -9.978943e+000 -7.436517e+001 -1.014432e+001 -7.494379e+001 -1.556780e+001 -5.157879e+001
15454850000 -1.681514e+001 1.030239e+002 -9.993239e+000 -7.655950e+001 -1.016262e+001 -7.710313e+001 -1.570961e+001 -5.309705e+001
15473593750 -1.697562e+001 1.005795e+002 -1.000686e+001 -7.872798e+001 -1.017323e+001 -7.926041e+001 -1.585688e+001 -5.463703e+001
15492337500 -1.715812e+001 9.803280e+001 -1.002270e+001 -8.089845e+001 -1.018632e+001 -8.135590e+001 -1.601204e+001 -5.618549e+001
15511081250 -1.732997e+001 9.552760e+001 -1.003309e+001 -8.310951e+001 -1.019782e+001 -8.350065e+001 -1.616923e+001 -5.776858e+001
15529825000 -1.751195e+001 9.296482e+001 -1.004489e+001 -8.527016e+001 -1.021183e+001 -8.564614e+001 -1.633607e+001 -5.926690e+001
15548568750 -1.767987e+001 9.021108e+001 -1.006482e+001 -8.743964e+001 -1.022713e+001 -8.781445e+001 -1.651520e+001 -6.077650e+001
15567312500 -1.784282e+001 8.744403e+001 -1.007927e+001 -8.965575e+001 -1.024069e+001 -8.996671e+001 -1.669615e+001 -6.234082e+001
15586056250 -1.801227e+001 8.468038e+001 -1.009626e+001 -9.180048e+001 -1.025844e+001 -9.211884e+001 -1.688792e+001 -6.388823e+001
15604800000 -1.816408e+001 8.174347e+001 -1.011578e+001 -9.398605e+001 -1.027495e+001 -9.429282e+001 -1.708875e+001 -6.547778e+001
15623543750 -1.831990e+001 7.886393e+001 -1.012918e+001 -9.617891e+001 -1.028924e+001 -9.643423e+001 -1.729969e+001 -6.705747e+001
15642287500 -1.848658e+001 7.579571e+001 -1.014849e+001 -9.832090e+001 -1.030884e+001 -9.857621e+001 -1.752003e+001 -6.853514e+001
15661031250 -1.861890e+001 7.261524e+001 -1.017070e+001 -1.005291e+002 -1.032242e+001 -1.007332e+002 -1.776158e+001 -7.004413e+001
15679775000 -1.875339e+001 6.944740e+001 -1.018635e+001 -1.027321e+002 -1.034082e+001 -1.028553e+002 -1.800913e+001 -7.163860e+001
15698518750 -1.888087e+001 6.619812e+001 -1.020758e+001 -1.048878e+002 -1.036325e+001 -1.050213e+002 -1.826610e+001 -7.320963e+001
15717262500 -1.899139e+001 6.290056e+001 -1.023096e+001 -1.071074e+002 -1.037830e+001 -1.071902e+002 -1.853222e+001 -7.478356e+001
15736006250 -1.911018e+001 5.962207e+001 -1.025104e+001 -1.093015e+002 -1.039834e+001 -1.093225e+002 -1.881933e+001 -7.635118e+001
15754750000 -1.921406e+001 5.612654e+001 -1.027685e+001 -1.114472e+002 -1.042081e+001 -1.114979e+002 -1.913055e+001 -7.785244e+001
15773493750 -1.928376e+001 5.266411e+001 -1.030443e+001 -1.136573e+002 -1.043971e+001 -1.136940e+002 -1.945806e+001 -7.948003e+001
15792237500 -1.935464e+001 4.917830e+001 -1.033130e+001 -1.158537e+002 -1.046203e+001 -1.158275e+002 -1.978851e+001 -8.110703e+001
15810981250 -1.941399e+001 4.574647e+001 -1.035748e+001 -1.180306e+002 -1.048504e+001 -1.180204e+002 -2.013850e+001 -8.269088e+001
15829725000 -1.945997e+001 4.222454e+001 -1.038421e+001 -1.202193e+002 -1.050165e+001 -1.201988e+002 -2.050677e+001 -8.425780e+001
15848468750 -1.950213e+001 3.863541e+001 -1.041376e+001 -1.224051e+002 -1.052690e+001 -1.223447e+002 -2.090419e+001 -8.580754e+001
15867212500 -1.951243e+001 3.508342e+001 -1.043980e+001 -1.245512e+002 -1.054913e+001 -1.245272e+002 -2.134301e+001 -8.726205e+001
15885956250 -1.950018e+001 3.154336e+001 -1.047498e+001 -1.267436e+002 -1.057080e+001 -1.266927e+002 -2.185180e+001 -8.884878e+001
15904700000 -1.949095e+001 2.808665e+001 -1.050290e+001 -1.289595e+002 -1.060065e+001 -1.288513e+002 -2.241265e+001 -9.068604e+001
15923443750 -1.946437e+001 2.469151e+001 -1.053390e+001 -1.311290e+002 -1.062808e+001 -1.310504e+002 -2.298125e+001 -9.244621e+001
15942187500 -1.941353e+001 2.121272e+001 -1.057436e+001 -1.333032e+002 -1.065439e+001 -1.332074e+002 -2.361172e+001 -9.388852e+001
15960931250 -1.935822e+001 1.772717e+001 -1.060794e+001 -1.354978e+002 -1.069045e+001 -1.353719e+002 -2.434308e+001 -9.541613e+001
15979675000 -1.928913e+001 1.431775e+001 -1.064206e+001 -1.376395e+002 -1.071978e+001 -1.375474e+002 -2.522849e+001 -9.714686e+001
15998418750 -1.919519e+001 1.097668e+001 -1.068285e+001 -1.398021e+002 -1.074970e+001 -1.396823e+002 -2.641560e+001 -9.915778e+001
16017162500 -1.910142e+001 7.693750e+000 -1.071383e+001 -1.420187e+002 -1.078419e+001 -1.418591e+002 -2.765213e+001 -1.055976e+002
16035906250 -1.900758e+001 4.485003e+000 -1.075350e+001 -1.441588e+002 -1.081457e+001 -1.440210e+002 -2.891389e+001 -1.126531e+002
16054650000 -1.889173e+001 1.264641e+000 -1.080015e+001 -1.463351e+002 -1.085005e+001 -1.461716e+002 -2.984163e+001 -1.218215e+002
16073393750 -1.875993e+001 -1.847190e+000 -1.083364e+001 -1.485393e+002 -1.088580e+001 -1.483634e+002 -3.045377e+001 -1.314204e+002
16092137500 -1.863077e+001 -4.874737e+000 -1.087495e+001 -1.506554e+002 -1.091911e+001 -1.505235e+002 -3.097327e+001 -1.406396e+002
16110881250 -1.847305e+001 -7.841290e+000 -1.091973e+001 -1.528402e+002 -1.095895e+001 -1.526933e+002 -3.135629e+001 -1.498812e+002
16129625000 -1.832743e+001 -1.068409e+001 -1.095648e+001 -1.550468e+002 -1.099350e+001 -1.548775e+002 -3.168163e+001 -1.588771e+002
16148368750 -1.817138e+001 -1.346907e+001 -1.100162e+001 -1.571704e+002 -1.103122e+001 -1.570355e+002 -3.198009e+001 -1.678684e+002
16167112500 -1.799045e+001 -1.626443e+001 -1.104926e+001 -1.593465e+002 -1.107014e+001 -1.591963e+002 -3.216389e+001 -1.771500e+002
16185856250 -1.781479e+001 -1.884628e+001 -1.108761e+001 -1.615220e+002 -1.110496e+001 -1.613943e+002 -3.225918e+001 1.735135e+002
16204600000 -1.764690e+001 -2.140871e+001 -1.113595e+001 -1.636455e+002 -1.114652e+001 -1.635259e+002 -3.227645e+001 1.642698e+002
16223343750 -1.746239e+001 -2.382425e+001 -1.118023e+001 -1.658130e+002 -1.119182e+001 -1.657140e+002 -3.222924e+001 1.551917e+002
16242087500 -1.729159e+001 -2.629307e+001 -1.122645e+001 -1.679457e+002 -1.123001e+001 -1.678786e+002 -3.214938e+001 1.461422e+002
16260831250 -1.711119e+001 -2.868118e+001 -1.127892e+001 -1.701123e+002 -1.127901e+001 -1.700280e+002 -3.204198e+001 1.369017e+002
16279575000 -1.692361e+001 -3.095383e+001 -1.132578e+001 -1.722899e+002 -1.132647e+001 -1.722085e+002 -3.183596e+001 1.275409e+002
16298318750 -1.673408e+001 -3.317243e+001 -1.137588e+001 -1.744361e+002 -1.137303e+001 -1.743700e+002 -3.154497e+001 1.181282e+002
16317062500 -1.655227e+001 -3.534015e+001 -1.142495e+001 -1.765829e+002 -1.142398e+001 -1.765140e+002 -3.115148e+001 1.088346e+002
16335806250 -1.636999e+001 -3.744540e+001 -1.147598e+001 -1.787080e+002 -1.146846e+001 -1.787135e+002 -3.066951e+001 9.991322e+001
16354550000 -1.618437e+001 -3.953210e+001 -1.152897e+001 1.791472e+002 -1.151546e+001 1.791323e+002 -3.016933e+001 9.097166e+001
16373293750 -1.600990e+001 -4.151043e+001 -1.157778e+001 1.770122e+002 -1.156783e+001 1.769873e+002 -2.958161e+001 8.158060e+001
16392037500 -1.582332e+001 -4.344493e+001 -1.163473e+001 1.748881e+002 -1.161402e+001 1.748065e+002 -2.884241e+001 7.221597e+001
16410781250 -1.563861e+001 -4.530167e+001 -1.168942e+001 1.727435e+002 -1.166291e+001 1.726653e+002 -2.791788e+001 6.310251e+001
16429525000 -1.546244e+001 -4.711850e+001 -1.174193e+001 1.706154e+002 -1.171957e+001 1.705142e+002 -2.665309e+001 5.431138e+001
16448268750 -1.528307e+001 -4.895975e+001 -1.180163e+001 1.685115e+002 -1.177250e+001 1.683467e+002 -2.531378e+001 5.006207e+001
16467012500 -1.510032e+001 -5.068785e+001 -1.185841e+001 1.663721e+002 -1.182532e+001 1.662180e+002 -2.393813e+001 4.644101e+001
16485756250 -1.492535e+001 -5.238257e+001 -1.191040e+001 1.642720e+002 -1.188261e+001 1.640712e+002 -2.285829e+001 4.475163e+001
16504500000 -1.474503e+001 -5.402347e+001 -1.197337e+001 1.621647e+002 -1.193446e+001 1.619300e+002 -2.205586e+001 4.347788e+001
16523243750 -1.456865e+001 -5.557647e+001 -1.203244e+001 1.600288e+002 -1.199044e+001 1.598126e+002 -2.130680e+001 4.185543e+001
16541987500 -1.440811e+001 -5.711242e+001 -1.209085e+001 1.579404e+002 -1.204869e+001 1.576758e+002 -2.065564e+001 4.038887e+001
16560731250 -1.424165e+001 -5.868383e+001 -1.215616e+001 1.558540e+002 -1.210585e+001 1.555351e+002 -2.004589e+001 3.874848e+001
16579475000 -1.408074e+001 -6.018092e+001 -1.221657e+001 1.537386e+002 -1.216515e+001 1.534157e+002 -1.945319e+001 3.704615e+001
16598218750 -1.392515e+001 -6.165642e+001 -1.227344e+001 1.516682e+002 -1.223078e+001 1.512866e+002 -1.892669e+001 3.555701e+001
16616962500 -1.376180e+001 -6.311003e+001 -1.234030e+001 1.495635e+002 -1.229132e+001 1.491712e+002 -1.843726e+001 3.405074e+001
16635706250 -1.360691e+001 -6.449139e+001 -1.239680e+001 1.474742e+002 -1.235357e+001 1.470551e+002 -1.798240e+001 3.263725e+001
16654450000 -1.346116e+001 -6.591005e+001 -1.246197e+001 1.454179e+002 -1.241780e+001 1.449409e+002 -1.756249e+001 3.115701e+001
16673193750 -1.330643e+001 -6.729572e+001 -1.252994e+001 1.433117e+002 -1.248076e+001 1.428211e+002 -1.715298e+001 2.963876e+001
16691937500 -1.315850e+001 -6.865636e+001 -1.258864e+001 1.412581e+002 -1.254381e+001 1.407330e+002 -1.674409e+001 2.823153e+001
16710681250 -1.301271e+001 -6.998618e+001 -1.265672e+001 1.392214e+002 -1.260878e+001 1.386229e+002 -1.637791e+001 2.685080e+001
16729425000 -1.286409e+001 -7.125764e+001 -1.272590e+001 1.371301e+002 -1.267122e+001 1.365329e+002 -1.602492e+001 2.544802e+001
16748168750 -1.273088e+001 -7.251124e+001 -1.278902e+001 1.351105e+002 -1.273675e+001 1.344491e+002 -1.568623e+001 2.410864e+001
16766912500 -1.259248e+001 -7.383339e+001 -1.286313e+001 1.330665e+002 -1.280813e+001 1.323643e+002 -1.536656e+001 2.277891e+001
16785656250 -1.245705e+001 -7.508834e+001 -1.292963e+001 1.309814e+002 -1.287572e+001 1.302843e+002 -1.505283e+001 2.140421e+001
16804400000 -1.232190e+001 -7.636321e+001 -1.299753e+001 1.289764e+002 -1.294300e+001 1.282108e+002 -1.475199e+001 2.009421e+001
16823143750 -1.218940e+001 -7.763281e+001 -1.306708e+001 1.269451e+002 -1.301614e+001 1.261406e+002 -1.447066e+001 1.879213e+001
16841887500 -1.205790e+001 -7.881283e+001 -1.313343e+001 1.248779e+002 -1.308215e+001 1.240797e+002 -1.419198e+001 1.746633e+001
16860631250 -1.193613e+001 -8.000546e+001 -1.320028e+001 1.228724e+002 -1.315156e+001 1.220125e+002 -1.392865e+001 1.620875e+001
16879375000 -1.181252e+001 -8.121605e+001 -1.327628e+001 1.208348e+002 -1.322276e+001 1.199526e+002 -1.367531e+001 1.495160e+001
16898118750 -1.169300e+001 -8.240621e+001 -1.334317e+001 1.187941e+002 -1.329754e+001 1.179099e+002 -1.342601e+001 1.368115e+001
16916862500 -1.157525e+001 -8.360056e+001 -1.341383e+001 1.167903e+002 -1.337010e+001 1.158690e+002 -1.319204e+001 1.250005e+001
16935606250 -1.145343e+001 -8.476842e+001 -1.348779e+001 1.147599e+002 -1.344468e+001 1.138176e+002 -1.296994e+001 1.125529e+001
16954350000 -1.133824e+001 -8.591589e+001 -1.355288e+001 1.127391e+002 -1.352150e+001 1.117587e+002 -1.274705e+001 1.002905e+001
16973093750 -1.122858e+001 -8.707947e+001 -1.362639e+001 1.107699e+002 -1.359466e+001 1.097175e+002 -1.253365e+001 8.834246e+000
16991837500 -1.111524e+001 -8.823523e+001 -1.370256e+001 1.087545e+002 -1.366967e+001 1.076923e+002 -1.232453e+001 7.640402e+000
17010581250 -1.100334e+001 -8.937672e+001 -1.376858e+001 1.067626e+002 -1.374554e+001 1.056619e+002 -1.211955e+001 6.464454e+000
17029325000 -1.089553e+001 -9.055437e+001 -1.384557e+001 1.047987e+002 -1.381662e+001 1.036289e+002 -1.192539e+001 5.312693e+000
17048068750 -1.078561e+001 -9.166062e+001 -1.391915e+001 1.027740e+002 -1.389519e+001 1.016254e+002 -1.174095e+001 4.160347e+000
17066812500 -1.068757e+001 -9.274155e+001 -1.398714e+001 1.007974e+002 -1.397093e+001 9.960802e+001 -1.155510e+001 2.997516e+000
17085556250 -1.058959e+001 -9.386467e+001 -1.406601e+001 9.886433e+001 -1.404706e+001 9.760921e+001 -1.138265e+001 1.880114e+000
17104300000 -1.048884e+001 -9.496689e+001 -1.413965e+001 9.685077e+001 -1.412738e+001 9.563425e+001 -1.121311e+001 7.455417e-001
17123043750 -1.039437e+001 -9.606548e+001 -1.421319e+001 9.488101e+001 -1.420584e+001 9.363787e+001 -1.104463e+001 -3.592601e-001
17141787500 -1.029903e+001 -9.716751e+001 -1.429352e+001 9.293021e+001 -1.428256e+001 9.164395e+001 -1.088433e+001 -1.444021e+000
17160531250 -1.020551e+001 -9.823450e+001 -1.436867e+001 9.092105e+001 -1.436169e+001 8.965925e+001 -1.073132e+001 -2.517345e+000
17179275000 -1.011997e+001 -9.930143e+001 -1.443848e+001 8.897926e+001 -1.443472e+001 8.765606e+001 -1.057293e+001 -3.607556e+000
17198018750 -1.003416e+001 -1.003929e+002 -1.451751e+001 8.703857e+001 -1.451222e+001 8.570665e+001 -1.042414e+001 -4.689160e+000
17216762500 -9.945382e+000 -1.014707e+002 -1.458985e+001 8.506234e+001 -1.459239e+001 8.373344e+001 -1.027983e+001 -5.781760e+000
17235506250 -9.868021e+000 -1.025407e+002 -1.466373e+001 8.311900e+001 -1.466846e+001 8.175934e+001 -1.013785e+001 -6.829078e+000
17254250000 -9.783866e+000 -1.035895e+002 -1.474423e+001 8.117164e+001 -1.474588e+001 7.981493e+001 -1.000273e+001 -7.882218e+000
17272993750 -9.704844e+000 -1.046014e+002 -1.481593e+001 7.920833e+001 -1.482899e+001 7.787028e+001 -9.870539e+000 -8.948959e+000
17291737500 -9.635872e+000 -1.056644e+002 -1.489538e+001 7.730441e+001 -1.490387e+001 7.591727e+001 -9.737854e+000 -1.000405e+001
17310481250 -9.563322e+000 -1.067355e+002 -1.497293e+001 7.534975e+001 -1.498296e+001 7.398770e+001 -9.611873e+000 -1.106355e+001
17329225000 -9.490232e+000 -1.077660e+002 -1.504245e+001 7.341619e+001 -1.506414e+001 7.202595e+001 -9.486930e+000 -1.211930e+001
17347968750 -9.420630e+000 -1.088132e+002 -1.511920e+001 7.150354e+001 -1.513729e+001 7.008760e+001 -9.366001e+000 -1.315219e+001
17366712500 -9.353300e+000 -1.098524e+002 -1.519700e+001 6.955975e+001 -1.522099e+001 6.817106e+001 -9.247817e+000 -1.417830e+001
17385456250 -9.291176e+000 -1.108253e+002 -1.527071e+001 6.764240e+001 -1.530081e+001 6.622556e+001 -9.131600e+000 -1.522359e+001
17404200000 -9.231283e+000 -1.118794e+002 -1.534585e+001 6.574859e+001 -1.537523e+001 6.431674e+001 -9.017362e+000 -1.626483e+001
17422943750 -9.170070e+000 -1.129115e+002 -1.542055e+001 6.379900e+001 -1.546165e+001 6.240582e+001 -8.907652e+000 -1.730737e+001
17441687500 -9.112823e+000 -1.139200e+002 -1.549749e+001 6.189218e+001 -1.554013e+001 6.045650e+001 -8.797791e+000 -1.834465e+001
17460431250 -9.054701e+000 -1.149076e+002 -1.557569e+001 5.999358e+001 -1.561914e+001 5.854860e+001 -8.694284e+000 -1.936415e+001
17479175000 -8.998981e+000 -1.158990e+002 -1.565352e+001 5.808030e+001 -1.570533e+001 5.664522e+001 -8.593276e+000 -2.038306e+001
17497918750 -8.945704e+000 -1.168723e+002 -1.572850e+001 5.618293e+001 -1.578514e+001 5.469455e+001 -8.498357e+000 -2.142311e+001
17516662500 -8.899565e+000 -1.179128e+002 -1.580258e+001 5.425142e+001 -1.585887e+001 5.279599e+001 -8.399629e+000 -2.246483e+001
17535406250 -8.847345e+000 -1.189272e+002 -1.587889e+001 5.234904e+001 -1.594249e+001 5.086964e+001 -8.307076e+000 -2.349690e+001
17554150000 -8.799976e+000 -1.198929e+002 -1.595660e+001 5.047063e+001 -1.601715e+001 4.892974e+001 -8.215939e+000 -2.454268e+001
17572893750 -8.754688e+000 -1.208674e+002 -1.603312e+001 4.857377e+001 -1.609564e+001 4.704466e+001 -8.125224e+000 -2.556345e+001
17591637500 -8.709341e+000 -1.218135e+002 -1.610478e+001 4.665501e+001 -1.618027e+001 4.515892e+001 -8.040071e+000 -2.660277e+001
17610381250 -8.674884e+000 -1.227432e+002 -1.618328e+001 4.474959e+001 -1.626269e+001 4.322761e+001 -7.959220e+000 -2.765402e+001
17629125000 -8.638770e+000 -1.237130e+002 -1.625865e+001 4.285295e+001 -1.634280e+001 4.134144e+001 -7.877607e+000 -2.869054e+001
17647868750 -8.600141e+000 -1.246678e+002 -1.633380e+001 4.096595e+001 -1.642808e+001 3.943848e+001 -7.798312e+000 -2.973007e+001
17666612500 -8.560239e+000 -1.255763e+002 -1.641147e+001 3.909432e+001 -1.650755e+001 3.752271e+001 -7.718948e+000 -3.077675e+001
17685356250 -8.524923e+000 -1.265073e+002 -1.648812e+001 3.718072e+001 -1.658566e+001 3.565464e+001 -7.643379e+000 -3.179640e+001
17704100000 -8.492558e+000 -1.274023e+002 -1.656781e+001 3.529595e+001 -1.666862e+001 3.372326e+001 -7.572406e+000 -3.284240e+001
17722843750 -8.467506e+000 -1.282982e+002 -1.664423e+001 3.337899e+001 -1.674744e+001 3.179782e+001 -7.503685e+000 -3.388865e+001
17741587500 -8.439989e+000 -1.292170e+002 -1.671920e+001 3.148240e+001 -1.683052e+001 2.993426e+001 -7.433686e+000 -3.493540e+001
17760331250 -8.410633e+000 -1.301250e+002 -1.679875e+001 2.959273e+001 -1.691362e+001 2.802780e+001 -7.368177e+000 -3.598180e+001
17779075000 -8.385111e+000 -1.309858e+002 -1.687624e+001 2.771134e+001 -1.699088e+001 2.611747e+001 -7.303476e+000 -3.702027e+001
17797818750 -8.357607e+000 -1.318566e+002 -1.695746e+001 2.584745e+001 -1.707149e+001 2.421038e+001 -7.242441e+000 -3.805127e+001
17816562500 -8.335459e+000 -1.327031e+002 -1.703746e+001 2.396261e+001 -1.715517e+001 2.233051e+001 -7.186703e+000 -3.908561e+001
17835306250 -8.323792e+000 -1.335351e+002 -1.711463e+001 2.202063e+001 -1.723571e+001 2.042439e+001 -7.130519e+000 -4.012996e+001
17854050000 -8.309517e+000 -1.344087e+002 -1.719490e+001 2.014277e+001 -1.731383e+001 1.855277e+001 -7.074343e+000 -4.114997e+001
17872793750 -8.293238e+000 -1.352604e+002 -1.726942e+001 1.825207e+001 -1.739850e+001 1.667079e+001 -7.022791e+000 -4.218233e+001
17891537500 -8.282030e+000 -1.360931e+002 -1.734753e+001 1.634987e+001 -1.747130e+001 1.479208e+001 -6.968143e+000 -4.319753e+001
17910281250 -8.266571e+000 -1.369131e+002 -1.742341e+001 1.443505e+001 -1.755072e+001 1.290167e+001 -6.921564e+000 -4.419923e+001
17929025000 -8.255512e+000 -1.376922e+002 -1.750602e+001 1.250505e+001 -1.763397e+001 1.100664e+001 -6.874652e+000 -4.520645e+001
17947768750 -8.254196e+000 -1.384824e+002 -1.758021e+001 1.060138e+001 -1.771324e+001 9.132594e+000 -6.829629e+000 -4.622424e+001
17966512500 -8.249864e+000 -1.393238e+002 -1.765679e+001 8.716102e+000 -1.779109e+001 7.262061e+000 -6.784743e+000 -4.722093e+001
17985256250 -8.242311e+000 -1.401051e+002 -1.773591e+001 6.793819e+000 -1.787557e+001 5.306218e+000 -6.742127e+000 -4.822602e+001
18004000000 -8.235207e+000 -1.408878e+002 -1.781034e+001 4.870233e+000 -1.795339e+001 3.432528e+000 -6.703022e+000 -4.921473e+001
18022743750 -8.228281e+000 -1.416525e+002 -1.789139e+001 2.982659e+000 -1.803433e+001 1.507589e+000 -6.664921e+000 -5.019117e+001
18041487500 -8.223694e+000 -1.423849e+002 -1.796799e+001 1.023889e+000 -1.811231e+001 -4.106853e-001 -6.629330e+000 -5.116909e+001
18060231250 -8.229244e+000 -1.431190e+002 -1.804253e+001 -9.350889e-001 -1.819394e+001 -2.323476e+000 -6.594110e+000 -5.216146e+001
18078975000 -8.230622e+000 -1.438784e+002 -1.812573e+001 -2.858060e+000 -1.827754e+001 -4.251342e+000 -6.558136e+000 -5.312270e+001
18097718750 -8.230798e+000 -1.446113e+002 -1.820271e+001 -4.819717e+000 -1.835802e+001 -6.203371e+000 -6.524522e+000 -5.409465e+001
18116462500 -8.231260e+000 -1.453362e+002 -1.827683e+001 -6.759670e+000 -1.844214e+001 -8.133134e+000 -6.492191e+000 -5.506159e+001
18135206250 -8.228754e+000 -1.460380e+002 -1.835503e+001 -8.688174e+000 -1.853086e+001 -1.006929e+001 -6.464723e+000 -5.600150e+001
18153950000 -8.234602e+000 -1.466657e+002 -1.843321e+001 -1.067505e+001 -1.861254e+001 -1.202607e+001 -6.435677e+000 -5.695656e+001
18172693750 -8.248034e+000 -1.473370e+002 -1.850682e+001 -1.264710e+001 -1.869607e+001 -1.397316e+001 -6.410833e+000 -5.789756e+001
18191437500 -8.256208e+000 -1.480130e+002 -1.859075e+001 -1.461589e+001 -1.877655e+001 -1.595863e+001 -6.383473e+000 -5.882698e+001
18210181250 -8.262145e+000 -1.486647e+002 -1.867184e+001 -1.661906e+001 -1.885896e+001 -1.794765e+001 -6.357753e+000 -5.976409e+001
18228925000 -8.270934e+000 -1.493107e+002 -1.874244e+001 -1.860986e+001 -1.894178e+001 -1.989506e+001 -6.332821e+000 -6.066252e+001
18247668750 -8.275870e+000 -1.499028e+002 -1.882976e+001 -2.059613e+001 -1.902724e+001 -2.189035e+001 -6.308511e+000 -6.158880e+001
18266412500 -8.288798e+000 -1.504510e+002 -1.891022e+001 -2.260625e+001 -1.911280e+001 -2.390248e+001 -6.288484e+000 -6.251376e+001
18285156250 -8.305375e+000 -1.510389e+002 -1.898779e+001 -2.460279e+001 -1.920275e+001 -2.592397e+001 -6.267740e+000 -6.342495e+001
18303900000 -8.314748e+000 -1.516154e+002 -1.908021e+001 -2.666099e+001 -1.929062e+001 -2.797466e+001 -6.249600e+000 -6.432867e+001
18322643750 -8.324555e+000 -1.521481e+002 -1.915934e+001 -2.873230e+001 -1.938309e+001 -2.998755e+001 -6.231027e+000 -6.524252e+001
18341387500 -8.336021e+000 -1.526763e+002 -1.924516e+001 -3.072917e+001 -1.947733e+001 -3.201503e+001 -6.210547e+000 -6.612849e+001
18360131250 -8.349943e+000 -1.531654e+002 -1.933439e+001 -3.278541e+001 -1.956846e+001 -3.409125e+001 -6.191414e+000 -6.702795e+001
18378875000 -8.366035e+000 -1.535925e+002 -1.942611e+001 -3.489034e+001 -1.966251e+001 -3.615034e+001 -6.174734e+000 -6.792119e+001
18397618750 -8.387286e+000 -1.540628e+002 -1.951889e+001 -3.696659e+001 -1.976092e+001 -3.820889e+001 -6.157286e+000 -6.880950e+001
18416362500 -8.401093e+000 -1.545431e+002 -1.961561e+001 -3.906785e+001 -1.985600e+001 -4.030627e+001 -6.140628e+000 -6.968208e+001
18435106250 -8.415649e+000 -1.549837e+002 -1.970489e+001 -4.119577e+001 -1.995317e+001 -4.238486e+001 -6.125690e+000 -7.055220e+001
18453850000 -8.430794e+000 -1.554010e+002 -1.980685e+001 -4.328973e+001 -2.005608e+001 -4.450049e+001 -6.112018e+000 -7.141814e+001
18472593750 -8.442932e+000 -1.557525e+002 -1.991136e+001 -4.543425e+001 -2.016087e+001 -4.663585e+001 -6.097755e+000 -7.229030e+001
18491337500 -8.462694e+000 -1.560999e+002 -2.001219e+001 -4.757459e+001 -2.026814e+001 -4.874119e+001 -6.083725e+000 -7.313921e+001
18510081250 -8.482196e+000 -1.564760e+002 -2.012005e+001 -4.971439e+001 -2.037551e+001 -5.087205e+001 -6.073669e+000 -7.399800e+001
18528825000 -8.496809e+000 -1.568364e+002 -2.022847e+001 -5.194593e+001 -2.048800e+001 -5.298703e+001 -6.061310e+000 -7.484511e+001
18547568750 -8.508614e+000 -1.571544e+002 -2.032890e+001 -5.410328e+001 -2.060329e+001 -5.514632e+001 -6.047097e+000 -7.568106e+001
18566312500 -8.519417e+000 -1.574590e+002 -2.044703e+001 -5.630131e+001 -2.071173e+001 -5.733298e+001 -6.033761e+000 -7.650874e+001
18585056250 -8.526882e+000 -1.577114e+002 -2.056296e+001 -5.854072e+001 -2.083013e+001 -5.951421e+001 -6.023884e+000 -7.734929e+001
18603800000 -8.541102e+000 -1.579368e+002 -2.067957e+001 -6.073150e+001 -2.095331e+001 -6.169905e+001 -6.012419e+000 -7.817893e+001
18622543750 -8.553886e+000 -1.582015e+002 -2.080677e+001 -6.294347e+001 -2.107943e+001 -6.391029e+001 -6.001804e+000 -7.900053e+001
18641287500 -8.559541e+000 -1.584592e+002 -2.093568e+001 -6.524520e+001 -2.121161e+001 -6.611513e+001 -5.991926e+000 -7.983556e+001
18660031250 -8.561428e+000 -1.586894e+002 -2.106541e+001 -6.747680e+001 -2.134332e+001 -6.830521e+001 -5.979143e+000 -8.065348e+001
18678775000 -8.557400e+000 -1.588936e+002 -2.120518e+001 -6.971745e+001 -2.147440e+001 -7.057514e+001 -5.971417e+000 -8.144647e+001
18697518750 -8.548391e+000 -1.590406e+002 -2.134440e+001 -7.198866e+001 -2.161002e+001 -7.277145e+001 -5.960389e+000 -8.226408e+001
18716262500 -8.546855e+000 -1.591680e+002 -2.148372e+001 -7.423745e+001 -2.175394e+001 -7.499480e+001 -5.947886e+000 -8.305309e+001
18735006250 -8.543364e+000 -1.593594e+002 -2.163320e+001 -7.653136e+001 -2.190536e+001 -7.723424e+001 -5.936541e+000 -8.383478e+001
18753750000 -8.530157e+000 -1.595367e+002 -2.177853e+001 -7.884551e+001 -2.205276e+001 -7.950951e+001 -5.927420e+000 -8.462447e+001
18772493750 -8.512612e+000 -1.596880e+002 -2.192695e+001 -8.110043e+001 -2.220329e+001 -8.175308e+001 -5.917648e+000 -8.540095e+001
18791237500 -8.486624e+000 -1.598381e+002 -2.209509e+001 -8.337170e+001 -2.236234e+001 -8.396585e+001 -5.910318e+000 -8.618878e+001
18809981250 -8.458743e+000 -1.599338e+002 -2.224792e+001 -8.567426e+001 -2.253230e+001 -8.623766e+001 -5.903486e+000 -8.697202e+001
18828725000 -8.436909e+000 -1.600187e+002 -2.241347e+001 -8.796574e+001 -2.270219e+001 -8.857846e+001 -5.894287e+000 -8.774073e+001
18847468750 -8.411029e+000 -1.601498e+002 -2.258677e+001 -9.028577e+001 -2.287302e+001 -9.082766e+001 -5.888024e+000 -8.852554e+001
18866212500 -8.377949e+000 -1.602789e+002 -2.276190e+001 -9.256598e+001 -2.305533e+001 -9.306065e+001 -5.879251e+000 -8.932372e+001
18884956250 -8.337682e+000 -1.604264e+002 -2.294299e+001 -9.478474e+001 -2.323087e+001 -9.538427e+001 -5.869846e+000 -9.007442e+001
18903700000 -8.289314e+000 -1.605587e+002 -2.312740e+001 -9.707758e+001 -2.341568e+001 -9.760691e+001 -5.864248e+000 -9.084924e+001
18922443750 -8.238186e+000 -1.606426e+002 -2.331777e+001 -9.932218e+001 -2.361385e+001 -9.988714e+001 -5.856608e+000 -9.162936e+001
18941187500 -8.193147e+000 -1.607414e+002 -2.351846e+001 -1.015878e+002 -2.380437e+001 -1.020917e+002 -5.849475e+000 -9.238779e+001
18959931250 -8.144667e+000 -1.608938e+002 -2.371337e+001 -1.038883e+002 -2.399738e+001 -1.043705e+002 -5.843626e+000 -9.317080e+001
18978675000 -8.091595e+000 -1.610741e+002 -2.392065e+001 -1.061610e+002 -2.419280e+001 -1.065945e+002 -5.839633e+000 -9.395284e+001
18997418750 -8.031876e+000 -1.612776e+002 -2.412860e+001 -1.083729e+002 -2.440943e+001 -1.087852e+002 -5.833666e+000 -9.471997e+001
19016162500 -7.961212e+000 -1.614720e+002 -2.433692e+001 -1.106305e+002 -2.461790e+001 -1.109998e+002 -5.828701e+000 -9.550557e+001
19034906250 -7.892093e+000 -1.616445e+002 -2.455304e+001 -1.127524e+002 -2.483895e+001 -1.132621e+002 -5.823437e+000 -9.627079e+001
19053650000 -7.826634e+000 -1.618509e+002 -2.476897e+001 -1.149371e+002 -2.505526e+001 -1.154811e+002 -5.818435e+000 -9.703828e+001
19072393750 -7.760149e+000 -1.620925e+002 -2.498663e+001 -1.171387e+002 -2.527976e+001 -1.176619e+002 -5.817067e+000 -9.781380e+001
19091137500 -7.690799e+000 -1.623528e+002 -2.520968e+001 -1.192643e+002 -2.551799e+001 -1.199100e+002 -5.813759e+000 -9.859344e+001
19109881250 -7.618201e+000 -1.626786e+002 -2.544274e+001 -1.215254e+002 -2.574920e+001 -1.220623e+002 -5.811207e+000 -9.936309e+001
19128625000 -7.540395e+000 -1.629892e+002 -2.568061e+001 -1.237030e+002 -2.600259e+001 -1.242332e+002 -5.808076e+000 -1.001407e+002
19147368750 -7.463562e+000 -1.632888e+002 -2.593008e+001 -1.258033e+002 -2.625312e+001 -1.263771e+002 -5.809012e+000 -1.009411e+002
19166112500 -7.391602e+000 -1.636120e+002 -2.618299e+001 -1.278877e+002 -2.648947e+001 -1.285071e+002 -5.810789e+000 -1.017191e+002
19184856250 -7.317585e+000 -1.639830e+002 -2.644153e+001 -1.299432e+002 -2.675887e+001 -1.305610e+002 -5.811591e+000 -1.025134e+002
19203600000 -7.246731e+000 -1.643912e+002 -2.672052e+001 -1.320364e+002 -2.702584e+001 -1.326525e+002 -5.813200e+000 -1.033062e+002
19222343750 -7.170249e+000 -1.648336e+002 -2.698507e+001 -1.341774e+002 -2.727912e+001 -1.347545e+002 -5.817349e+000 -1.040834e+002
19241087500 -7.087387e+000 -1.652790e+002 -2.726295e+001 -1.361949e+002 -2.753614e+001 -1.368483e+002 -5.822718e+000 -1.048833e+002
19259831250 -7.008125e+000 -1.657091e+002 -2.753558e+001 -1.382133e+002 -2.780954e+001 -1.389331e+002 -5.825723e+000 -1.056657e+002
19278575000 -6.933917e+000 -1.661769e+002 -2.781019e+001 -1.402603e+002 -2.807892e+001 -1.409003e+002 -5.831235e+000 -1.064536e+002
19297318750 -6.860187e+000 -1.666663e+002 -2.810635e+001 -1.422637e+002 -2.836795e+001 -1.429515e+002 -5.839286e+000 -1.072497e+002
19316062500 -6.791509e+000 -1.671938e+002 -2.838883e+001 -1.441863e+002 -2.866476e+001 -1.449482e+002 -5.846610e+000 -1.080596e+002
19334806250 -6.716940e+000 -1.677706e+002 -2.867512e+001 -1.461630e+002 -2.894632e+001 -1.468204e+002 -5.858963e+000 -1.088585e+002
19353550000 -6.640084e+000 -1.683011e+002 -2.895246e+001 -1.480301e+002 -2.922957e+001 -1.487389e+002 -5.870856e+000 -1.096789e+002
19372293750 -6.569349e+000 -1.688556e+002 -2.923003e+001 -1.499897e+002 -2.951081e+001 -1.507870e+002 -5.879835e+000 -1.104935e+002
19391037500 -6.498159e+000 -1.694204e+002 -2.952983e+001 -1.519788e+002 -2.979941e+001 -1.526811e+002 -5.892388e+000 -1.112928e+002
19409781250 -6.432235e+000 -1.699988e+002 -2.983314e+001 -1.538773e+002 -3.009872e+001 -1.547130e+002 -5.905086e+000 -1.121056e+002
19428525000 -6.367721e+000 -1.706329e+002 -3.014828e+001 -1.557863e+002 -3.038521e+001 -1.565576e+002 -5.918071e+000 -1.129217e+002
19447268750 -6.299847e+000 -1.712837e+002 -3.044850e+001 -1.576486e+002 -3.068483e+001 -1.584001e+002 -5.935446e+000 -1.137295e+002
19466012500 -6.231274e+000 -1.718841e+002 -3.076470e+001 -1.595503e+002 -3.099512e+001 -1.602191e+002 -5.951923e+000 -1.145672e+002
19484756250 -6.170554e+000 -1.725103e+002 -3.105214e+001 -1.614566e+002 -3.131530e+001 -1.618763e+002 -5.973856e+000 -1.154030e+002
19503500000 -6.108862e+000 -1.731582e+002 -3.136393e+001 -1.631438e+002 -3.161689e+001 -1.636187e+002 -5.995744e+000 -1.162431e+002
19522243750 -6.052236e+000 -1.738029e+002 -3.166145e+001 -1.649770e+002 -3.193020e+001 -1.653449e+002 -6.018010e+000 -1.171131e+002
19540987500 -5.998709e+000 -1.744796e+002 -3.195151e+001 -1.667383e+002 -3.222967e+001 -1.671281e+002 -6.040841e+000 -1.179634e+002
19559731250 -5.933667e+000 -1.751669e+002 -3.224340e+001 -1.685000e+002 -3.253019e+001 -1.688832e+002 -6.069902e+000 -1.188285e+002
19578475000 -5.874080e+000 -1.758197e+002 -3.253876e+001 -1.704587e+002 -3.282357e+001 -1.705930e+002 -6.095935e+000 -1.196997e+002
19597218750 -5.820126e+000 -1.764743e+002 -3.281857e+001 -1.722143e+002 -3.313464e+001 -1.724034e+002 -6.125004e+000 -1.205749e+002
19615962500 -5.767905e+000 -1.771503e+002 -3.312146e+001 -1.742443e+002 -3.343728e+001 -1.741620e+002 -6.156708e+000 -1.214640e+002
19634706250 -5.718523e+000 -1.778334e+002 -3.339872e+001 -1.761031e+002 -3.374966e+001 -1.762397e+002 -6.188103e+000 -1.223703e+002
19653450000 -5.669927e+000 -1.785615e+002 -3.369402e+001 -1.781146e+002 -3.407313e+001 -1.778944e+002 -6.220495e+000 -1.232746e+002
19672193750 -5.616462e+000 -1.792597e+002 -3.398382e+001 1.799422e+002 -3.440827e+001 -1.799417e+002 -6.258474e+000 -1.241973e+002
19690937500 -5.568616e+000 -1.799335e+002 -3.430517e+001 1.777871e+002 -3.470003e+001 1.781340e+002 -6.298148e+000 -1.251362e+002
19709681250 -5.523440e+000 1.793557e+002 -3.460947e+001 1.755687e+002 -3.502377e+001 1.762846e+002 -6.342751e+000 -1.260764e+002
19728425000 -5.478050e+000 1.786745e+002 -3.488994e+001 1.734249e+002 -3.532533e+001 1.742459e+002 -6.387905e+000 -1.270178e+002
19747168750 -5.440606e+000 1.779622e+002 -3.521680e+001 1.712020e+002 -3.560957e+001 1.723580e+002 -6.433456e+000 -1.279828e+002
19765912500 -5.400333e+000 1.772085e+002 -3.550350e+001 1.688377e+002 -3.593336e+001 1.702148e+002 -6.479464e+000 -1.289370e+002
19784656250 -5.353458e+000 1.764920e+002 -3.580626e+001 1.666437e+002 -3.625544e+001 1.681228e+002 -6.533078e+000 -1.299066e+002
19803400000 -5.306813e+000 1.758108e+002 -3.623304e+001 1.646007e+002 -3.657660e+001 1.661089e+002 -6.590364e+000 -1.308855e+002
19822143750 -5.273131e+000 1.751103e+002 -3.659737e+001 1.624379e+002 -3.690264e+001 1.639526e+002 -6.649185e+000 -1.318792e+002
19840887500 -5.235957e+000 1.743877e+002 -3.694955e+001 1.606777e+002 -3.722695e+001 1.617271e+002 -6.712353e+000 -1.328734e+002
19859631250 -5.197933e+000 1.736911e+002 -3.744609e+001 1.584237e+002 -3.751708e+001 1.588188e+002 -6.772650e+000 -1.338958e+002
19878375000 -5.159850e+000 1.729376e+002 -3.782047e+001 1.558510e+002 -3.785983e+001 1.563969e+002 -6.843942e+000 -1.349242e+002
19897118750 -5.125984e+000 1.721997e+002 -3.818954e+001 1.523567e+002 -3.822366e+001 1.534366e+002 -6.923142e+000 -1.359616e+002
19915862500 -5.089778e+000 1.714897e+002 -3.869626e+001 1.493604e+002 -3.851262e+001 1.504379e+002 -7.003093e+000 -1.369695e+002
19934606250 -5.057445e+000 1.708048e+002 -3.898542e+001 1.459905e+002 -3.880583e+001 1.470881e+002 -7.084818e+000 -1.380206e+002
19953350000 -5.030491e+000 1.700948e+002 -3.939234e+001 1.430224e+002 -3.916614e+001 1.441649e+002 -7.176067e+000 -1.390605e+002
19972093750 -5.001961e+000 1.693298e+002 -3.967455e+001 1.398620e+002 -3.947809e+001 1.407583e+002 -7.271495e+000 -1.400930e+002
19990837500 -4.971992e+000 1.685769e+002 -4.016393e+001 1.357030e+002 -3.983896e+001 1.370579e+002 -7.369572e+000 -1.411359e+002
20009581250 -4.946126e+000 1.678494e+002 -4.047337e+001 1.327425e+002 -4.016980e+001 1.339630e+002 -7.481211e+000 -1.422112e+002
20028325000 -4.918024e+000 1.670929e+002 -4.078920e+001 1.288181e+002 -4.060765e+001 1.302711e+002 -7.590945e+000 -1.432913e+002
20047068750 -4.888753e+000 1.663882e+002 -4.111740e+001 1.257802e+002 -4.097886e+001 1.263194e+002 -7.714270e+000 -1.444069e+002
20065812500 -4.867258e+000 1.656571e+002 -4.155158e+001 1.218673e+002 -4.128577e+001 1.239176e+002 -7.845324e+000 -1.455629e+002
20084556250 -4.845516e+000 1.649081e+002 -4.187674e+001 1.175731e+002 -4.164955e+001 1.192712e+002 -7.981865e+000 -1.467219e+002
20103300000 -4.820501e+000 1.641765e+002 -4.216995e+001 1.140377e+002 -4.198780e+001 1.146114e+002 -8.125810e+000 -1.478063e+002
20122043750 -4.797865e+000 1.634283e+002 -4.230175e+001 1.100780e+002 -4.236829e+001 1.103901e+002 -8.287091e+000 -1.489606e+002
20140787500 -4.775514e+000 1.627157e+002 -4.264671e+001 1.055806e+002 -4.256329e+001 1.055440e+002 -8.453408e+000 -1.501279e+002
20159531250 -4.755414e+000 1.620068e+002 -4.303933e+001 1.027715e+002 -4.270721e+001 1.007185e+002 -8.632290e+000 -1.513169e+002
20178275000 -4.736935e+000 1.612634e+002 -4.330106e+001 9.889670e+001 -4.307992e+001 9.572884e+001 -8.828401e+000 -1.525042e+002
20197018750 -4.716010e+000 1.605378e+002 -4.357980e+001 9.501624e+001 -4.335490e+001 8.957830e+001 -9.030085e+000 -1.536930e+002
20215762500 -4.696971e+000 1.597937e+002 -4.383331e+001 8.935139e+001 -4.360152e+001 8.418840e+001 -9.245391e+000 -1.548802e+002
20234506250 -4.684443e+000 1.590474e+002 -4.403214e+001 8.361101e+001 -4.389955e+001 7.871979e+001 -9.490129e+000 -1.560579e+002
20253250000 -4.659621e+000 1.583115e+002 -4.409679e+001 7.816820e+001 -4.409693e+001 7.481624e+001 -9.746246e+000 -1.572767e+002
20271993750 -4.642172e+000 1.576416e+002 -4.423356e+001 7.175018e+001 -4.426861e+001 7.039651e+001 -1.002449e+001 -1.584565e+002
20290737500 -4.637360e+000 1.568761e+002 -4.419537e+001 6.615360e+001 -4.446147e+001 6.596635e+001 -1.032131e+001 -1.596418e+002
20309481250 -4.625061e+000 1.561280e+002 -4.423137e+001 6.167122e+001 -4.462539e+001 6.206784e+001 -1.063072e+001 -1.607144e+002
20328225000 -4.604564e+000 1.553883e+002 -4.430452e+001 5.727914e+001 -4.471907e+001 5.662721e+001 -1.097506e+001 -1.617343e+002
20346968750 -4.591690e+000 1.546809e+002 -4.425590e+001 5.176706e+001 -4.492952e+001 5.066711e+001 -1.135176e+001 -1.627686e+002
20365712500 -4.575570e+000 1.539390e+002 -4.437814e+001 4.547438e+001 -4.512772e+001 4.641982e+001 -1.176669e+001 -1.637557e+002
20384456250 -4.563789e+000 1.532485e+002 -4.433698e+001 4.053618e+001 -4.548324e+001 4.122249e+001 -1.221838e+001 -1.646233e+002
20403200000 -4.559203e+000 1.525408e+002 -4.450551e+001 3.537062e+001 -4.548262e+001 3.658638e+001 -1.270567e+001 -1.653596e+002
20421943750 -4.551013e+000 1.517834e+002 -4.450637e+001 3.128087e+001 -4.537329e+001 3.227732e+001 -1.323626e+001 -1.658057e+002
20440687500 -4.533329e+000 1.510653e+002 -4.449941e+001 2.566437e+001 -4.523426e+001 2.720491e+001 -1.381082e+001 -1.659148e+002
20459431250 -4.523420e+000 1.503844e+002 -4.457284e+001 2.161768e+001 -4.512082e+001 2.101966e+001 -1.444800e+001 -1.654745e+002
20478175000 -4.512124e+000 1.497007e+002 -4.455825e+001 1.589810e+001 -4.500961e+001 1.606099e+001 -1.510597e+001 -1.644899e+002
20496918750 -4.503986e+000 1.490394e+002 -4.446845e+001 1.074219e+001 -4.505284e+001 1.071161e+001 -1.574195e+001 -1.628783e+002
20515662500 -4.502946e+000 1.483154e+002 -4.445891e+001 7.486254e+000 -4.502176e+001 6.432724e+000 -1.634780e+001 -1.605215e+002
20534406250 -4.493584e+000 1.475527e+002 -4.459016e+001 3.649454e+000 -4.490858e+001 2.739604e+000 -1.689025e+001 -1.576470e+002
20553150000 -4.484613e+000 1.468250e+002 -4.468819e+001 -1.783122e+000 -4.485580e+001 -1.265223e+000 -1.737591e+001 -1.543710e+002
20571893750 -4.475615e+000 1.461140e+002 -4.471534e+001 -5.456180e+000 -4.477796e+001 -4.460931e+000 -1.780303e+001 -1.507143e+002
20590637500 -4.463658e+000 1.454192e+002 -4.451033e+001 -1.113965e+001 -4.478626e+001 -7.525122e+000 -1.817388e+001 -1.468866e+002
20609381250 -4.458337e+000 1.447704e+002 -4.437617e+001 -1.563006e+001 -4.460992e+001 -1.254033e+001 -1.846956e+001 -1.430336e+002
20628125000 -4.463530e+000 1.440213e+002 -4.424083e+001 -2.111744e+001 -4.442902e+001 -1.506390e+001 -1.871261e+001 -1.390699e+002
20646868750 -4.455302e+000 1.432582e+002 -4.413966e+001 -2.471758e+001 -4.425015e+001 -1.784830e+001 -1.890281e+001 -1.349886e+002
20665612500 -4.448493e+000 1.425625e+002 -4.399714e+001 -2.775988e+001 -4.407215e+001 -2.155378e+001 -1.902117e+001 -1.308043e+002
20684356250 -4.444455e+000 1.418241e+002 -4.411464e+001 -3.012206e+001 -4.393353e+001 -2.638947e+001 -1.911001e+001 -1.264853e+002
20703100000 -4.432500e+000 1.411400e+002 -4.390217e+001 -3.253641e+001 -4.371593e+001 -3.030624e+001 -1.914939e+001 -1.222157e+002
20721843750 -4.437249e+000 1.404841e+002 -4.377636e+001 -3.552288e+001 -4.365902e+001 -3.364182e+001 -1.915625e+001 -1.179979e+002
20740587500 -4.442081e+000 1.397489e+002 -4.399261e+001 -3.942824e+001 -4.366650e+001 -3.852871e+001 -1.911097e+001 -1.138141e+002
20759331250 -4.433999e+000 1.390097e+002 -4.394662e+001 -4.311989e+001 -4.352979e+001 -4.132104e+001 -1.899440e+001 -1.095795e+002
20778075000 -4.432053e+000 1.382723e+002 -4.391979e+001 -4.530711e+001 -4.333686e+001 -4.321624e+001 -1.882050e+001 -1.052920e+002
20796818750 -4.426404e+000 1.375473e+002 -4.387049e+001 -4.698702e+001 -4.315351e+001 -4.678024e+001 -1.859151e+001 -1.008963e+002
20815562500 -4.416291e+000 1.368703e+002 -4.392043e+001 -5.056224e+001 -4.274063e+001 -5.008421e+001 -1.831337e+001 -9.663239e+001
20834306250 -4.422695e+000 1.362072e+002 -4.387911e+001 -5.255504e+001 -4.299817e+001 -5.355484e+001 -1.796508e+001 -9.257246e+001
20853050000 -4.425007e+000 1.354697e+002 -4.380359e+001 -5.516534e+001 -4.313510e+001 -5.592857e+001 -1.754754e+001 -8.873668e+001
20871793750 -4.421147e+000 1.347265e+002 -4.390397e+001 -5.693305e+001 -4.325409e+001 -5.901541e+001 -1.705604e+001 -8.512149e+001
20890537500 -4.420310e+000 1.339930e+002 -4.382671e+001 -6.040068e+001 -4.320552e+001 -5.868670e+001 -1.648003e+001 -8.203729e+001
20909281250 -4.415846e+000 1.332310e+002 -4.393178e+001 -6.177995e+001 -4.318218e+001 -6.055742e+001 -1.585237e+001 -7.933569e+001
20928025000 -4.407755e+000 1.325666e+002 -4.390229e+001 -6.290830e+001 -4.310658e+001 -6.260120e+001 -1.522111e+001 -7.725505e+001
20946768750 -4.414971e+000 1.319016e+002 -4.387100e+001 -6.660220e+001 -4.295295e+001 -6.500901e+001 -1.459621e+001 -7.596745e+001
20965512500 -4.422688e+000 1.311590e+002 -4.368161e+001 -7.050131e+001 -4.306111e+001 -6.764902e+001 -1.399769e+001 -7.522328e+001
20984256250 -4.420352e+000 1.304677e+002 -4.358910e+001 -7.174097e+001 -4.300274e+001 -7.021123e+001 -1.342469e+001 -7.480903e+001
21003000000 -4.420303e+000 1.297334e+002 -4.342059e+001 -7.334492e+001 -4.313181e+001 -7.337955e+001 -1.287822e+001 -7.476133e+001
21021743750 -4.416543e+000 1.290069e+002 -4.354111e+001 -7.561201e+001 -4.329420e+001 -7.656153e+001 -1.236067e+001 -7.482790e+001
21040487500 -4.413466e+000 1.283636e+002 -4.362614e+001 -7.722501e+001 -4.338889e+001 -7.661005e+001 -1.189189e+001 -7.498715e+001
21059231250 -4.418681e+000 1.276970e+002 -4.358948e+001 -7.781176e+001 -4.353367e+001 -7.726955e+001 -1.145001e+001 -7.530090e+001
21077975000 -4.423971e+000 1.269804e+002 -4.373574e+001 -7.885222e+001 -4.371128e+001 -8.031530e+001 -1.102894e+001 -7.571037e+001
21096718750 -4.424493e+000 1.262595e+002 -4.370326e+001 -7.977759e+001 -4.379453e+001 -8.004932e+001 -1.063311e+001 -7.626158e+001
21115462500 -4.427879e+000 1.255464e+002 -4.367921e+001 -8.211626e+001 -4.394541e+001 -8.220351e+001 -1.024426e+001 -7.688226e+001
21134206250 -4.427594e+000 1.248282e+002 -4.401590e+001 -8.445443e+001 -4.421453e+001 -8.282434e+001 -9.873886e+000 -7.749663e+001
21152950000 -4.425401e+000 1.241620e+002 -4.420760e+001 -8.589746e+001 -4.417447e+001 -8.482887e+001 -9.507744e+000 -7.812838e+001
21171693750 -4.434913e+000 1.234655e+002 -4.420938e+001 -8.698569e+001 -4.420332e+001 -8.554498e+001 -9.153227e+000 -7.884271e+001
21190437500 -4.442704e+000 1.227476e+002 -4.419633e+001 -8.713094e+001 -4.452956e+001 -8.736295e+001 -8.824310e+000 -7.968455e+001
21209181250 -4.445257e+000 1.220337e+002 -4.418153e+001 -8.923309e+001 -4.467379e+001 -8.739386e+001 -8.505372e+000 -8.058355e+001
21227925000 -4.449910e+000 1.212917e+002 -4.434115e+001 -8.886848e+001 -4.487881e+001 -8.885895e+001 -8.197155e+000 -8.159048e+001
21246668750 -4.450477e+000 1.205723e+002 -4.422876e+001 -8.960011e+001 -4.532907e+001 -8.887552e+001 -7.890561e+000 -8.261538e+001
21265412500 -4.449253e+000 1.198798e+002 -4.421119e+001 -9.073040e+001 -4.562331e+001 -8.784039e+001 -7.603080e+000 -8.366975e+001
21284156250 -4.464139e+000 1.191706e+002 -4.441508e+001 -9.143607e+001 -4.567062e+001 -8.841121e+001 -7.329381e+000 -8.471818e+001
21302900000 -4.472328e+000 1.184402e+002 -4.459655e+001 -9.141718e+001 -4.570068e+001 -8.933369e+001 -7.065284e+000 -8.589044e+001
21321643750 -4.477470e+000 1.177127e+002 -4.456446e+001 -9.213015e+001 -4.579792e+001 -9.163207e+001 -6.813176e+000 -8.709206e+001
21340387500 -4.487654e+000 1.169615e+002 -4.444553e+001 -9.258451e+001 -4.583667e+001 -9.262898e+001 -6.579295e+000 -8.837486e+001
21359131250 -4.484962e+000 1.162187e+002 -4.439271e+001 -9.309960e+001 -4.580757e+001 -9.399954e+001 -6.358912e+000 -8.968835e+001
21377875000 -4.485973e+000 1.155792e+002 -4.436338e+001 -9.209203e+001 -4.617556e+001 -9.212859e+001 -6.150823e+000 -9.096195e+001
21396618750 -4.496470e+000 1.148614e+002 -4.445512e+001 -9.234010e+001 -4.612291e+001 -9.220440e+001 -5.958066e+000 -9.226795e+001
21415362500 -4.497012e+000 1.141336e+002 -4.469193e+001 -9.239111e+001 -4.610343e+001 -9.216287e+001 -5.776562e+000 -9.358689e+001
21434106250 -4.504584e+000 1.134192e+002 -4.479822e+001 -9.340078e+001 -4.620399e+001 -9.227365e+001 -5.609432e+000 -9.487305e+001
21452850000 -4.512194e+000 1.126389e+002 -4.476415e+001 -9.320067e+001 -4.623112e+001 -9.174993e+001 -5.458592e+000 -9.620161e+001
21471593750 -4.512567e+000 1.119139e+002 -4.484039e+001 -9.387459e+001 -4.611818e+001 -9.178638e+001 -5.313072e+000 -9.748753e+001
21490337500 -4.522839e+000 1.112367e+002 -4.526471e+001 -9.466068e+001 -4.627823e+001 -9.227302e+001 -5.179890e+000 -9.872124e+001
21509081250 -4.535078e+000 1.104812e+002 -4.515452e+001 -9.565922e+001 -4.640333e+001 -9.142205e+001 -5.048560e+000 -9.996950e+001
21527825000 -4.540902e+000 1.097600e+002 -4.532137e+001 -9.724667e+001 -4.643468e+001 -9.348493e+001 -4.926384e+000 -1.011980e+002
21546568750 -4.548425e+000 1.090342e+002 -4.527338e+001 -9.742806e+001 -4.639709e+001 -9.354597e+001 -4.817076e+000 -1.023984e+002
21565312500 -4.556202e+000 1.082410e+002 -4.506289e+001 -9.614859e+001 -4.634274e+001 -9.511320e+001 -4.706889e+000 -1.036021e+002
21584056250 -4.555925e+000 1.075600e+002 -4.495844e+001 -9.645567e+001 -4.646569e+001 -9.554797e+001 -4.609570e+000 -1.047392e+002
21602800000 -4.565146e+000 1.068778e+002 -4.479794e+001 -9.722480e+001 -4.636322e+001 -9.662161e+001 -4.520006e+000 -1.058712e+002
21621543750 -4.574370e+000 1.061350e+002 -4.495697e+001 -9.799802e+001 -4.616012e+001 -9.604948e+001 -4.428334e+000 -1.069962e+002
21640287500 -4.581989e+000 1.054151e+002 -4.502613e+001 -9.737571e+001 -4.606058e+001 -9.751924e+001 -4.340229e+000 -1.080754e+002
21659031250 -4.595725e+000 1.046933e+002 -4.477654e+001 -9.887956e+001 -4.588334e+001 -9.600552e+001 -4.256010e+000 -1.091586e+002
21677775000 -4.598947e+000 1.039263e+002 -4.487706e+001 -1.005563e+002 -4.557872e+001 -9.637531e+001 -4.176730e+000 -1.102299e+002
21696518750 -4.601485e+000 1.032367e+002 -4.481923e+001 -1.010828e+002 -4.512065e+001 -9.941134e+001 -4.100517e+000 -1.112542e+002
21715262500 -4.610857e+000 1.025637e+002 -4.462037e+001 -1.022958e+002 -4.499288e+001 -1.007983e+002 -4.030244e+000 -1.122955e+002
21734006250 -4.621543e+000 1.018070e+002 -4.462355e+001 -1.048071e+002 -4.501128e+001 -1.007445e+002 -3.961235e+000 -1.133001e+002
21752750000 -4.633150e+000 1.010685e+002 -4.474805e+001 -1.038642e+002 -4.491851e+001 -1.015890e+002 -3.897867e+000 -1.142885e+002
21771493750 -4.644916e+000 1.003109e+002 -4.473563e+001 -1.053689e+002 -4.491882e+001 -1.020883e+002 -3.831284e+000 -1.152759e+002
21790237500 -4.655334e+000 9.956432e+001 -4.490940e+001 -1.073990e+002 -4.503358e+001 -1.023857e+002 -3.769551e+000 -1.162250e+002
21808981250 -4.659507e+000 9.883121e+001 -4.508258e+001 -1.087471e+002 -4.474570e+001 -1.058090e+002 -3.707202e+000 -1.171775e+002
21827725000 -4.673252e+000 9.814973e+001 -4.514819e+001 -1.090820e+002 -4.476319e+001 -1.070195e+002 -3.648455e+000 -1.181105e+002
21846468750 -4.688368e+000 9.739439e+001 -4.521108e+001 -1.085900e+002 -4.491008e+001 -1.085736e+002 -3.588867e+000 -1.190511e+002
21865212500 -4.702447e+000 9.664525e+001 -4.509060e+001 -1.097775e+002 -4.489404e+001 -1.093198e+002 -3.535039e+000 -1.199695e+002
21883956250 -4.717024e+000 9.590302e+001 -4.530943e+001 -1.108655e+002 -4.479174e+001 -1.104659e+002 -3.478420e+000 -1.208877e+002
21902700000 -4.728316e+000 9.512547e+001 -4.543905e+001 -1.114912e+002 -4.481927e+001 -1.121095e+002 -3.423029e+000 -1.217869e+002
21921443750 -4.738831e+000 9.439002e+001 -4.523657e+001 -1.125386e+002 -4.479128e+001 -1.125971e+002 -3.369753e+000 -1.226900e+002
21940187500 -4.756993e+000 9.366940e+001 -4.583541e+001 -1.131249e+002 -4.459993e+001 -1.138002e+002 -3.322001e+000 -1.235766e+002
21958931250 -4.770236e+000 9.290483e+001 -4.566518e+001 -1.136675e+002 -4.445604e+001 -1.140844e+002 -3.274485e+000 -1.244302e+002
21977675000 -4.787637e+000 9.215836e+001 -4.567984e+001 -1.144304e+002 -4.455849e+001 -1.143238e+002 -3.227098e+000 -1.253237e+002
21996418750 -4.803673e+000 9.138761e+001 -4.578216e+001 -1.162046e+002 -4.478821e+001 -1.127377e+002 -3.185155e+000 -1.262098e+002
22015162500 -4.810083e+000 9.061576e+001 -4.579578e+001 -1.167732e+002 -4.470162e+001 -1.128872e+002 -3.136367e+000 -1.270632e+002
22033906250 -4.823534e+000 8.989080e+001 -4.583512e+001 -1.170645e+002 -4.469396e+001 -1.131549e+002 -3.093470e+000 -1.278997e+002
22052650000 -4.845464e+000 8.914063e+001 -4.576810e+001 -1.178554e+002 -4.478266e+001 -1.138298e+002 -3.052598e+000 -1.287448e+002
22071393750 -4.859706e+000 8.838811e+001 -4.592290e+001 -1.178820e+002 -4.475241e+001 -1.141730e+002 -3.016246e+000 -1.296016e+002
22090137500 -4.875102e+000 8.762390e+001 -4.607973e+001 -1.190970e+002 -4.474999e+001 -1.162321e+002 -2.980262e+000 -1.304314e+002
22108881250 -4.896223e+000 8.685223e+001 -4.613907e+001 -1.191800e+002 -4.474731e+001 -1.173928e+002 -2.941334e+000 -1.312597e+002
22127625000 -4.904378e+000 8.611790e+001 -4.634734e+001 -1.198257e+002 -4.497527e+001 -1.178571e+002 -2.904248e+000 -1.320704e+002
22146368750 -4.923721e+000 8.533981e+001 -4.650615e+001 -1.206546e+002 -4.511941e+001 -1.187685e+002 -2.869631e+000 -1.328786e+002
22165112500 -4.942756e+000 8.461369e+001 -4.625747e+001 -1.209702e+002 -4.534462e+001 -1.189758e+002 -2.830166e+000 -1.337004e+002
22183856250 -4.957101e+000 8.382542e+001 -4.631598e+001 -1.221231e+002 -4.553469e+001 -1.177473e+002 -2.796505e+000 -1.344915e+002
22202600000 -4.973832e+000 8.306528e+001 -4.640591e+001 -1.219737e+002 -4.576454e+001 -1.178482e+002 -2.762000e+000 -1.353000e+002
22221343750 -4.990695e+000 8.223847e+001 -4.638912e+001 -1.213059e+002 -4.571194e+001 -1.183063e+002 -2.727734e+000 -1.361369e+002
22240087500 -5.008779e+000 8.148920e+001 -4.637247e+001 -1.219962e+002 -4.581792e+001 -1.182806e+002 -2.692602e+000 -1.369391e+002
22258831250 -5.026792e+000 8.069384e+001 -4.635093e+001 -1.225196e+002 -4.578979e+001 -1.177526e+002 -2.659802e+000 -1.377531e+002
22277575000 -5.048886e+000 7.991077e+001 -4.619666e+001 -1.238993e+002 -4.578775e+001 -1.179783e+002 -2.626736e+000 -1.385494e+002
22296318750 -5.066685e+000 7.914584e+001 -4.648570e+001 -1.227885e+002 -4.579742e+001 -1.177592e+002 -2.597223e+000 -1.393483e+002
22315062500 -5.086157e+000 7.834843e+001 -4.639301e+001 -1.232711e+002 -4.598975e+001 -1.162613e+002 -2.568257e+000 -1.401491e+002
22333806250 -5.097370e+000 7.753026e+001 -4.620366e+001 -1.245566e+002 -4.623538e+001 -1.167250e+002 -2.539274e+000 -1.409550e+002
22352550000 -5.109976e+000 7.673853e+001 -4.603436e+001 -1.246713e+002 -4.621020e+001 -1.186825e+002 -2.512021e+000 -1.417364e+002
22371293750 -5.129551e+000 7.599034e+001 -4.561135e+001 -1.263497e+002 -4.630760e+001 -1.197179e+002 -2.484809e+000 -1.425572e+002
22390037500 -5.152627e+000 7.518310e+001 -4.576899e+001 -1.272880e+002 -4.650890e+001 -1.180407e+002 -2.459663e+000 -1.433708e+002
22408781250 -5.171931e+000 7.437939e+001 -4.585228e+001 -1.268580e+002 -4.645681e+001 -1.200343e+002 -2.434600e+000 -1.441571e+002
22427525000 -5.193409e+000 7.358676e+001 -4.589849e+001 -1.275112e+002 -4.628583e+001 -1.225486e+002 -2.407516e+000 -1.449660e+002
22446268750 -5.209788e+000 7.272554e+001 -4.593783e+001 -1.283840e+002 -4.627951e+001 -1.228996e+002 -2.383589e+000 -1.457716e+002
22465012500 -5.223606e+000 7.194066e+001 -4.583511e+001 -1.296257e+002 -4.645728e+001 -1.233096e+002 -2.360489e+000 -1.465763e+002
22483756250 -5.244328e+000 7.115754e+001 -4.577674e+001 -1.295755e+002 -4.631031e+001 -1.234496e+002 -2.337923e+000 -1.473613e+002
22502500000 -5.265986e+000 7.029865e+001 -4.578300e+001 -1.307626e+002 -4.633904e+001 -1.231754e+002 -2.313088e+000 -1.481337e+002
22521243750 -5.287674e+000 6.944562e+001 -4.593452e+001 -1.300656e+002 -4.645952e+001 -1.224425e+002 -2.289096e+000 -1.489073e+002
22539987500 -5.306367e+000 6.857865e+001 -4.592434e+001 -1.292590e+002 -4.640567e+001 -1.228479e+002 -2.269614e+000 -1.496830e+002
22558731250 -5.325594e+000 6.769085e+001 -4.586311e+001 -1.292849e+002 -4.619300e+001 -1.211830e+002 -2.248133e+000 -1.504404e+002
22577475000 -5.340362e+000 6.688746e+001 -4.560798e+001 -1.299600e+002 -4.615688e+001 -1.218435e+002 -2.227975e+000 -1.512140e+002
22596218750 -5.361875e+000 6.606299e+001 -4.576722e+001 -1.306332e+002 -4.583559e+001 -1.231272e+002 -2.211257e+000 -1.519891e+002
22614962500 -5.384406e+000 6.524698e+001 -4.574513e+001 -1.322341e+002 -4.587521e+001 -1.251243e+002 -2.189554e+000 -1.527577e+002
22633706250 -5.406910e+000 6.440562e+001 -4.574875e+001 -1.344343e+002 -4.569149e+001 -1.253813e+002 -2.173247e+000 -1.535119e+002
22652450000 -5.429258e+000 6.356654e+001 -4.578672e+001 -1.362756e+002 -4.571123e+001 -1.261677e+002 -2.155863e+000 -1.542315e+002
22671193750 -5.443793e+000 6.266660e+001 -4.572306e+001 -1.369979e+002 -4.572076e+001 -1.264284e+002 -2.142710e+000 -1.549517e+002
22689937500 -5.464017e+000 6.188264e+001 -4.575589e+001 -1.394124e+002 -4.572699e+001 -1.272455e+002 -2.130922e+000 -1.556845e+002
22708681250 -5.492795e+000 6.102837e+001 -4.588316e+001 -1.409377e+002 -4.555872e+001 -1.283753e+002 -2.117764e+000 -1.564086e+002
22727425000 -5.514503e+000 6.017318e+001 -4.561166e+001 -1.421857e+002 -4.566458e+001 -1.294593e+002 -2.104910e+000 -1.571377e+002
22746168750 -5.540504e+000 5.929403e+001 -4.547976e+001 -1.430310e+002 -4.552272e+001 -1.319923e+002 -2.091199e+000 -1.578564e+002
22764912500 -5.566346e+000 5.839551e+001 -4.569976e+001 -1.432203e+002 -4.537601e+001 -1.329957e+002 -2.079961e+000 -1.585434e+002
22783656250 -5.581032e+000 5.757080e+001 -4.587037e+001 -1.434085e+002 -4.529920e+001 -1.330320e+002 -2.072860e+000 -1.592521e+002
22802400000 -5.602408e+000 5.673603e+001 -4.585099e+001 -1.414962e+002 -4.526367e+001 -1.323520e+002 -2.060435e+000 -1.599524e+002
22821143750 -5.624136e+000 5.587193e+001 -4.577766e+001 -1.420815e+002 -4.517932e+001 -1.350872e+002 -2.046661e+000 -1.606246e+002
22839887500 -5.647986e+000 5.498699e+001 -4.573816e+001 -1.445267e+002 -4.517689e+001 -1.342478e+002 -2.037927e+000 -1.613187e+002
22858631250 -5.676933e+000 5.407398e+001 -4.567535e+001 -1.456659e+002 -4.500981e+001 -1.352240e+002 -2.024965e+000 -1.620027e+002
22877375000 -5.696817e+000 5.316351e+001 -4.570728e+001 -1.457368e+002 -4.524397e+001 -1.368282e+002 -2.016052e+000 -1.626514e+002
22896118750 -5.718000e+000 5.226055e+001 -4.583632e+001 -1.462969e+002 -4.525390e+001 -1.391717e+002 -2.010106e+000 -1.633422e+002
22914862500 -5.739744e+000 5.139874e+001 -4.579282e+001 -1.478730e+002 -4.538269e+001 -1.394048e+002 -1.998532e+000 -1.640095e+002
22933606250 -5.769677e+000 5.055131e+001 -4.566191e+001 -1.488251e+002 -4.554441e+001 -1.423024e+002 -1.990863e+000 -1.646485e+002
22952350000 -5.795846e+000 4.970435e+001 -4.563815e+001 -1.492703e+002 -4.555161e+001 -1.448270e+002 -1.987962e+000 -1.653258e+002
22971093750 -5.825136e+000 4.880692e+001 -4.557687e+001 -1.509516e+002 -4.557107e+001 -1.472921e+002 -1.976600e+000 -1.659744e+002
22989837500 -5.847765e+000 4.788599e+001 -4.548122e+001 -1.527097e+002 -4.548577e+001 -1.488451e+002 -1.972412e+000 -1.666243e+002
23008581250 -5.866519e+000 4.700534e+001 -4.559040e+001 -1.542584e+002 -4.559569e+001 -1.480377e+002 -1.966481e+000 -1.673016e+002
23027325000 -5.889350e+000 4.608405e+001 -4.559525e+001 -1.531082e+002 -4.591485e+001 -1.496094e+002 -1.955808e+000 -1.679398e+002
23046068750 -5.909721e+000 4.517327e+001 -4.553511e+001 -1.527977e+002 -4.577480e+001 -1.495085e+002 -1.955284e+000 -1.685632e+002
23064812500 -5.941841e+000 4.427108e+001 -4.545795e+001 -1.533365e+002 -4.575068e+001 -1.510107e+002 -1.950939e+000 -1.692225e+002
23083556250 -5.972444e+000 4.329361e+001 -4.535179e+001 -1.534182e+002 -4.578636e+001 -1.519633e+002 -1.940079e+000 -1.698550e+002
23102300000 -5.993840e+000 4.233390e+001 -4.532646e+001 -1.557306e+002 -4.577581e+001 -1.522884e+002 -1.938377e+000 -1.704790e+002
23121043750 -6.015247e+000 4.139369e+001 -4.549722e+001 -1.539762e+002 -4.603107e+001 -1.530436e+002 -1.934867e+000 -1.711201e+002
23139787500 -6.031009e+000 4.047166e+001 -4.544125e+001 -1.546071e+002 -4.637019e+001 -1.546800e+002 -1.928792e+000 -1.717220e+002
23158531250 -6.052301e+000 3.953867e+001 -4.570404e+001 -1.561431e+002 -4.613579e+001 -1.548545e+002 -1.927791e+000 -1.723275e+002
23177275000 -6.083631e+000 3.861464e+001 -4.580604e+001 -1.568023e+002 -4.633395e+001 -1.564043e+002 -1.923133e+000 -1.729534e+002
23196018750 -6.109359e+000 3.761921e+001 -4.557456e+001 -1.591177e+002 -4.673035e+001 -1.569287e+002 -1.916030e+000 -1.735562e+002
23214762500 -6.130233e+000 3.660923e+001 -4.547627e+001 -1.606375e+002 -4.665158e+001 -1.590152e+002 -1.912750e+000 -1.741495e+002
23233506250 -6.150155e+000 3.561197e+001 -4.541718e+001 -1.633076e+002 -4.672549e+001 -1.614144e+002 -1.911936e+000 -1.747587e+002
23252250000 -6.170328e+000 3.466792e+001 -4.575494e+001 -1.641021e+002 -4.689592e+001 -1.613827e+002 -1.910045e+000 -1.753451e+002
23270993750 -6.193898e+000 3.375403e+001 -4.579340e+001 -1.642037e+002 -4.704928e+001 -1.637616e+002 -1.909670e+000 -1.759220e+002
23289737500 -6.223126e+000 3.278104e+001 -4.564481e+001 -1.641757e+002 -4.725322e+001 -1.648735e+002 -1.907483e+000 -1.765075e+002
23308481250 -6.259026e+000 3.178333e+001 -4.566360e+001 -1.673673e+002 -4.720039e+001 -1.656970e+002 -1.903632e+000 -1.770896e+002
23327225000 -6.277641e+000 3.081698e+001 -4.568671e+001 -1.679250e+002 -4.742685e+001 -1.656789e+002 -1.902767e+000 -1.776479e+002
23345968750 -6.300027e+000 2.982579e+001 -4.607845e+001 -1.667935e+002 -4.741140e+001 -1.665732e+002 -1.898545e+000 -1.782393e+002
23364712500 -6.313169e+000 2.883307e+001 -4.612760e+001 -1.690761e+002 -4.740609e+001 -1.666841e+002 -1.893861e+000 -1.788160e+002
23383456250 -6.337794e+000 2.787481e+001 -4.614386e+001 -1.721130e+002 -4.780367e+001 -1.677430e+002 -1.891980e+000 -1.793799e+002
23402200000 -6.371133e+000 2.686308e+001 -4.661725e+001 -1.730415e+002 -4.771308e+001 -1.657529e+002 -1.889318e+000 -1.799670e+002
23420943750 -6.396360e+000 2.581867e+001 -4.685031e+001 -1.772154e+002 -4.786712e+001 -1.662192e+002 -1.884086e+000 1.794929e+002
23439687500 -6.418237e+000 2.479102e+001 -4.697236e+001 -1.756906e+002 -4.808937e+001 -1.677106e+002 -1.884589e+000 1.789341e+002
23458431250 -6.445310e+000 2.375754e+001 -4.702923e+001 -1.774366e+002 -4.820551e+001 -1.716204e+002 -1.884030e+000 1.783727e+002
23477175000 -6.467636e+000 2.276913e+001 -4.718476e+001 -1.784710e+002 -4.840147e+001 -1.753016e+002 -1.877993e+000 1.778335e+002
23495918750 -6.487016e+000 2.177094e+001 -4.722503e+001 -1.795603e+002 -4.903881e+001 -1.791478e+002 -1.876853e+000 1.772741e+002
23514662500 -6.519616e+000 2.074232e+001 -4.769263e+001 -1.785148e+002 -4.914539e+001 1.791431e+002 -1.875391e+000 1.767193e+002
23533406250 -6.544873e+000 1.967806e+001 -4.804842e+001 -1.797059e+002 -4.922677e+001 1.788894e+002 -1.872501e+000 1.762022e+002
23552150000 -6.565993e+000 1.860834e+001 -4.786969e+001 1.791087e+002 -4.916330e+001 1.783163e+002 -1.871856e+000 1.756473e+002
23570893750 -6.587399e+000 1.757397e+001 -4.790278e+001 1.784400e+002 -4.905885e+001 -1.798178e+002 -1.869157e+000 1.750932e+002
23589637500 -6.610160e+000 1.655170e+001 -4.774815e+001 1.787941e+002 -4.927339e+001 1.782786e+002 -1.867401e+000 1.745862e+002
23608381250 -6.634452e+000 1.553047e+001 -4.782851e+001 1.788752e+002 -4.925573e+001 1.784926e+002 -1.866759e+000 1.740449e+002
23627125000 -6.664481e+000 1.446310e+001 -4.790583e+001 -1.798134e+002 -4.936481e+001 -1.798479e+002 -1.860040e+000 1.735022e+002
23645868750 -6.692466e+000 1.339631e+001 -4.820117e+001 -1.797214e+002 -4.967585e+001 -1.783799e+002 -1.856834e+000 1.729882e+002
23664612500 -6.720650e+000 1.235121e+001 -4.822505e+001 1.799485e+002 -4.983508e+001 -1.785081e+002 -1.855061e+000 1.724479e+002
23683356250 -6.744267e+000 1.127139e+001 -4.784768e+001 1.799967e+002 -4.978335e+001 -1.786060e+002 -1.847164e+000 1.718891e+002
23702100000 -6.767935e+000 1.021542e+001 -4.812477e+001 1.791078e+002 -4.962511e+001 -1.782902e+002 -1.845343e+000 1.713769e+002
23720843750 -6.791681e+000 9.209051e+000 -4.841767e+001 1.787138e+002 -4.981451e+001 -1.774777e+002 -1.845126e+000 1.708177e+002
23739587500 -6.818213e+000 8.074499e+000 -4.881724e+001 -1.785665e+002 -5.007424e+001 -1.795058e+002 -1.839285e+000 1.702830e+002
23758331250 -6.841061e+000 6.947515e+000 -4.954202e+001 -1.789556e+002 -4.992107e+001 1.790027e+002 -1.839333e+000 1.697608e+002
23777075000 -6.865110e+000 5.842420e+000 -4.932044e+001 1.788248e+002 -4.982404e+001 1.771525e+002 -1.841153e+000 1.692020e+002
23795818750 -6.887589e+000 4.740042e+000 -4.955763e+001 1.796745e+002 -5.029776e+001 1.771519e+002 -1.835958e+000 1.686600e+002
23814562500 -6.910394e+000 3.665929e+000 -4.962716e+001 -1.798189e+002 -5.015323e+001 1.761553e+002 -1.837029e+000 1.681383e+002
23833306250 -6.935135e+000 2.607117e+000 -4.931916e+001 -1.777123e+002 -5.070557e+001 1.756580e+002 -1.834778e+000 1.675882e+002
23852050000 -6.962044e+000 1.482955e+000 -4.951789e+001 -1.747465e+002 -5.077000e+001 1.740678e+002 -1.828596e+000 1.670520e+002
23870793750 -6.983175e+000 3.723012e-001 -4.971003e+001 -1.735471e+002 -5.045280e+001 1.722827e+002 -1.826528e+000 1.665509e+002
23889537500 -7.000620e+000 -7.123181e-001 -4.980165e+001 -1.734330e+002 -5.041101e+001 1.777162e+002 -1.824814e+000 1.659810e+002
23908281250 -7.023790e+000 -1.810878e+000 -4.994024e+001 -1.752985e+002 -5.029229e+001 -1.783928e+002 -1.819382e+000 1.654703e+002
23927025000 -7.051232e+000 -2.884494e+000 -5.022985e+001 -1.735516e+002 -5.027987e+001 -1.710474e+002 -1.824179e+000 1.649559e+002
23945768750 -7.074179e+000 -3.953110e+000 -4.990921e+001 -1.768906e+002 -5.009402e+001 -1.707208e+002 -1.824924e+000 1.643860e+002
23964512500 -7.096942e+000 -5.079805e+000 -4.981361e+001 -1.742116e+002 -5.016553e+001 -1.730111e+002 -1.816040e+000 1.638553e+002
23983256250 -7.116055e+000 -6.200692e+000 -5.003119e+001 -1.741229e+002 -5.040483e+001 -1.732052e+002 -1.818109e+000 1.633298e+002
24002000000 -7.138858e+000 -7.340299e+000 -5.013790e+001 -1.735387e+002 -5.033131e+001 -1.735044e+002 -1.813002e+000 1.627633e+002
24020743750 -7.158567e+000 -8.462975e+000 -5.030347e+001 -1.750663e+002 -5.039757e+001 -1.727629e+002 -1.807945e+000 1.622390e+002
24039487500 -7.180876e+000 -9.545723e+000 -5.047201e+001 -1.770098e+002 -5.067037e+001 -1.711370e+002 -1.813641e+000 1.616812e+002
24058231250 -7.207117e+000 -1.062025e+001 -5.074297e+001 -1.778452e+002 -5.023481e+001 -1.742991e+002 -1.815399e+000 1.611010e+002
24076975000 -7.230474e+000 -1.179993e+001 -5.073610e+001 1.795542e+002 -5.040340e+001 -1.743273e+002 -1.812532e+000 1.605936e+002
24095718750 -7.240641e+000 -1.296802e+001 -5.119857e+001 1.711116e+002 -5.014610e+001 -1.743583e+002 -1.819660e+000 1.600679e+002
24114462500 -7.265234e+000 -1.412960e+001 -5.182229e+001 1.671824e+002 -5.070723e+001 -1.724028e+002 -1.822908e+000 1.595209e+002
24133206250 -7.275939e+000 -1.528940e+001 -5.186799e+001 1.662493e+002 -5.097275e+001 -1.723011e+002 -1.819126e+000 1.590128e+002
24151950000 -7.296782e+000 -1.643117e+001 -5.228229e+001 1.627232e+002 -5.105934e+001 -1.759160e+002 -1.827518e+000 1.584888e+002
24170693750 -7.321516e+000 -1.756046e+001 -5.209615e+001 1.619044e+002 -5.077826e+001 -1.728925e+002 -1.828112e+000 1.579360e+002
24189437500 -7.344376e+000 -1.874063e+001 -5.161980e+001 1.615927e+002 -5.070062e+001 -1.727236e+002 -1.826377e+000 1.574503e+002
24208181250 -7.362106e+000 -1.992042e+001 -5.172427e+001 1.628598e+002 -5.079025e+001 -1.735808e+002 -1.831138e+000 1.569445e+002
24226925000 -7.379291e+000 -2.110111e+001 -5.174993e+001 1.642845e+002 -5.049302e+001 -1.773968e+002 -1.833610e+000 1.564118e+002
24245668750 -7.392495e+000 -2.227247e+001 -5.179588e+001 1.625977e+002 -5.057637e+001 -1.749320e+002 -1.835313e+000 1.559225e+002
24264412500 -7.408860e+000 -2.342660e+001 -5.198577e+001 1.569276e+002 -5.034446e+001 -1.752849e+002 -1.844520e+000 1.553832e+002
24283156250 -7.429840e+000 -2.460771e+001 -5.206870e+001 1.566880e+002 -5.050964e+001 -1.748988e+002 -1.844733e+000 1.548423e+002
24301900000 -7.449223e+000 -2.582087e+001 -5.203090e+001 1.552764e+002 -5.084328e+001 -1.761688e+002 -1.846342e+000 1.543722e+002
24320643750 -7.464098e+000 -2.703688e+001 -5.226852e+001 1.536015e+002 -5.080793e+001 -1.771382e+002 -1.853801e+000 1.538412e+002
24339387500 -7.477621e+000 -2.826055e+001 -5.227234e+001 1.537187e+002 -5.111565e+001 -1.785136e+002 -1.856623e+000 1.533246e+002
24358131250 -7.485714e+000 -2.945721e+001 -5.213891e+001 1.538115e+002 -5.132041e+001 1.728437e+002 -1.858229e+000 1.528509e+002
24376875000 -7.502223e+000 -3.065287e+001 -5.283792e+001 1.632267e+002 -5.204957e+001 1.762510e+002 -1.862688e+000 1.523432e+002
24395618750 -7.521498e+000 -3.188260e+001 -5.309251e+001 1.661475e+002 -5.210967e+001 1.767168e+002 -1.860370e+000 1.518065e+002
24414362500 -7.535049e+000 -3.309832e+001 -5.322624e+001 1.677334e+002 -5.225637e+001 1.746630e+002 -1.862080e+000 1.513444e+002
24433106250 -7.547609e+000 -3.429898e+001 -5.387199e+001 1.675226e+002 -5.234735e+001 1.729902e+002 -1.871262e+000 1.508145e+002
24451850000 -7.557106e+000 -3.555824e+001 -5.422060e+001 1.630279e+002 -5.231134e+001 1.723087e+002 -1.870124e+000 1.502964e+002
24470593750 -7.564004e+000 -3.677665e+001 -5.456794e+001 1.634249e+002 -5.240567e+001 1.698137e+002 -1.872923e+000 1.498537e+002
24489337500 -7.576930e+000 -3.799464e+001 -5.443446e+001 1.644939e+002 -5.292787e+001 1.673781e+002 -1.877143e+000 1.493274e+002
24508081250 -7.587492e+000 -3.924271e+001 -5.509092e+001 1.744259e+002 -5.270355e+001 1.642459e+002 -1.875241e+000 1.488117e+002
24526825000 -7.600216e+000 -4.050161e+001 -5.522841e+001 -1.612627e+002 -5.313168e+001 1.649731e+002 -1.877547e+000 1.483472e+002
24545568750 -7.605752e+000 -4.174158e+001 -5.484441e+001 -1.455839e+002 -5.293743e+001 1.591068e+002 -1.881170e+000 1.478219e+002
24564312500 -7.613502e+000 -4.296566e+001 -5.545949e+001 -1.320508e+002 -5.328513e+001 1.605444e+002 -1.879168e+000 1.473149e+002
24583056250 -7.620045e+000 -4.419595e+001 -5.547076e+001 -1.090387e+002 -5.347528e+001 1.642523e+002 -1.878985e+000 1.468445e+002
24601800000 -7.625417e+000 -4.540021e+001 -5.546198e+001 -9.591807e+001 -5.361899e+001 1.615608e+002 -1.881714e+000 1.462963e+002
24620543750 -7.634775e+000 -4.665644e+001 -5.528572e+001 -7.980888e+001 -5.369271e+001 1.664974e+002 -1.877243e+000 1.457795e+002
24639287500 -7.640630e+000 -4.789811e+001 -5.586294e+001 -5.940504e+001 -5.393929e+001 1.707278e+002 -1.880907e+000 1.453191e+002
24658031250 -7.644457e+000 -4.912883e+001 -5.566882e+001 -4.457609e+001 -5.404264e+001 1.720559e+002 -1.883186e+000 1.447713e+002
24676775000 -7.647904e+000 -5.040031e+001 -5.651261e+001 -2.211399e+001 -5.439211e+001 1.708671e+002 -1.879982e+000 1.442961e+002
24695518750 -7.646685e+000 -5.164800e+001 -5.664906e+001 -7.098458e-001 -5.443863e+001 1.709046e+002 -1.883648e+000 1.438182e+002
24714262500 -7.654364e+000 -5.287568e+001 -5.658800e+001 1.410018e+001 -5.466083e+001 1.747937e+002 -1.885630e+000 1.432795e+002
24733006250 -7.655214e+000 -5.414219e+001 -5.649089e+001 2.850167e+001 -5.474651e+001 -1.729321e+002 -1.878269e+000 1.427696e+002
24751750000 -7.660552e+000 -5.539409e+001 -5.628983e+001 4.465732e+001 -5.531571e+001 -1.658092e+002 -1.880933e+000 1.423298e+002
24770493750 -7.663420e+000 -5.662970e+001 -5.672865e+001 6.607178e+001 -5.545234e+001 -1.640297e+002 -1.879383e+000 1.417967e+002
24789237500 -7.664006e+000 -5.788676e+001 -5.736593e+001 8.656268e+001 -5.515715e+001 -1.584418e+002 -1.877661e+000 1.413301e+002
24807981250 -7.658567e+000 -5.911363e+001 -5.672955e+001 9.335637e+001 -5.499272e+001 -1.628609e+002 -1.888029e+000 1.408420e+002
24826725000 -7.661281e+000 -6.033784e+001 -5.661472e+001 1.053105e+002 -5.497256e+001 -1.598554e+002 -1.891818e+000 1.402911e+002
24845468750 -7.666443e+000 -6.161437e+001 -5.662538e+001 1.181046e+002 -5.536699e+001 -1.615943e+002 -1.889571e+000 1.398359e+002
24864212500 -7.661829e+000 -6.290789e+001 -5.660039e+001 1.322974e+002 -5.576147e+001 -1.614314e+002 -1.892864e+000 1.393489e+002
24882956250 -7.660250e+000 -6.413486e+001 -5.637915e+001 1.525526e+002 -5.576118e+001 -1.599990e+002 -1.886260e+000 1.388232e+002
24901700000 -7.658227e+000 -6.537925e+001 -5.600558e+001 1.704084e+002 -5.549771e+001 -1.608906e+002 -1.880690e+000 1.383631e+002
24920443750 -7.655449e+000 -6.661790e+001 -5.616941e+001 -1.754419e+002 -5.507359e+001 -1.549390e+002 -1.882792e+000 1.378634e+002
24939187500 -7.655978e+000 -6.785854e+001 -5.552990e+001 -1.665759e+002 -5.491966e+001 -1.527444e+002 -1.874156e+000 1.373159e+002
24957931250 -7.655284e+000 -6.913770e+001 -5.517457e+001 -1.704473e+002 -5.503490e+001 -1.517045e+002 -1.862719e+000 1.368133e+002
24976675000 -7.647866e+000 -7.038158e+001 -5.522613e+001 -1.637726e+002 -5.533607e+001 -1.486308e+002 -1.864458e+000 1.363053e+002
24995418750 -7.643429e+000 -7.166319e+001 -5.452040e+001 -1.629324e+002 -5.487388e+001 -1.495968e+002 -1.853700e+000 1.357473e+002
25014162500 -7.630302e+000 -7.289806e+001 -5.423400e+001 -1.675432e+002 -5.481207e+001 -1.489960e+002 -1.852779e+000 1.352346e+002
25032906250 -7.621096e+000 -7.413067e+001 -5.401831e+001 -1.645257e+002 -5.479174e+001 -1.462966e+002 -1.854378e+000 1.346953e+002
25051650000 -7.615356e+000 -7.535510e+001 -5.413722e+001 -1.658101e+002 -5.467560e+001 -1.482388e+002 -1.845457e+000 1.341106e+002
25070393750 -7.605782e+000 -7.663141e+001 -5.360178e+001 -1.721895e+002 -5.459234e+001 -1.506479e+002 -1.843958e+000 1.335981e+002
25089137500 -7.599468e+000 -7.789410e+001 -5.391357e+001 -1.733982e+002 -5.442871e+001 -1.477812e+002 -1.844035e+000 1.330675e+002
25107881250 -7.593102e+000 -7.910574e+001 -5.309288e+001 -1.760518e+002 -5.396117e+001 -1.463605e+002 -1.833227e+000 1.325212e+002
25126625000 -7.580474e+000 -8.033234e+001 -5.286143e+001 -1.768740e+002 -5.400706e+001 -1.489144e+002 -1.835405e+000 1.320258e+002
25145368750 -7.571735e+000 -8.154627e+001 -5.269025e+001 -1.723517e+002 -5.345376e+001 -1.539072e+002 -1.844047e+000 1.314685e+002
25164112500 -7.567735e+000 -8.278721e+001 -5.279826e+001 -1.737685e+002 -5.292327e+001 -1.625482e+002 -1.843293e+000 1.309114e+002
25182856250 -7.552445e+000 -8.404548e+001 -5.270920e+001 -1.707920e+002 -5.238745e+001 -1.659160e+002 -1.849255e+000 1.304001e+002
25201600000 -7.535918e+000 -8.528109e+001 -5.256406e+001 -1.755427e+002 -5.195004e+001 -1.702535e+002 -1.852889e+000 1.298232e+002
25220343750 -7.523328e+000 -8.648911e+001 -5.205873e+001 1.794669e+002 -5.171478e+001 -1.719383e+002 -1.848045e+000 1.292850e+002
25239087500 -7.507921e+000 -8.770898e+001 -5.238820e+001 -1.781870e+002 -5.141043e+001 -1.695968e+002 -1.849892e+000 1.288192e+002
25257831250 -7.494289e+000 -8.890257e+001 -5.218791e+001 -1.788475e+002 -5.140750e+001 -1.747727e+002 -1.861702e+000 1.282759e+002
25276575000 -7.480484e+000 -9.013967e+001 -5.196833e+001 -1.794544e+002 -5.113754e+001 -1.725429e+002 -1.855951e+000 1.277329e+002
25295318750 -7.466407e+000 -9.134605e+001 -5.147412e+001 1.798686e+002 -5.123332e+001 -1.753151e+002 -1.860565e+000 1.272419e+002
25314062500 -7.451650e+000 -9.255464e+001 -5.226108e+001 1.729832e+002 -5.133444e+001 -1.770373e+002 -1.870527e+000 1.266968e+002
25332806250 -7.430452e+000 -9.376662e+001 -5.206198e+001 1.701433e+002 -5.135904e+001 -1.774693e+002 -1.869168e+000 1.262064e+002
25351550000 -7.408249e+000 -9.494886e+001 -5.187092e+001 1.719413e+002 -5.158190e+001 1.750964e+002 -1.885190e+000 1.257526e+002
25370293750 -7.395473e+000 -9.608163e+001 -5.192712e+001 1.701548e+002 -5.164916e+001 1.755173e+002 -1.899105e+000 1.252216e+002
25389037500 -7.375707e+000 -9.725626e+001 -5.169834e+001 1.735763e+002 -5.119467e+001 1.714684e+002 -1.914606e+000 1.246971e+002
25407781250 -7.355798e+000 -9.844312e+001 -5.157740e+001 1.692036e+002 -5.039669e+001 1.695219e+002 -1.918698e+000 1.242480e+002
25426525000 -7.331771e+000 -9.958787e+001 -5.163393e+001 1.710689e+002 -5.056453e+001 1.677448e+002 -1.944203e+000 1.237895e+002
25445268750 -7.311817e+000 -1.007876e+002 -5.141185e+001 1.693605e+002 -5.037104e+001 1.642955e+002 -1.947765e+000 1.233099e+002
25464012500 -7.291627e+000 -1.019235e+002 -5.157193e+001 1.660117e+002 -5.024936e+001 1.595462e+002 -1.960997e+000 1.229366e+002
25482756250 -7.276460e+000 -1.031341e+002 -5.176921e+001 1.632913e+002 -5.074544e+001 1.537881e+002 -1.988320e+000 1.225401e+002
25501500000 -7.254632e+000 -1.043014e+002 -5.166321e+001 1.620941e+002 -5.091038e+001 1.520202e+002 -1.996591e+000 1.220017e+002
25520243750 -7.233165e+000 -1.054683e+002 -5.131979e+001 1.604938e+002 -5.093373e+001 1.473441e+002 -1.999200e+000 1.216149e+002
25538987500 -7.206882e+000 -1.066818e+002 -5.115202e+001 1.560235e+002 -5.094571e+001 1.446947e+002 -2.025432e+000 1.211933e+002
25557731250 -7.183372e+000 -1.078252e+002 -5.129794e+001 1.495190e+002 -5.072420e+001 1.455078e+002 -2.031221e+000 1.207111e+002
25576475000 -7.162180e+000 -1.089409e+002 -5.154894e+001 1.430437e+002 -5.085701e+001 1.431901e+002 -2.033193e+000 1.203386e+002
25595218750 -7.139117e+000 -1.101223e+002 -5.178671e+001 1.491659e+002 -5.131881e+001 1.369681e+002 -2.062338e+000 1.199084e+002
25613962500 -7.118304e+000 -1.112614e+002 -5.196039e+001 1.576864e+002 -5.130591e+001 1.293175e+002 -2.068246e+000 1.193894e+002
25632706250 -7.100336e+000 -1.124441e+002 -5.187438e+001 1.709122e+002 -5.146978e+001 1.266790e+002 -2.075740e+000 1.190240e+002
25651450000 -7.067900e+000 -1.136304e+002 -5.202326e+001 1.781523e+002 -5.178394e+001 1.251322e+002 -2.098619e+000 1.186015e+002
25670193750 -7.043523e+000 -1.147280e+002 -5.180017e+001 -1.686599e+002 -5.212895e+001 1.254149e+002 -2.103034e+000 1.181019e+002
25688937500 -7.026256e+000 -1.158465e+002 -5.230384e+001 -1.602265e+002 -5.279986e+001 1.293578e+002 -2.111086e+000 1.177883e+002
25707681250 -7.001944e+000 -1.170149e+002 -5.236268e+001 -1.485966e+002 -5.238212e+001 1.252387e+002 -2.141544e+000 1.173212e+002
25726425000 -6.981063e+000 -1.181389e+002 -5.258729e+001 -1.338628e+002 -5.234560e+001 1.245557e+002 -2.151177e+000 1.168442e+002
25745168750 -6.955637e+000 -1.192943e+002 -5.178234e+001 -1.140583e+002 -5.244429e+001 1.226347e+002 -2.164016e+000 1.164749e+002
25763912500 -6.921150e+000 -1.204510e+002 -5.213742e+001 -9.429814e+001 -5.249623e+001 1.167786e+002 -2.191216e+000 1.160057e+002
25782656250 -6.892765e+000 -1.215058e+002 -5.251574e+001 -7.747505e+001 -5.261795e+001 1.188262e+002 -2.194044e+000 1.155536e+002
25801400000 -6.870121e+000 -1.226267e+002 -5.265252e+001 -5.249321e+001 -5.304881e+001 1.123620e+002 -2.212394e+000 1.151670e+002
25820143750 -6.848108e+000 -1.237294e+002 -5.298428e+001 -2.544719e+001 -5.388343e+001 1.016364e+002 -2.227966e+000 1.147306e+002
25838887500 -6.823690e+000 -1.248196e+002 -5.355007e+001 -3.555641e+000 -5.423920e+001 8.360641e+001 -2.240729e+000 1.142599e+002
25857631250 -6.806091e+000 -1.259677e+002 -5.360255e+001 2.176143e+001 -5.412481e+001 6.567176e+001 -2.244211e+000 1.138444e+002
25876375000 -6.776101e+000 -1.270362e+002 -5.412208e+001 5.491997e+001 -5.442225e+001 4.388613e+001 -2.267003e+000 1.134361e+002
25895118750 -6.748326e+000 -1.280462e+002 -5.432240e+001 8.439467e+001 -5.471115e+001 3.187527e+001 -2.274133e+000 1.129537e+002
25913862500 -6.726978e+000 -1.290968e+002 -5.433672e+001 1.132247e+002 -5.435267e+001 1.304584e+001 -2.283223e+000 1.125423e+002
25932606250 -6.701260e+000 -1.301710e+002 -5.475030e+001 1.434586e+002 -5.454180e+001 -1.010950e+001 -2.302609e+000 1.121725e+002
25951350000 -6.679813e+000 -1.312217e+002 -5.549070e+001 1.798761e+002 -5.452275e+001 -3.099496e+001 -2.324518e+000 1.116954e+002
25970093750 -6.655128e+000 -1.322940e+002 -5.612170e+001 -1.388584e+002 -5.465916e+001 -5.579703e+001 -2.333633e+000 1.112747e+002
25988837500 -6.622431e+000 -1.333368e+002 -5.603150e+001 -9.772108e+001 -5.489150e+001 -8.705300e+001 -2.354077e+000 1.108799e+002
26007581250 -6.595730e+000 -1.343536e+002 -5.589035e+001 -6.082604e+001 -5.568640e+001 -1.218252e+002 -2.371258e+000 1.104106e+002
26026325000 -6.572931e+000 -1.353880e+002 -5.589247e+001 -2.998323e+001 -5.579325e+001 -1.575659e+002 -2.375383e+000 1.100001e+002
26045068750 -6.542572e+000 -1.364262e+002 -5.602918e+001 -6.904460e-004 -5.684211e+001 1.697210e+002 -2.399649e+000 1.095897e+002
26063812500 -6.515566e+000 -1.374481e+002 -5.624929e+001 2.883854e+001 -5.715345e+001 1.397145e+002 -2.417858e+000 1.091135e+002
26082556250 -6.492038e+000 -1.385070e+002 -5.663840e+001 5.739390e+001 -5.676474e+001 1.067372e+002 -2.428094e+000 1.087080e+002
26101300000 -6.459062e+000 -1.394953e+002 -5.694960e+001 8.249917e+001 -5.731053e+001 6.428354e+001 -2.452651e+000 1.083030e+002
26120043750 -6.433019e+000 -1.404988e+002 -5.663580e+001 1.188430e+002 -5.675714e+001 2.541708e+001 -2.467489e+000 1.078175e+002
26138787500 -6.408049e+000 -1.414821e+002 -5.713325e+001 1.579096e+002 -5.711998e+001 -8.801485e+000 -2.478508e+000 1.074288e+002
26157531250 -6.380790e+000 -1.425028e+002 -5.766547e+001 -1.700472e+002 -5.673239e+001 -5.088859e+001 -2.503179e+000 1.070032e+002
26176275000 -6.363932e+000 -1.434890e+002 -5.804855e+001 -1.417574e+002 -5.653654e+001 -9.025957e+001 -2.518355e+000 1.065294e+002
26195018750 -6.338351e+000 -1.445162e+002 -5.804540e+001 -1.161650e+002 -5.709944e+001 -1.276202e+002 -2.531724e+000 1.061244e+002
26213762500 -6.312035e+000 -1.455154e+002 -5.775002e+001 -8.233350e+001 -5.739225e+001 -1.660609e+002 -2.555294e+000 1.056846e+002
26232506250 -6.288433e+000 -1.464500e+002 -5.757135e+001 -5.288010e+001 -5.703271e+001 1.592815e+002 -2.565783e+000 1.052625e+002
26251250000 -6.262168e+000 -1.474480e+002 -5.748606e+001 -2.132689e+001 -5.654978e+001 1.347751e+002 -2.582423e+000 1.048602e+002
26269993750 -6.241035e+000 -1.484307e+002 -5.733904e+001 1.614665e+001 -5.666636e+001 1.138487e+002 -2.603317e+000 1.044135e+002
26288737500 -6.217812e+000 -1.494190e+002 -5.728747e+001 5.640755e+001 -5.689473e+001 9.010148e+001 -2.619124e+000 1.039573e+002
26307481250 -6.186424e+000 -1.504270e+002 -5.703168e+001 9.686757e+001 -5.682985e+001 6.680750e+001 -2.636172e+000 1.035374e+002
26326225000 -6.159394e+000 -1.514041e+002 -5.718907e+001 1.439710e+002 -5.693435e+001 3.703090e+001 -2.664405e+000 1.030740e+002
26344968750 -6.134556e+000 -1.523373e+002 -5.717123e+001 -1.740205e+002 -5.752749e+001 1.619839e+001 -2.681770e+000 1.025764e+002
26363712500 -6.106806e+000 -1.533039e+002 -5.695821e+001 -1.332514e+002 -5.746421e+001 -7.695177e+000 -2.700348e+000 1.021279e+002
26382456250 -6.084045e+000 -1.542400e+002 -5.685303e+001 -1.030592e+002 -5.759981e+001 -3.497329e+001 -2.723848e+000 1.016447e+002
26401200000 -6.058843e+000 -1.552176e+002 -5.678587e+001 -7.910664e+001 -5.771842e+001 -5.430156e+001 -2.735503e+000 1.011367e+002
26419943750 -6.027805e+000 -1.561852e+002 -5.672858e+001 -4.692859e+001 -5.821684e+001 -6.900813e+001 -2.755474e+000 1.007130e+002
26438687500 -6.000639e+000 -1.570766e+002 -5.697009e+001 -1.917652e+001 -5.749680e+001 -7.446233e+001 -2.785104e+000 1.002560e+002
26457431250 -5.979530e+000 -1.579763e+002 -5.714136e+001 8.378845e+000 -5.786777e+001 -7.414053e+001 -2.804123e+000 9.976091e+001
26476175000 -5.953238e+000 -1.589058e+002 -5.700140e+001 2.517497e+001 -5.727207e+001 -8.237750e+001 -2.823534e+000 9.931169e+001
26494918750 -5.934054e+000 -1.597862e+002 -5.679214e+001 3.381546e+001 -5.736713e+001 -9.233501e+001 -2.846190e+000 9.878477e+001
26513662500 -5.908985e+000 -1.607282e+002 -5.632347e+001 5.401662e+001 -5.749029e+001 -9.843082e+001 -2.861432e+000 9.824223e+001
26532406250 -5.880088e+000 -1.616770e+002 -5.589353e+001 7.446588e+001 -5.685658e+001 -1.052110e+002 -2.877570e+000 9.779612e+001
26551150000 -5.856335e+000 -1.625382e+002 -5.606463e+001 9.244697e+001 -5.699632e+001 -1.145294e+002 -2.896736e+000 9.728413e+001
26569893750 -5.836085e+000 -1.634456e+002 -5.549501e+001 1.081885e+002 -5.697197e+001 -1.191268e+002 -2.911467e+000 9.677787e+001
26588637500 -5.808916e+000 -1.643279e+002 -5.570980e+001 1.206877e+002 -5.725338e+001 -1.167621e+002 -2.934759e+000 9.633604e+001
26607381250 -5.784040e+000 -1.652226e+002 -5.595116e+001 1.348864e+002 -5.748499e+001 -1.178435e+002 -2.955642e+000 9.579909e+001
26626125000 -5.761062e+000 -1.661449e+002 -5.594465e+001 1.429816e+002 -5.684150e+001 -1.216078e+002 -2.970568e+000 9.528141e+001
26644868750 -5.732196e+000 -1.670209e+002 -5.607608e+001 1.403280e+002 -5.644026e+001 -1.351783e+002 -2.993501e+000 9.481344e+001
26663612500 -5.708132e+000 -1.679041e+002 -5.629560e+001 1.428599e+002 -5.649544e+001 -1.559236e+002 -3.015670e+000 9.424639e+001
26682356250 -5.688290e+000 -1.687929e+002 -5.660900e+001 1.364813e+002 -5.643504e+001 -1.791480e+002 -3.030633e+000 9.376717e+001
26701100000 -5.661297e+000 -1.696478e+002 -5.670373e+001 1.303736e+002 -5.632628e+001 1.635460e+002 -3.060765e+000 9.328490e+001
26719843750 -5.641852e+000 -1.705188e+002 -5.697052e+001 1.212307e+002 -5.630787e+001 1.457205e+002 -3.083977e+000 9.271669e+001
26738587500 -5.621239e+000 -1.714184e+002 -5.700348e+001 1.125355e+002 -5.644260e+001 1.285246e+002 -3.096463e+000 9.220770e+001
26757331250 -5.594475e+000 -1.722655e+002 -5.730370e+001 9.917871e+001 -5.621246e+001 1.122048e+002 -3.115252e+000 9.169862e+001
26776075000 -5.571818e+000 -1.730802e+002 -5.749300e+001 9.113485e+001 -5.562817e+001 9.230550e+001 -3.134119e+000 9.116894e+001
26794818750 -5.553795e+000 -1.739317e+002 -5.789188e+001 7.735373e+001 -5.547424e+001 7.756795e+001 -3.145567e+000 9.066496e+001
26813562500 -5.529432e+000 -1.747661e+002 -5.760541e+001 7.069530e+001 -5.563942e+001 6.728848e+001 -3.168305e+000 9.016745e+001
26832306250 -5.511866e+000 -1.756008e+002 -5.750033e+001 6.748961e+001 -5.565706e+001 5.343677e+001 -3.187603e+000 8.960922e+001
26851050000 -5.493210e+000 -1.764721e+002 -5.791055e+001 5.236044e+001 -5.518492e+001 3.850494e+001 -3.201627e+000 8.910953e+001
26869793750 -5.463919e+000 -1.772970e+002 -5.814446e+001 3.952264e+001 -5.515410e+001 2.285355e+001 -3.220828e+000 8.859545e+001
26888537500 -5.446019e+000 -1.780852e+002 -5.825027e+001 2.801949e+001 -5.475814e+001 -9.278851e-001 -3.239216e+000 8.804413e+001
26907281250 -5.426864e+000 -1.788875e+002 -5.844448e+001 2.164136e+001 -5.460725e+001 -2.545132e+001 -3.249994e+000 8.756670e+001
26926025000 -5.403298e+000 -1.796903e+002 -5.859034e+001 2.216046e+001 -5.429707e+001 -4.421630e+001 -3.273500e+000 8.706777e+001
26944768750 -5.387056e+000 1.795157e+002 -5.871587e+001 2.111056e+001 -5.431577e+001 -5.920251e+001 -3.287223e+000 8.652853e+001
26963512500 -5.362399e+000 1.786874e+002 -5.883919e+001 1.043569e+001 -5.448264e+001 -6.538086e+001 -3.303587e+000 8.602057e+001
26982256250 -5.334536e+000 1.779402e+002 -5.887085e+001 -3.409422e+000 -5.445465e+001 -6.523717e+001 -3.329246e+000 8.548510e+001
27001000000 -5.316668e+000 1.771935e+002 -5.970912e+001 -1.773566e+001 -5.419135e+001 -7.102573e+001 -3.347168e+000 8.493508e+001
27019743750 -5.294858e+000 1.763913e+002 -5.902035e+001 -2.974542e+001 -5.406302e+001 -7.786223e+001 -3.358230e+000 8.441422e+001
27038487500 -5.274640e+000 1.756345e+002 -5.859565e+001 -3.839721e+001 -5.408702e+001 -8.108459e+001 -3.380826e+000 8.391422e+001
27057231250 -5.258677e+000 1.748666e+002 -5.893641e+001 -4.430690e+001 -5.420097e+001 -7.093790e+001 -3.390743e+000 8.337344e+001
27075975000 -5.227725e+000 1.740822e+002 -5.878956e+001 -4.648418e+001 -5.411134e+001 -5.084607e+001 -3.405888e+000 8.288834e+001
27094718750 -5.201005e+000 1.733563e+002 -5.895379e+001 -5.750217e+001 -5.417665e+001 -2.027953e+001 -3.424428e+000 8.237127e+001
27113462500 -5.179663e+000 1.726294e+002 -5.879272e+001 -6.223206e+001 -5.414037e+001 1.159950e+001 -3.436152e+000 8.182233e+001
27132206250 -5.159054e+000 1.718801e+002 -5.882446e+001 -7.391845e+001 -5.427327e+001 3.803346e+001 -3.450277e+000 8.128805e+001
27150950000 -5.140884e+000 1.711584e+002 -5.898177e+001 -8.392625e+001 -5.415918e+001 6.627567e+001 -3.467575e+000 8.076063e+001
27169693750 -5.118218e+000 1.703805e+002 -5.920829e+001 -9.748142e+001 -5.410671e+001 9.975366e+001 -3.478517e+000 8.022622e+001
27188437500 -5.093185e+000 1.696154e+002 -5.863977e+001 -1.107470e+002 -5.404077e+001 1.274960e+002 -3.496284e+000 7.975169e+001
27207181250 -5.070835e+000 1.689227e+002 -5.827772e+001 -1.193048e+002 -5.414186e+001 1.648573e+002 -3.510036e+000 7.920011e+001
27225925000 -5.056897e+000 1.681921e+002 -5.794253e+001 -1.273328e+002 -5.431692e+001 -1.531427e+002 -3.524274e+000 7.866705e+001
27244668750 -5.033525e+000 1.674559e+002 -5.780567e+001 -1.374752e+002 -5.399376e+001 -1.046303e+002 -3.539475e+000 7.815778e+001
27263412500 -5.016044e+000 1.667521e+002 -5.745639e+001 -1.484331e+002 -5.373007e+001 -5.962592e+001 -3.557816e+000 7.763585e+001
27282156250 -4.995971e+000 1.659781e+002 -5.753479e+001 -1.520762e+002 -5.377320e+001 -1.233296e+001 -3.564969e+000 7.710550e+001
27300900000 -4.968209e+000 1.652326e+002 -5.709858e+001 -1.528149e+002 -5.392033e+001 2.995425e+001 -3.579488e+000 7.660955e+001
27319643750 -4.946290e+000 1.645611e+002 -5.706533e+001 -1.567708e+002 -5.366664e+001 7.965006e+001 -3.593788e+000 7.611237e+001
27338387500 -4.931478e+000 1.638183e+002 -5.689985e+001 -1.599441e+002 -5.374515e+001 1.330502e+002 -3.603450e+000 7.561823e+001
27357131250 -4.910291e+000 1.630873e+002 -5.662109e+001 -1.655417e+002 -5.375337e+001 -1.736562e+002 -3.617361e+000 7.514613e+001
27375875000 -4.895656e+000 1.623573e+002 -5.625737e+001 -1.735802e+002 -5.434211e+001 -1.309739e+002 -3.631457e+000 7.462156e+001
27394618750 -4.879182e+000 1.615527e+002 -5.613965e+001 -1.789605e+002 -5.414735e+001 -9.178929e+001 -3.637835e+000 7.412667e+001
27413362500 -4.850915e+000 1.608174e+002 -5.585501e+001 1.798697e+002 -5.417839e+001 -6.136700e+001 -3.656861e+000 7.366668e+001
27432106250 -4.833214e+000 1.601469e+002 -5.522868e+001 1.742372e+002 -5.394420e+001 -2.721401e+001 -3.665824e+000 7.315231e+001
27450850000 -4.821048e+000 1.594649e+002 -5.495417e+001 1.726200e+002 -5.379555e+001 6.560636e+000 -3.674350e+000 7.266331e+001
27469593750 -4.798619e+000 1.587572e+002 -5.463074e+001 1.709648e+002 -5.358087e+001 3.501140e+001 -3.692494e+000 7.213837e+001
27488337500 -4.787335e+000 1.580267e+002 -5.407048e+001 1.708562e+002 -5.345829e+001 5.633019e+001 -3.708999e+000 7.158902e+001
27507081250 -4.771721e+000 1.572607e+002 -5.514954e+001 1.729854e+002 -5.386923e+001 7.826044e+001 -3.714725e+000 7.112578e+001
27525825000 -4.742684e+000 1.565794e+002 -5.505887e+001 1.782341e+002 -5.414825e+001 9.183518e+001 -3.729293e+000 7.064912e+001
27544568750 -4.734057e+000 1.559305e+002 -5.497944e+001 1.773444e+002 -5.413918e+001 1.032765e+002 -3.740892e+000 7.012882e+001
27563312500 -4.718648e+000 1.552166e+002 -5.452676e+001 -1.768415e+002 -5.400348e+001 1.161389e+002 -3.741512e+000 6.970295e+001
27582056250 -4.701219e+000 1.545332e+002 -5.396162e+001 -1.765368e+002 -5.427076e+001 1.306035e+002 -3.753545e+000 6.924795e+001
27600800000 -4.698215e+000 1.538405e+002 -5.350637e+001 1.790192e+002 -5.392188e+001 1.420319e+002 -3.759560e+000 6.872922e+001
27619543750 -4.676370e+000 1.530996e+002 -5.371605e+001 1.786262e+002 -5.393865e+001 1.578831e+002 -3.760211e+000 6.828755e+001
27638287500 -4.648623e+000 1.524427e+002 -5.383385e+001 1.743958e+002 -5.408834e+001 1.737495e+002 -3.774616e+000 6.781818e+001
27657031250 -4.638259e+000 1.518027e+002 -5.376841e+001 1.716583e+002 -5.382580e+001 1.767006e+002 -3.775933e+000 6.731786e+001
27675775000 -4.626026e+000 1.511014e+002 -5.379781e+001 1.723190e+002 -5.418341e+001 1.738281e+002 -3.775697e+000 6.688987e+001
27694518750 -4.610205e+000 1.504517e+002 -5.368524e+001 1.683884e+002 -5.413868e+001 1.703880e+002 -3.779053e+000 6.640369e+001
27713262500 -4.603879e+000 1.497645e+002 -5.418906e+001 1.646508e+002 -5.392818e+001 1.635211e+002 -3.779533e+000 6.590521e+001
27732006250 -4.581998e+000 1.490279e+002 -5.410833e+001 1.633092e+002 -5.382792e+001 1.610152e+002 -3.780540e+000 6.548688e+001
27750750000 -4.559457e+000 1.483969e+002 -5.391377e+001 1.602259e+002 -5.437611e+001 1.510369e+002 -3.787085e+000 6.498407e+001
27769493750 -4.550069e+000 1.477400e+002 -5.414049e+001 1.569016e+002 -5.456431e+001 1.482510e+002 -3.787791e+000 6.446722e+001
27788237500 -4.529816e+000 1.470778e+002 -5.416324e+001 1.541271e+002 -5.489107e+001 1.394940e+002 -3.787957e+000 6.401771e+001
27806981250 -4.516318e+000 1.464781e+002 -5.423969e+001 1.481720e+002 -5.455441e+001 1.276386e+002 -3.796867e+000 6.351986e+001
27825725000 -4.507779e+000 1.458047e+002 -5.495746e+001 1.498396e+002 -5.459998e+001 1.235531e+002 -3.798793e+000 6.302985e+001
27844468750 -4.486154e+000 1.451014e+002 -5.469482e+001 1.452398e+002 -5.439457e+001 1.206006e+002 -3.797236e+000 6.254735e+001
27863212500 -4.464805e+000 1.445012e+002 -5.459550e+001 1.434840e+002 -5.465500e+001 1.154905e+002 -3.801638e+000 6.203928e+001
27881956250 -4.454676e+000 1.438374e+002 -5.498979e+001 1.396287e+002 -5.474006e+001 1.141875e+002 -3.797250e+000 6.151738e+001
27900700000 -4.440219e+000 1.431685e+002 -5.521325e+001 1.392153e+002 -5.490543e+001 1.194210e+002 -3.792152e+000 6.112178e+001
27919443750 -4.430920e+000 1.425671e+002 -5.526370e+001 1.374019e+002 -5.490971e+001 1.303013e+002 -3.795887e+000 6.066818e+001
27938187500 -4.424163e+000 1.418647e+002 -5.460079e+001 1.380014e+002 -5.469670e+001 1.288668e+002 -3.794566e+000 6.013874e+001
27956931250 -4.402499e+000 1.411938e+002 -5.472615e+001 1.448244e+002 -5.424604e+001 1.272843e+002 -3.799560e+000 5.966924e+001
27975675000 -4.381303e+000 1.405919e+002 -5.463382e+001 1.556222e+002 -5.457376e+001 1.199410e+002 -3.806684e+000 5.915450e+001
27994418750 -4.373168e+000 1.399340e+002 -5.511892e+001 1.677380e+002 -5.454222e+001 1.155663e+002 -3.806303e+000 5.863740e+001
28013162500 -4.353186e+000 1.392988e+002 -5.539237e+001 1.791319e+002 -5.446418e+001 1.121351e+002 -3.812983e+000 5.815591e+001
28031906250 -4.344602e+000 1.386938e+002 -5.601104e+001 -1.687316e+002 -5.429579e+001 1.093670e+002 -3.823635e+000 5.768565e+001
28050650000 -4.334919e+000 1.379680e+002 -5.617932e+001 -1.628252e+002 -5.480492e+001 1.104800e+002 -3.829954e+000 5.717156e+001
28069393750 -4.317058e+000 1.372711e+002 -5.651413e+001 -1.616832e+002 -5.467110e+001 1.104745e+002 -3.840137e+000 5.668721e+001
28088137500 -4.301704e+000 1.366819e+002 -5.674401e+001 -1.657084e+002 -5.478292e+001 1.216218e+002 -3.854003e+000 5.614545e+001
28106881250 -4.287817e+000 1.360427e+002 -5.682665e+001 -1.739882e+002 -5.450137e+001 1.360566e+002 -3.858414e+000 5.561496e+001
28125625000 -4.271402e+000 1.354131e+002 -5.723395e+001 1.773971e+002 -5.469181e+001 1.459803e+002 -3.870067e+000 5.514511e+001
28144368750 -4.265072e+000 1.347849e+002 -5.688316e+001 1.687863e+002 -5.525513e+001 1.580352e+002 -3.884017e+000 5.457943e+001
28163112500 -4.261464e+000 1.340996e+002 -5.711915e+001 1.633766e+002 -5.543605e+001 1.718955e+002 -3.893793e+000 5.404319e+001
28181856250 -4.239171e+000 1.334471e+002 -5.717282e+001 1.582141e+002 -5.485814e+001 -1.748727e+002 -3.911629e+000 5.353247e+001
28200600000 -4.226530e+000 1.328981e+002 -5.693439e+001 1.546358e+002 -5.451203e+001 -1.623224e+002 -3.927216e+000 5.298199e+001
28219343750 -4.219493e+000 1.322623e+002 -5.675067e+001 1.508898e+002 -5.505461e+001 -1.428465e+002 -3.937110e+000 5.243868e+001
28238087500 -4.207069e+000 1.316513e+002 -5.739822e+001 1.513228e+002 -5.510790e+001 -1.242072e+002 -3.949811e+000 5.192791e+001
28256831250 -4.203100e+000 1.310566e+002 -5.687383e+001 1.474208e+002 -5.474852e+001 -1.100028e+002 -3.964375e+000 5.137000e+001
28275575000 -4.192649e+000 1.303850e+002 -5.745884e+001 1.434857e+002 -5.495964e+001 -9.767436e+001 -3.978593e+000 5.082840e+001
28294318750 -4.173315e+000 1.297816e+002 -5.731561e+001 1.407714e+002 -5.522339e+001 -8.584885e+001 -4.000315e+000 5.029240e+001
28313062500 -4.162932e+000 1.292155e+002 -5.694921e+001 1.411401e+002 -5.508009e+001 -7.618907e+001 -4.020744e+000 4.970414e+001
28331806250 -4.154106e+000 1.286324e+002 -5.758118e+001 1.327234e+002 -5.482133e+001 -7.087943e+001 -4.034684e+000 4.909086e+001
28350550000 -4.144895e+000 1.280753e+002 -5.768993e+001 1.277778e+002 -5.494227e+001 -6.927813e+001 -4.056430e+000 4.852171e+001
28369293750 -4.143102e+000 1.274595e+002 -5.724119e+001 1.182137e+002 -5.447871e+001 -6.166365e+001 -4.078040e+000 4.793437e+001
28388037500 -4.136848e+000 1.267747e+002 -5.678310e+001 1.000792e+002 -5.446566e+001 -5.062367e+001 -4.101826e+000 4.735663e+001
28406781250 -4.120282e+000 1.261952e+002 -5.684610e+001 8.341470e+001 -5.419049e+001 -3.501339e+001 -4.130454e+000 4.675701e+001
28425525000 -4.106781e+000 1.256458e+002 -5.630057e+001 6.520300e+001 -5.436355e+001 -1.953000e+001 -4.157323e+000 4.609841e+001
28444268750 -4.098606e+000 1.250864e+002 -5.613697e+001 4.773172e+001 -5.404673e+001 -4.278447e+000 -4.179585e+000 4.547934e+001
28463012500 -4.090630e+000 1.245420e+002 -5.587198e+001 2.990974e+001 -5.416565e+001 1.250604e+001 -4.202966e+000 4.487410e+001
28481756250 -4.092605e+000 1.239669e+002 -5.540926e+001 1.452934e+001 -5.363485e+001 2.276746e+001 -4.229913e+000 4.427524e+001
28500500000 -4.081454e+000 1.233641e+002 -5.493479e+001 3.168092e+000 -5.342710e+001 2.350719e+001 -4.255854e+000 4.369205e+001
28519243750 -4.065896e+000 1.228350e+002 -5.477775e+001 -7.873574e-002 -5.337600e+001 2.099897e+001 -4.286953e+000 4.308186e+001
28537987500 -4.058908e+000 1.223077e+002 -5.495966e+001 -5.710827e+000 -5.430478e+001 1.764017e+001 -4.321074e+000 4.240673e+001
28556731250 -4.049473e+000 1.217685e+002 -5.467669e+001 -4.341965e+000 -5.412873e+001 1.569744e+001 -4.348195e+000 4.175531e+001
28575475000 -4.042530e+000 1.212589e+002 -5.407449e+001 -4.325878e+000 -5.359030e+001 1.582929e+001 -4.381134e+000 4.115033e+001
28594218750 -4.039746e+000 1.206742e+002 -5.394263e+001 -7.850403e+000 -5.350189e+001 1.299389e+001 -4.413318e+000 4.050445e+001
28612962500 -4.029012e+000 1.200502e+002 -5.374569e+001 -8.692696e+000 -5.349228e+001 1.467389e+001 -4.443737e+000 3.987005e+001
28631706250 -4.014880e+000 1.195214e+002 -5.362391e+001 -1.278340e+001 -5.315958e+001 1.280674e+001 -4.478594e+000 3.921324e+001
28650450000 -4.010820e+000 1.189829e+002 -5.376495e+001 -1.258338e+001 -5.196943e+001 4.803070e+000 -4.513608e+000 3.852862e+001
28669193750 -3.999791e+000 1.184551e+002 -5.341311e+001 -1.768759e+001 -5.152174e+001 1.795439e+000 -4.546791e+000 3.788757e+001
28687937500 -3.991975e+000 1.179500e+002 -5.345132e+001 -2.290695e+001 -5.160029e+001 -3.694301e+000 -4.586946e+000 3.721974e+001
28706681250 -3.993554e+000 1.173695e+002 -5.331400e+001 -2.258203e+001 -5.128957e+001 -4.769631e+000 -4.625636e+000 3.657241e+001
28725425000 -3.983493e+000 1.167720e+002 -5.336733e+001 -2.473069e+001 -5.099831e+001 -6.974981e+000 -4.668083e+000 3.588873e+001
28744168750 -3.972313e+000 1.162528e+002 -5.316352e+001 -2.771887e+001 -5.091560e+001 -7.069704e+000 -4.713231e+000 3.522769e+001
28762912500 -3.966018e+000 1.157292e+002 -5.243631e+001 -2.566653e+001 -5.119520e+001 -8.664207e+000 -4.756329e+000 3.452454e+001
28781656250 -3.954202e+000 1.152194e+002 -5.236689e+001 -2.915672e+001 -5.088400e+001 -1.302052e+001 -4.790087e+000 3.384934e+001
28800400000 -3.951873e+000 1.147343e+002 -5.230048e+001 -3.265711e+001 -5.097771e+001 -1.566181e+001 -4.833518e+000 3.317583e+001
28819143750 -3.949486e+000 1.141730e+002 -5.213773e+001 -3.261028e+001 -5.116752e+001 -1.856688e+001 -4.876934e+000 3.248340e+001
28837887500 -3.938499e+000 1.135954e+002 -5.197452e+001 -3.588332e+001 -5.132051e+001 -1.949605e+001 -4.917888e+000 3.181135e+001
28856631250 -3.932116e+000 1.130717e+002 -5.201308e+001 -3.781056e+001 -5.118812e+001 -2.132138e+001 -4.968518e+000 3.109152e+001
28875375000 -3.923188e+000 1.125422e+002 -5.187831e+001 -4.112733e+001 -5.132669e+001 -2.292445e+001 -5.012959e+000 3.035906e+001
28894118750 -3.915770e+000 1.120190e+002 -5.156157e+001 -4.434561e+001 -5.121297e+001 -2.827829e+001 -5.060240e+000 2.962849e+001
28912862500 -3.907538e+000 1.115132e+002 -5.166566e+001 -4.461287e+001 -5.105289e+001 -3.013348e+001 -5.108057e+000 2.888500e+001
28931606250 -3.901284e+000 1.109522e+002 -5.144914e+001 -4.213195e+001 -5.139750e+001 -3.118669e+001 -5.155619e+000 2.813780e+001
28950350000 -3.887847e+000 1.103716e+002 -5.119212e+001 -4.299834e+001 -5.129297e+001 -3.079957e+001 -5.208106e+000 2.742227e+001
28969093750 -3.875761e+000 1.098556e+002 -5.106752e+001 -4.021901e+001 -5.038200e+001 -3.704473e+001 -5.260089e+000 2.669397e+001
28987837500 -3.865212e+000 1.093288e+002 -5.108617e+001 -3.970623e+001 -5.043052e+001 -3.790547e+001 -5.315629e+000 2.591723e+001
29006581250 -3.855878e+000 1.088372e+002 -5.094709e+001 -4.140028e+001 -5.057374e+001 -3.869470e+001 -5.370984e+000 2.515857e+001
29025325000 -3.850309e+000 1.083348e+002 -5.085751e+001 -4.166012e+001 -5.080574e+001 -3.893799e+001 -5.429674e+000 2.434955e+001
29044068750 -3.846625e+000 1.077659e+002 -5.057618e+001 -4.187367e+001 -5.098835e+001 -3.931649e+001 -5.484662e+000 2.354510e+001
29062812500 -3.833866e+000 1.071706e+002 -5.054948e+001 -4.249192e+001 -5.083471e+001 -4.268808e+001 -5.547797e+000 2.274794e+001
29081556250 -3.820357e+000 1.066295e+002 -5.060300e+001 -4.793393e+001 -5.100779e+001 -4.559195e+001 -5.607010e+000 2.192434e+001
29100300000 -3.810990e+000 1.060979e+002 -5.044133e+001 -4.622668e+001 -5.111246e+001 -4.536836e+001 -5.666155e+000 2.110052e+001
29119043750 -3.806585e+000 1.055690e+002 -5.023091e+001 -4.573015e+001 -5.092324e+001 -4.413534e+001 -5.724596e+000 2.029552e+001
29137787500 -3.804686e+000 1.050249e+002 -5.002890e+001 -4.924147e+001 -5.078532e+001 -4.557500e+001 -5.787051e+000 1.946377e+001
29156531250 -3.799899e+000 1.044345e+002 -4.997743e+001 -5.144664e+001 -5.080293e+001 -4.561425e+001 -5.847958e+000 1.866245e+001
29175275000 -3.787625e+000 1.038340e+002 -5.004559e+001 -5.249308e+001 -5.084443e+001 -4.716965e+001 -5.914844e+000 1.783299e+001
29194018750 -3.776540e+000 1.032666e+002 -5.022308e+001 -5.242429e+001 -5.043684e+001 -4.933976e+001 -5.985700e+000 1.696056e+001
29212762500 -3.767218e+000 1.027052e+002 -5.015058e+001 -5.151572e+001 -5.056118e+001 -4.941803e+001 -6.051079e+000 1.606104e+001
29231506250 -3.760592e+000 1.021640e+002 -5.015177e+001 -5.194823e+001 -5.040915e+001 -5.120708e+001 -6.117997e+000 1.522314e+001
29250250000 -3.763953e+000 1.016184e+002 -5.037104e+001 -5.526500e+001 -5.022349e+001 -5.051737e+001 -6.184195e+000 1.434384e+001
29268993750 -3.761111e+000 1.010056e+002 -5.038713e+001 -5.587780e+001 -4.992905e+001 -4.994094e+001 -6.254760e+000 1.348835e+001
29287737500 -3.755499e+000 1.004119e+002 -5.028266e+001 -5.760885e+001 -4.973883e+001 -5.118742e+001 -6.330788e+000 1.266280e+001
29306481250 -3.752840e+000 9.982946e+001 -5.024281e+001 -5.669135e+001 -4.953077e+001 -5.449767e+001 -6.408308e+000 1.180028e+001
29325225000 -3.746711e+000 9.928946e+001 -5.034188e+001 -5.625879e+001 -4.946141e+001 -5.403401e+001 -6.481956e+000 1.090455e+001
29343968750 -3.754227e+000 9.875481e+001 -5.008203e+001 -5.794439e+001 -4.943079e+001 -5.663319e+001 -6.563623e+000 1.002048e+001
29362712500 -3.765364e+000 9.817001e+001 -5.015313e+001 -6.055239e+001 -4.887775e+001 -5.693364e+001 -6.641316e+000 9.123013e+000
29381456250 -3.767354e+000 9.754374e+001 -5.006498e+001 -6.197964e+001 -4.879410e+001 -5.859978e+001 -6.717417e+000 8.233186e+000
29400200000 -3.770024e+000 9.693602e+001 -4.961992e+001 -6.279179e+001 -4.850370e+001 -5.709558e+001 -6.808718e+000 7.316089e+000
29418943750 -3.774741e+000 9.633669e+001 -4.936352e+001 -6.519087e+001 -4.820218e+001 -5.776846e+001 -6.892416e+000 6.445259e+000
29437687500 -3.779962e+000 9.577364e+001 -4.925597e+001 -6.491965e+001 -4.787880e+001 -5.844887e+001 -6.977220e+000 5.574295e+000
29456431250 -3.793936e+000 9.522573e+001 -4.894954e+001 -6.652683e+001 -4.731391e+001 -6.072222e+001 -7.072597e+000 4.715601e+000
29475175000 -3.808259e+000 9.465899e+001 -4.886769e+001 -6.941624e+001 -4.698309e+001 -6.205054e+001 -7.169482e+000 3.854879e+000
29493918750 -3.823755e+000 9.406631e+001 -4.859810e+001 -7.105093e+001 -4.693946e+001 -6.202090e+001 -7.268317e+000 3.005060e+000
29512662500 -3.833325e+000 9.350819e+001 -4.818937e+001 -7.082046e+001 -4.667067e+001 -6.295954e+001 -7.375823e+000 2.114651e+000
29531406250 -3.844573e+000 9.294889e+001 -4.775093e+001 -7.511263e+001 -4.625616e+001 -6.546155e+001 -7.479103e+000 1.256761e+000
29550150000 -3.859204e+000 9.246291e+001 -4.745113e+001 -7.672997e+001 -4.617971e+001 -6.899839e+001 -7.589759e+000 4.240268e-001
29568893750 -3.881402e+000 9.196856e+001 -4.716493e+001 -7.784103e+001 -4.612640e+001 -7.191930e+001 -7.703626e+000 -4.033747e-001
29587637500 -3.901151e+000 9.142148e+001 -4.697577e+001 -8.037676e+001 -4.566975e+001 -7.296615e+001 -7.817792e+000 -1.219578e+000
29606381250 -3.919480e+000 9.090691e+001 -4.667363e+001 -8.226739e+001 -4.545526e+001 -7.519352e+001 -7.938015e+000 -1.982655e+000
29625125000 -3.938610e+000 9.040199e+001 -4.614899e+001 -8.562922e+001 -4.531534e+001 -7.744394e+001 -8.067185e+000 -2.747547e+000
29643868750 -3.957521e+000 8.992059e+001 -4.577848e+001 -8.857258e+001 -4.489624e+001 -8.055396e+001 -8.195387e+000 -3.474338e+000
29662612500 -3.981208e+000 8.949139e+001 -4.545103e+001 -9.059274e+001 -4.474459e+001 -8.250951e+001 -8.330306e+000 -4.186285e+000
29681356250 -4.010332e+000 8.903534e+001 -4.512281e+001 -9.206667e+001 -4.440656e+001 -8.643462e+001 -8.465164e+000 -4.859247e+000
29700100000 -4.039762e+000 8.855446e+001 -4.477713e+001 -9.453220e+001 -4.389722e+001 -9.020129e+001 -8.600555e+000 -5.485853e+000
29718843750 -4.066957e+000 8.811330e+001 -4.471817e+001 -9.750552e+001 -4.364257e+001 -9.363176e+001 -8.739226e+000 -6.026406e+000
29737587500 -4.090326e+000 8.768899e+001 -4.447782e+001 -1.016350e+002 -4.329367e+001 -9.557330e+001 -8.883675e+000 -6.566390e+000
29756331250 -4.114439e+000 8.730988e+001 -4.414027e+001 -1.047305e+002 -4.309798e+001 -9.975293e+001 -9.034441e+000 -7.034465e+000
29775075000 -4.141482e+000 8.699443e+001 -4.405413e+001 -1.077301e+002 -4.301059e+001 -1.017943e+002 -9.186748e+000 -7.464037e+000
29793818750 -4.175481e+000 8.666034e+001 -4.389251e+001 -1.107908e+002 -4.296510e+001 -1.050041e+002 -9.341044e+000 -7.830034e+000
29812562500 -4.215194e+000 8.634762e+001 -4.379620e+001 -1.133610e+002 -4.273022e+001 -1.086784e+002 -9.494016e+000 -8.151874e+000
29831306250 -4.253161e+000 8.603477e+001 -4.368512e+001 -1.168939e+002 -4.265042e+001 -1.127222e+002 -9.634073e+000 -8.399756e+000
29850050000 -4.291218e+000 8.572707e+001 -4.365136e+001 -1.199448e+002 -4.256907e+001 -1.158748e+002 -9.780683e+000 -8.657572e+000
29868793750 -4.319366e+000 8.541891e+001 -4.360927e+001 -1.227357e+002 -4.242461e+001 -1.197345e+002 -9.920021e+000 -8.913353e+000
29887537500 -4.343040e+000 8.519405e+001 -4.354586e+001 -1.257980e+002 -4.236591e+001 -1.230593e+002 -1.004151e+001 -9.116512e+000
29906281250 -4.373813e+000 8.500916e+001 -4.341618e+001 -1.282018e+002 -4.223171e+001 -1.263706e+002 -1.016020e+001 -9.266334e+000
29925025000 -4.403623e+000 8.483749e+001 -4.340078e+001 -1.307217e+002 -4.217865e+001 -1.301493e+002 -1.027195e+001 -9.376737e+000
29943768750 -4.437376e+000 8.465148e+001 -4.336034e+001 -1.319873e+002 -4.213596e+001 -1.334518e+002 -1.038008e+001 -9.400644e+000
29962512500 -4.467985e+000 8.444714e+001 -4.344808e+001 -1.338536e+002 -4.217003e+001 -1.362709e+002 -1.049138e+001 -9.462008e+000
29981256250 -4.486348e+000 8.424176e+001 -4.349196e+001 -1.369273e+002 -4.212043e+001 -1.381623e+002 -1.058916e+001 -9.537243e+000
30000000000 -4.501592e+000 8.412493e+001 -4.345668e+001 -1.386117e+002 -4.201606e+001 -1.402292e+002 -1.067362e+001 -9.564253e+000
