!Agilent Technologies,E8364B,MY43040894,A.07.50.67
!Agilent E8364B: A.07.50.67
!Date: Tuesday, May 12, 2020 09:52:55
!Correction: S11(Full 2 Port(1,2)) 
!S21(Full 2 Port(1,2)) 
!S12(Full 2 Port(1,2)) 
!S22(Full 2 Port(1,2)) 
!S2P File: Measurements: S11, S21, S12, S22:
# Hz S  dB   R 50
10000000 -2.260027e-001 -5.543117e+000 -5.408567e+001 -4.418354e+001 -4.496848e+001 1.218718e+002 -6.281412e-002 -1.525542e+000
28743750 -2.343574e-001 -6.318003e+000 -5.474924e+001 -3.917306e+001 -4.589304e+001 1.117128e+002 -6.278946e-002 -1.855190e+000
47487500 -2.420264e-001 -7.165469e+000 -5.527110e+001 -3.597330e+001 -4.665248e+001 1.026035e+002 -6.200089e-002 -2.216089e+000
66231250 -2.490156e-001 -8.066016e+000 -5.527266e+001 -3.296354e+001 -4.778049e+001 8.783948e+001 -6.138776e-002 -2.589318e+000
84975000 -2.590898e-001 -9.040805e+000 -5.554986e+001 -3.406834e+001 -4.847600e+001 7.729192e+001 -6.118542e-002 -2.997199e+000
103718750 -2.713432e-001 -1.007636e+001 -5.581918e+001 -3.393363e+001 -4.996334e+001 6.775407e+001 -5.722035e-002 -3.414425e+000
122462500 -2.839850e-001 -1.115391e+001 -5.606177e+001 -2.723487e+001 -5.064629e+001 5.913402e+001 -5.297778e-002 -3.841897e+000
141206250 -2.970634e-001 -1.231214e+001 -5.634806e+001 -2.442160e+001 -5.189151e+001 4.948668e+001 -5.108329e-002 -4.306888e+000
159950000 -3.113820e-001 -1.352774e+001 -5.667441e+001 -2.225520e+001 -5.303592e+001 3.843992e+001 -4.807794e-002 -4.792016e+000
178693750 -3.262728e-001 -1.480430e+001 -5.722038e+001 -2.135135e+001 -5.388355e+001 2.684183e+001 -4.642205e-002 -5.299420e+000
197437500 -3.406973e-001 -1.613385e+001 -5.723643e+001 -1.891521e+001 -5.513829e+001 1.724753e+001 -4.284495e-002 -5.835134e+000
216181250 -3.586462e-001 -1.751915e+001 -5.724571e+001 -1.450588e+001 -5.637903e+001 6.548305e+000 -3.816461e-002 -6.375090e+000
234925000 -3.747495e-001 -1.898303e+001 -5.782766e+001 -1.108245e+001 -5.715746e+001 -3.622557e+000 -3.186330e-002 -6.953692e+000
253668750 -3.964736e-001 -2.040994e+001 -5.809901e+001 -1.322908e+001 -5.767973e+001 -8.531554e+000 -2.825392e-002 -7.485526e+000
272412500 -4.166421e-001 -2.182795e+001 -5.904858e+001 -1.800783e+001 -5.866887e+001 -1.362770e+001 -2.408945e-002 -8.020793e+000
291156250 -4.363481e-001 -2.326389e+001 -5.961099e+001 -1.192963e+001 -5.887680e+001 -1.923006e+001 -2.059503e-002 -8.557674e+000
309900000 -4.565962e-001 -2.469395e+001 -5.968275e+001 -4.584347e+000 -5.906137e+001 -2.274353e+001 -1.654847e-002 -9.095974e+000
328643750 -4.781700e-001 -2.609219e+001 -5.993125e+001 -3.342530e+000 -5.954816e+001 -2.411481e+001 -1.145665e-002 -9.612251e+000
347387500 -4.998157e-001 -2.749988e+001 -6.026226e+001 -8.430703e+000 -5.987468e+001 -2.884871e+001 -5.684427e-003 -1.015817e+001
366131250 -5.184307e-001 -2.888440e+001 -6.040481e+001 -1.000990e+001 -6.022469e+001 -3.091389e+001 -2.320083e-004 -1.069103e+001
384875000 -5.408238e-001 -3.027206e+001 -6.047781e+001 -8.254700e+000 -6.007389e+001 -2.748457e+001 1.735045e-003 -1.121684e+001
403618750 -5.630549e-001 -3.168349e+001 -6.042004e+001 -1.161482e+001 -6.046951e+001 -2.496030e+001 4.525588e-003 -1.175677e+001
422362500 -5.823787e-001 -3.306099e+001 -6.088992e+001 -2.157533e+001 -6.072945e+001 -2.145447e+001 9.081756e-003 -1.228982e+001
441106250 -6.037905e-001 -3.442710e+001 -6.096674e+001 -2.855186e+001 -6.053514e+001 -2.086442e+001 1.390736e-002 -1.282175e+001
459850000 -6.235026e-001 -3.580716e+001 -6.086406e+001 -2.911579e+001 -6.058113e+001 -2.076491e+001 1.963050e-002 -1.334310e+001
478593750 -6.446687e-001 -3.717297e+001 -6.125145e+001 -2.718295e+001 -6.139693e+001 -2.422164e+001 2.501081e-002 -1.385046e+001
497337500 -6.670784e-001 -3.854047e+001 -6.165879e+001 -2.896967e+001 -6.141135e+001 -1.925421e+001 2.924959e-002 -1.437846e+001
516081250 -6.871859e-001 -3.987712e+001 -6.165631e+001 -2.742224e+001 -6.229621e+001 -1.780272e+001 3.422060e-002 -1.489825e+001
534825000 -7.058457e-001 -4.122843e+001 -6.221665e+001 -2.415175e+001 -6.193321e+001 -1.507347e+001 3.440878e-002 -1.543126e+001
553568750 -7.265339e-001 -4.258550e+001 -6.230133e+001 -2.902778e+001 -6.258783e+001 -1.808532e+001 3.477919e-002 -1.598364e+001
572312500 -7.467991e-001 -4.391699e+001 -6.232229e+001 -3.099444e+001 -6.287469e+001 -2.124985e+001 3.755321e-002 -1.652070e+001
591056250 -7.666559e-001 -4.525713e+001 -6.256388e+001 -3.706414e+001 -6.261532e+001 -2.138094e+001 3.867231e-002 -1.705340e+001
609800000 -7.852537e-001 -4.657861e+001 -6.268438e+001 -3.490026e+001 -6.274736e+001 -2.031702e+001 4.070294e-002 -1.759149e+001
628543750 -8.050964e-001 -4.790182e+001 -6.328755e+001 -3.570247e+001 -6.244710e+001 -2.344985e+001 4.254866e-002 -1.813745e+001
647287500 -8.226004e-001 -4.923118e+001 -6.970082e+001 -3.344484e+001 -6.234450e+001 -2.097543e+001 4.257474e-002 -1.869741e+001
666031250 -8.429148e-001 -5.054355e+001 -6.961382e+001 -3.721596e+001 -6.253991e+001 -2.161353e+001 3.973011e-002 -1.924694e+001
684775000 -8.631716e-001 -5.184938e+001 -6.950348e+001 -4.059290e+001 -6.222103e+001 -2.266417e+001 3.855062e-002 -1.979197e+001
703518750 -8.823380e-001 -5.317027e+001 -6.906860e+001 -3.979473e+001 -6.173604e+001 -2.861006e+001 3.639092e-002 -2.034346e+001
722262500 -9.029722e-001 -5.446172e+001 -6.893062e+001 -3.979828e+001 -6.194148e+001 -2.411535e+001 3.535538e-002 -2.088565e+001
741006250 -9.236035e-001 -5.575045e+001 -6.891526e+001 -3.945213e+001 -6.205526e+001 -1.948158e+001 3.508118e-002 -2.143033e+001
759750000 -9.422604e-001 -5.705725e+001 -6.911685e+001 -3.607682e+001 -6.213351e+001 -2.116383e+001 3.041797e-002 -2.199600e+001
778493750 -9.597639e-001 -5.833846e+001 -6.899325e+001 -3.123444e+001 -6.225158e+001 -1.730685e+001 2.799012e-002 -2.255600e+001
797237500 -9.781198e-001 -5.964145e+001 -6.889498e+001 -2.881992e+001 -6.249752e+001 -1.939954e+001 2.508539e-002 -2.311496e+001
815981250 -9.983420e-001 -6.093070e+001 -6.899197e+001 -2.814044e+001 -6.256537e+001 -2.238074e+001 2.329946e-002 -2.368576e+001
834725000 -1.015951e+000 -6.220018e+001 -6.909109e+001 -2.521721e+001 -6.236792e+001 -2.448070e+001 2.083367e-002 -2.423680e+001
853468750 -1.034216e+000 -6.347690e+001 -6.882388e+001 -2.189030e+001 -6.231174e+001 -2.773338e+001 1.653934e-002 -2.479891e+001
872212500 -1.053233e+000 -6.476418e+001 -6.899577e+001 -1.999723e+001 -6.294607e+001 -2.902781e+001 1.042769e-002 -2.537155e+001
890956250 -1.072177e+000 -6.603724e+001 -6.939001e+001 -2.352418e+001 -6.321674e+001 -2.934138e+001 3.446010e-003 -2.594631e+001
909700000 -1.089855e+000 -6.731143e+001 -6.892795e+001 -2.368259e+001 -6.264607e+001 -2.853528e+001 -3.024489e-003 -2.652180e+001
928443750 -1.108605e+000 -6.858160e+001 -6.902743e+001 -2.413817e+001 -6.243816e+001 -2.987616e+001 -6.857859e-003 -2.708434e+001
947187500 -1.128320e+000 -6.985384e+001 -6.931120e+001 -2.150692e+001 -6.195911e+001 -3.013685e+001 -1.201833e-002 -2.764206e+001
965931250 -1.147732e+000 -7.111441e+001 -6.889541e+001 -2.291658e+001 -6.218098e+001 -3.226652e+001 -1.634718e-002 -2.820827e+001
984675000 -1.165354e+000 -7.237540e+001 -6.897578e+001 -2.259658e+001 -6.198437e+001 -3.197149e+001 -2.181358e-002 -2.877382e+001
1003418750 -1.182633e+000 -7.362880e+001 -6.899649e+001 -2.181884e+001 -6.181404e+001 -3.245595e+001 -2.763155e-002 -2.933768e+001
1022162500 -1.199617e+000 -7.486745e+001 -6.910237e+001 -1.487675e+001 -6.237451e+001 -3.108904e+001 -3.338375e-002 -2.990967e+001
1040906250 -1.217944e+000 -7.611385e+001 -6.897074e+001 -1.697803e+001 -6.239400e+001 -3.223092e+001 -3.915904e-002 -3.047781e+001
1059650000 -1.237995e+000 -7.735818e+001 -6.866803e+001 -1.712651e+001 -6.298787e+001 -2.549178e+001 -4.712208e-002 -3.101812e+001
1078393750 -1.257348e+000 -7.859402e+001 -6.261633e+001 -1.980176e+001 -6.290426e+001 -2.904650e+001 -5.641410e-002 -3.158050e+001
1097137500 -1.277621e+000 -7.982775e+001 -6.266390e+001 -1.891782e+001 -6.330853e+001 -3.105422e+001 -6.417083e-002 -3.212864e+001
1115881250 -1.296229e+000 -8.106479e+001 -6.281962e+001 -1.904857e+001 -6.343352e+001 -3.283278e+001 -7.162996e-002 -3.267976e+001
1134625000 -1.315752e+000 -8.230258e+001 -6.297343e+001 -1.627848e+001 -6.341927e+001 -2.996851e+001 -7.637511e-002 -3.323610e+001
1153368750 -1.332263e+000 -8.353693e+001 -6.322327e+001 -1.276618e+001 -6.324604e+001 -3.385024e+001 -8.224933e-002 -3.380126e+001
1172112500 -1.350266e+000 -8.476070e+001 -6.329929e+001 -1.475200e+001 -6.363425e+001 -3.766978e+001 -8.990983e-002 -3.435992e+001
1190856250 -1.369133e+000 -8.597465e+001 -6.309234e+001 -1.486333e+001 -6.425172e+001 -3.585373e+001 -9.560153e-002 -3.492799e+001
1209600000 -1.388167e+000 -8.718128e+001 -6.336864e+001 -1.575652e+001 -6.484411e+001 -4.227928e+001 -1.021759e-001 -3.549149e+001
1228343750 -1.407405e+000 -8.839892e+001 -6.349666e+001 -1.846502e+001 -6.464556e+001 -4.175792e+001 -1.094367e-001 -3.604794e+001
1247087500 -1.423315e+000 -8.961470e+001 -6.388521e+001 -2.054600e+001 -6.486805e+001 -3.942432e+001 -1.139466e-001 -3.659272e+001
1265831250 -1.439259e+000 -9.081696e+001 -6.394655e+001 -2.576254e+001 -6.533899e+001 -3.758877e+001 -1.172348e-001 -3.713032e+001
1284575000 -1.457023e+000 -9.201537e+001 -6.392392e+001 -2.616640e+001 -6.541072e+001 -3.822021e+001 -1.202388e-001 -3.767831e+001
1303318750 -1.475319e+000 -9.321104e+001 -6.396752e+001 -2.949992e+001 -6.514253e+001 -3.661503e+001 -1.245516e-001 -3.821409e+001
1322062500 -1.493475e+000 -9.440431e+001 -6.383394e+001 -3.138950e+001 -6.485995e+001 -3.582676e+001 -1.277920e-001 -3.875535e+001
1340806250 -1.512630e+000 -9.558757e+001 -6.414463e+001 -3.684003e+001 -6.510516e+001 -3.803341e+001 -1.315333e-001 -3.931786e+001
1359550000 -1.532512e+000 -9.677305e+001 -6.443584e+001 -3.485322e+001 -6.527131e+001 -3.729265e+001 -1.360426e-001 -3.987252e+001
1378293750 -1.551134e+000 -9.796555e+001 -6.467966e+001 -3.920676e+001 -6.531879e+001 -3.628566e+001 -1.389213e-001 -4.042647e+001
1397037500 -1.568492e+000 -9.914452e+001 -6.455760e+001 -4.165446e+001 -6.522614e+001 -3.627956e+001 -1.413240e-001 -4.097941e+001
1415781250 -1.584757e+000 -1.003239e+002 -6.468307e+001 -4.307850e+001 -6.534851e+001 -3.429293e+001 -1.428857e-001 -4.151118e+001
1434525000 -1.603981e+000 -1.014956e+002 -6.495391e+001 -4.396590e+001 -6.515077e+001 -3.485772e+001 -1.448963e-001 -4.205906e+001
1453268750 -1.622685e+000 -1.026796e+002 -6.469757e+001 -4.423051e+001 -6.475488e+001 -3.860341e+001 -1.458916e-001 -4.259162e+001
1472012500 -1.641296e+000 -1.038556e+002 -6.464920e+001 -4.560616e+001 -6.488982e+001 -4.014051e+001 -1.451843e-001 -4.312788e+001
1490756250 -1.659461e+000 -1.050422e+002 -6.512832e+001 -4.361084e+001 -6.444972e+001 -4.256465e+001 -1.449502e-001 -4.368640e+001
1509500000 -1.676261e+000 -1.062031e+002 -6.503261e+001 -4.547806e+001 -6.463766e+001 -4.679465e+001 -1.421013e-001 -4.423401e+001
1528243750 -1.693425e+000 -1.073733e+002 -6.502216e+001 -4.457073e+001 -6.432533e+001 -4.527073e+001 -1.384319e-001 -4.478271e+001
1546987500 -1.709658e+000 -1.085321e+002 -6.499612e+001 -4.345058e+001 -6.437154e+001 -4.418883e+001 -1.366940e-001 -4.532553e+001
1565731250 -1.727363e+000 -1.096964e+002 -6.495614e+001 -4.365008e+001 -6.472108e+001 -4.773622e+001 -1.368967e-001 -4.587689e+001
1584475000 -1.744603e+000 -1.108531e+002 -6.483445e+001 -4.726296e+001 -6.495404e+001 -4.385707e+001 -1.360627e-001 -4.640527e+001
1603218750 -1.761851e+000 -1.120088e+002 -6.464893e+001 -4.749531e+001 -6.427586e+001 -4.110155e+001 -1.320735e-001 -4.695396e+001
1621962500 -1.782487e+000 -1.131629e+002 -6.505972e+001 -5.129288e+001 -6.376046e+001 -4.221804e+001 -1.291645e-001 -4.748729e+001
1640706250 -1.800615e+000 -1.143225e+002 -6.539674e+001 -5.153572e+001 -6.306490e+001 -4.103511e+001 -1.259827e-001 -4.801143e+001
1659450000 -1.818114e+000 -1.154429e+002 -6.551391e+001 -5.343448e+001 -6.314704e+001 -4.105415e+001 -1.231322e-001 -4.855373e+001
1678193750 -1.834512e+000 -1.165811e+002 -6.500806e+001 -5.332609e+001 -6.326995e+001 -3.962344e+001 -1.209490e-001 -4.910052e+001
1696937500 -1.850279e+000 -1.177351e+002 -6.476164e+001 -5.201058e+001 -6.341577e+001 -3.689567e+001 -1.184123e-001 -4.965468e+001
1715681250 -1.867723e+000 -1.188785e+002 -6.564878e+001 -5.801641e+001 -6.329322e+001 -3.656432e+001 -1.148277e-001 -5.018810e+001
1734425000 -1.885110e+000 -1.200095e+002 -6.575351e+001 -5.443543e+001 -6.332817e+001 -3.986958e+001 -1.117642e-001 -5.071764e+001
1753168750 -1.902233e+000 -1.211302e+002 -6.530857e+001 -4.891561e+001 -6.356356e+001 -4.873587e+001 -1.096635e-001 -5.125937e+001
1771912500 -1.919931e+000 -1.222484e+002 -6.502853e+001 -4.678199e+001 -6.332424e+001 -4.750159e+001 -1.057453e-001 -5.179268e+001
1790656250 -1.934680e+000 -1.233680e+002 -6.477273e+001 -4.913586e+001 -6.333730e+001 -4.814770e+001 -1.041074e-001 -5.231863e+001
1809400000 -1.948647e+000 -1.244905e+002 -6.431856e+001 -4.902699e+001 -6.311226e+001 -4.810917e+001 -9.947441e-002 -5.285343e+001
1828143750 -1.964421e+000 -1.256206e+002 -6.458281e+001 -4.795263e+001 -6.282252e+001 -4.229755e+001 -9.723677e-002 -5.337295e+001
1846887500 -1.983994e+000 -1.267424e+002 -6.450059e+001 -4.884946e+001 -6.319831e+001 -3.882077e+001 -9.600647e-002 -5.391691e+001
1865631250 -2.002135e+000 -1.278700e+002 -6.425389e+001 -5.172256e+001 -6.355886e+001 -2.803609e+001 -9.409727e-002 -5.444058e+001
1884375000 -2.019072e+000 -1.289655e+002 -6.398240e+001 -5.337162e+001 -6.370063e+001 -2.531548e+001 -9.519403e-002 -5.497997e+001
1903118750 -2.035243e+000 -1.300586e+002 -6.403027e+001 -5.081900e+001 -6.385012e+001 -2.909337e+001 -9.652417e-002 -5.551779e+001
1921862500 -2.050979e+000 -1.311520e+002 -6.359181e+001 -5.382842e+001 -6.350187e+001 -3.429129e+001 -9.617210e-002 -5.605466e+001
1940606250 -2.068346e+000 -1.322774e+002 -6.373494e+001 -5.284263e+001 -6.334408e+001 -3.510986e+001 -9.501901e-002 -5.658174e+001
1959350000 -2.087023e+000 -1.333785e+002 -6.376619e+001 -5.557190e+001 -6.344611e+001 -3.781543e+001 -9.572355e-002 -5.712177e+001
1978093750 -2.106163e+000 -1.344938e+002 -6.412097e+001 -5.567581e+001 -6.330149e+001 -3.820031e+001 -9.708398e-002 -5.767024e+001
1996837500 -2.123607e+000 -1.355773e+002 -6.417870e+001 -5.496475e+001 -6.277149e+001 -3.706922e+001 -9.632254e-002 -5.820606e+001
2015581250 -2.143717e+000 -1.366626e+002 -6.503860e+001 -5.724498e+001 -6.318651e+001 -4.410173e+001 -9.758117e-002 -5.875949e+001
2034325000 -2.159391e+000 -1.377425e+002 -6.515598e+001 -5.342294e+001 -6.329012e+001 -4.522194e+001 -1.017888e-001 -5.928120e+001
2053068750 -2.171857e+000 -1.388359e+002 -6.472585e+001 -5.256783e+001 -6.343006e+001 -4.641793e+001 -1.033797e-001 -5.981182e+001
2071812500 -2.186621e+000 -1.399415e+002 -6.424139e+001 -5.462027e+001 -6.370226e+001 -5.384790e+001 -1.056994e-001 -6.035892e+001
2090556250 -2.203947e+000 -1.410421e+002 -6.408250e+001 -5.510649e+001 -6.366642e+001 -5.586103e+001 -1.074764e-001 -6.090219e+001
2109300000 -2.224137e+000 -1.421183e+002 -6.411520e+001 -5.984330e+001 -6.311766e+001 -5.928330e+001 -1.115945e-001 -6.144927e+001
2128043750 -2.244505e+000 -1.431817e+002 -6.436953e+001 -7.128080e+001 -6.261355e+001 -6.519387e+001 -1.163910e-001 -6.198560e+001
2146787500 -2.261924e+000 -1.442442e+002 -6.358569e+001 -8.444797e+001 -6.238462e+001 -6.471099e+001 -1.239504e-001 -6.252235e+001
2165531250 -2.276033e+000 -1.453311e+002 -6.356331e+001 -1.040283e+002 -6.219631e+001 -6.267663e+001 -1.279312e-001 -6.306276e+001
2184275000 -2.291112e+000 -1.464295e+002 -6.375986e+001 -1.206750e+002 -6.189761e+001 -4.720892e+001 -1.301735e-001 -6.358767e+001
2203018750 -2.306152e+000 -1.475200e+002 -6.362416e+001 -1.378392e+002 -6.243726e+001 -3.687439e+001 -1.350118e-001 -6.412583e+001
2221762500 -2.325153e+000 -1.486081e+002 -6.326636e+001 -1.544737e+002 -6.225727e+001 -2.457574e+001 -1.371168e-001 -6.467044e+001
2240506250 -2.343186e+000 -1.496527e+002 -6.345208e+001 -1.695746e+002 -6.284909e+001 -1.176861e+001 -1.449380e-001 -6.520418e+001
2259250000 -2.361384e+000 -1.507007e+002 -6.327902e+001 1.726611e+002 -6.284484e+001 -6.129941e+000 -1.506457e-001 -6.574818e+001
2277993750 -2.374234e+000 -1.517670e+002 -6.335769e+001 1.516334e+002 -6.231957e+001 9.006008e-001 -1.542375e-001 -6.627213e+001
2296737500 -2.386467e+000 -1.528377e+002 -6.346685e+001 1.368020e+002 -6.228032e+001 1.135412e+001 -1.589974e-001 -6.682135e+001
2315481250 -2.404484e+000 -1.539232e+002 -6.363869e+001 1.201899e+002 -6.226879e+001 2.738284e+001 -1.607046e-001 -6.736603e+001
2334225000 -2.422944e+000 -1.549989e+002 -6.368423e+001 1.006724e+002 -6.194193e+001 5.078009e+001 -1.644311e-001 -6.790916e+001
2352968750 -2.440259e+000 -1.560457e+002 -6.386759e+001 7.610899e+001 -6.211266e+001 6.680537e+001 -1.683110e-001 -6.844672e+001
2371712500 -2.456362e+000 -1.570850e+002 -6.379795e+001 4.305299e+001 -6.234165e+001 8.213858e+001 -1.730162e-001 -6.897324e+001
2390456250 -2.468081e+000 -1.581290e+002 -6.373952e+001 8.848372e+000 -6.233842e+001 9.995947e+001 -1.781832e-001 -6.949918e+001
2409200000 -2.481117e+000 -1.591806e+002 -6.350337e+001 -2.447008e+001 -6.224670e+001 1.123717e+002 -1.810933e-001 -7.002249e+001
2427943750 -2.494040e+000 -1.602460e+002 -6.350316e+001 -5.537054e+001 -6.245756e+001 1.285961e+002 -1.862367e-001 -7.056436e+001
2446687500 -2.507468e+000 -1.613065e+002 -6.264061e+001 -8.635911e+001 -6.192397e+001 1.450942e+002 -1.885890e-001 -7.110945e+001
2465431250 -2.525140e+000 -1.623594e+002 -6.252502e+001 -1.237236e+002 -6.262326e+001 1.641275e+002 -1.909758e-001 -7.165964e+001
2484175000 -2.543582e+000 -1.633790e+002 -6.244245e+001 -1.549947e+002 -6.247210e+001 -1.681421e+002 -1.954396e-001 -7.220264e+001
2502918750 -2.560551e+000 -1.643982e+002 -6.327103e+001 1.690249e+002 -6.244762e+001 -1.335395e+002 -2.005331e-001 -7.272702e+001
2521662500 -2.574126e+000 -1.654422e+002 -6.325479e+001 1.395101e+002 -6.251213e+001 -1.108626e+002 -2.047136e-001 -7.323560e+001
2540406250 -2.586282e+000 -1.665031e+002 -6.393877e+001 1.118183e+002 -6.328404e+001 -9.350494e+001 -2.070859e-001 -7.375879e+001
2559150000 -2.600394e+000 -1.675677e+002 -6.401173e+001 9.015587e+001 -6.327155e+001 -7.461482e+001 -2.100899e-001 -7.430039e+001
2577893750 -2.615729e+000 -1.686256e+002 -6.388784e+001 7.364063e+001 -6.339452e+001 -5.988470e+001 -2.097895e-001 -7.483961e+001
2596637500 -2.633284e+000 -1.696486e+002 -6.357953e+001 6.128521e+001 -6.355759e+001 -4.683796e+001 -2.127923e-001 -7.538794e+001
2615381250 -2.649972e+000 -1.706524e+002 -6.362764e+001 4.464327e+001 -6.365961e+001 -4.025242e+001 -2.172195e-001 -7.591505e+001
2634125000 -2.664893e+000 -1.716762e+002 -6.373962e+001 2.867164e+001 -6.325042e+001 -3.852040e+001 -2.206143e-001 -7.641904e+001
2652868750 -2.675212e+000 -1.727043e+002 -6.386102e+001 1.242549e+001 -6.341259e+001 -3.814425e+001 -2.245469e-001 -7.695818e+001
2671612500 -2.688859e+000 -1.737631e+002 -6.372536e+001 -5.365675e+000 -6.300960e+001 -4.663237e+001 -2.260391e-001 -7.750098e+001
2690356250 -2.705829e+000 -1.748170e+002 -6.388720e+001 -2.001924e+001 -6.320314e+001 -5.048405e+001 -2.276900e-001 -7.805120e+001
2709100000 -2.724750e+000 -1.758333e+002 -6.402335e+001 -3.402050e+001 -6.325137e+001 -5.131409e+001 -2.304114e-001 -7.860482e+001
2727843750 -2.742160e+000 -1.768472e+002 -6.429978e+001 -4.677217e+001 -6.317293e+001 -5.616409e+001 -2.327064e-001 -7.913438e+001
2746587500 -2.754707e+000 -1.778559e+002 -6.451746e+001 -6.496862e+001 -6.330616e+001 -5.923398e+001 -2.371240e-001 -7.966851e+001
2765331250 -2.767092e+000 -1.788779e+002 -6.463537e+001 -7.844506e+001 -6.388319e+001 -7.094394e+001 -2.418704e-001 -8.018473e+001
2784075000 -2.780364e+000 -1.799245e+002 -6.455782e+001 -8.621420e+001 -6.414624e+001 -7.165521e+001 -2.456890e-001 -8.072050e+001
2802818750 -2.794554e+000 1.790433e+002 -6.492419e+001 -8.956310e+001 -6.392377e+001 -6.683080e+001 -2.503389e-001 -8.125584e+001
2821562500 -2.810168e+000 1.780095e+002 -6.508499e+001 -8.683432e+001 -6.379399e+001 -6.893564e+001 -2.514635e-001 -8.178563e+001
2840306250 -2.824775e+000 1.769885e+002 -6.515771e+001 -8.455566e+001 -6.441493e+001 -7.332863e+001 -2.541885e-001 -8.231189e+001
2859050000 -2.839707e+000 1.759752e+002 -6.521949e+001 -8.651110e+001 -6.462283e+001 -7.810484e+001 -2.559291e-001 -8.282668e+001
2877793750 -2.848735e+000 1.749783e+002 -6.537829e+001 -8.650938e+001 -6.499496e+001 -7.239199e+001 -2.565927e-001 -8.331319e+001
2896537500 -2.865302e+000 1.739558e+002 -6.589150e+001 -8.308398e+001 -6.443121e+001 -7.755140e+001 -2.632650e-001 -8.386333e+001
2915281250 -2.876580e+000 1.728874e+002 -6.617997e+001 -8.545911e+001 -6.413370e+001 -9.177351e+001 -2.644436e-001 -8.442812e+001
2934025000 -2.888588e+000 1.718968e+002 -6.538455e+001 -8.064452e+001 -6.418815e+001 -1.045236e+002 -2.627626e-001 -8.493283e+001
2952768750 -2.906758e+000 1.708715e+002 -6.525305e+001 -8.100153e+001 -6.412569e+001 -1.065889e+002 -2.691450e-001 -8.548182e+001
2971512500 -2.918645e+000 1.698382e+002 -6.489375e+001 -8.114063e+001 -6.398865e+001 -1.088655e+002 -2.718589e-001 -8.603194e+001
2990256250 -2.930537e+000 1.688849e+002 -6.473632e+001 -7.800909e+001 -6.399644e+001 -1.128005e+002 -2.765627e-001 -8.653820e+001
3009000000 -2.948041e+000 1.678624e+002 -6.498653e+001 -7.543568e+001 -6.434650e+001 -1.099916e+002 -2.846144e-001 -8.708245e+001
3027743750 -2.956987e+000 1.668247e+002 -6.517982e+001 -7.803101e+001 -6.409327e+001 -1.072895e+002 -2.880031e-001 -8.762691e+001
3046487500 -2.970382e+000 1.658367e+002 -6.508455e+001 -8.200663e+001 -6.409258e+001 -1.118775e+002 -2.898917e-001 -8.813326e+001
3065231250 -2.986651e+000 1.647899e+002 -6.538122e+001 -9.082286e+001 -6.418804e+001 -1.072671e+002 -2.940366e-001 -8.870039e+001
3083975000 -2.994070e+000 1.637645e+002 -6.570161e+001 -1.059537e+002 -6.398426e+001 -1.025516e+002 -2.991641e-001 -8.920950e+001
3102718750 -3.010561e+000 1.627978e+002 -6.577592e+001 -1.202926e+002 -6.416867e+001 -9.771181e+001 -3.060090e-001 -8.969758e+001
3121462500 -3.023415e+000 1.617635e+002 -6.603340e+001 -1.337352e+002 -6.411852e+001 -9.409334e+001 -3.105223e-001 -9.024873e+001
3140206250 -3.027865e+000 1.607322e+002 -6.566456e+001 -1.471834e+002 -6.429730e+001 -9.008717e+001 -3.153867e-001 -9.075188e+001
3158950000 -3.044753e+000 1.597596e+002 -6.525423e+001 -1.663885e+002 -6.461494e+001 -9.224545e+001 -3.238024e-001 -9.125376e+001
3177693750 -3.060468e+000 1.587158e+002 -6.517294e+001 1.786796e+002 -6.419645e+001 -9.054827e+001 -3.263466e-001 -9.180534e+001
3196437500 -3.069437e+000 1.576857e+002 -6.510567e+001 1.636962e+002 -6.343359e+001 -8.310960e+001 -3.287691e-001 -9.231576e+001
3215181250 -3.085815e+000 1.567038e+002 -6.520328e+001 1.445667e+002 -6.390461e+001 -8.337872e+001 -3.392482e-001 -9.282050e+001
3233925000 -3.100035e+000 1.556654e+002 -6.516889e+001 1.261689e+002 -6.393083e+001 -8.660862e+001 -3.390545e-001 -9.341486e+001
3252668750 -3.106498e+000 1.546537e+002 -6.472962e+001 1.097805e+002 -6.398417e+001 -9.263915e+001 -3.453776e-001 -9.391109e+001
3271412500 -3.123200e+000 1.536565e+002 -6.504259e+001 9.029242e+001 -6.336042e+001 -8.775066e+001 -3.551015e-001 -9.442887e+001
3290156250 -3.135666e+000 1.526160e+002 -6.500384e+001 7.573112e+001 -6.317244e+001 -8.401249e+001 -3.576491e-001 -9.498938e+001
3308900000 -3.147249e+000 1.515919e+002 -6.464654e+001 6.079561e+001 -6.287808e+001 -7.963358e+001 -3.641160e-001 -9.547350e+001
3327643750 -3.158617e+000 1.505877e+002 -6.449462e+001 3.970825e+001 -6.319535e+001 -7.744890e+001 -3.707654e-001 -9.595892e+001
3346387500 -3.170895e+000 1.496017e+002 -6.433564e+001 2.612130e+001 -6.355498e+001 -8.118519e+001 -3.751830e-001 -9.648399e+001
3365131250 -3.181638e+000 1.485806e+002 -6.474794e+001 1.164928e+001 -6.350524e+001 -8.858692e+001 -3.816049e-001 -9.699482e+001
3383875000 -3.191679e+000 1.475680e+002 -6.542074e+001 -5.804994e+000 -6.344075e+001 -9.571059e+001 -3.890111e-001 -9.752653e+001
3402618750 -3.205309e+000 1.465803e+002 -6.528105e+001 -2.071042e+001 -6.313189e+001 -9.967332e+001 -3.941443e-001 -9.807623e+001
3421362500 -3.216949e+000 1.455518e+002 -6.522715e+001 -4.093449e+001 -6.335562e+001 -9.709937e+001 -3.960674e-001 -9.856429e+001
3440106250 -3.227464e+000 1.445446e+002 -6.511729e+001 -5.861895e+001 -6.340247e+001 -1.045670e+002 -4.004125e-001 -9.907541e+001
3458850000 -3.240035e+000 1.435439e+002 -6.515537e+001 -7.259805e+001 -6.367521e+001 -1.089130e+002 -4.055296e-001 -9.960593e+001
3477593750 -3.249868e+000 1.424981e+002 -6.542925e+001 -8.967418e+001 -6.377169e+001 -1.017022e+002 -4.079804e-001 -1.001237e+002
3496337500 -3.257669e+000 1.415056e+002 -6.523978e+001 -9.855887e+001 -6.365648e+001 -9.203233e+001 -4.164881e-001 -1.006356e+002
3515081250 -3.272908e+000 1.405030e+002 -6.512721e+001 -1.003286e+002 -6.429656e+001 -7.921075e+001 -4.195362e-001 -1.011769e+002
3533825000 -3.282410e+000 1.394743e+002 -6.508327e+001 -1.019489e+002 -6.398787e+001 -6.356703e+001 -4.200985e-001 -1.016931e+002
3552568750 -3.293060e+000 1.384782e+002 -6.465613e+001 -1.068095e+002 -6.400636e+001 -4.868130e+001 -4.289330e-001 -1.022077e+002
3571312500 -3.305797e+000 1.374718e+002 -6.475411e+001 -1.102737e+002 -6.368229e+001 -3.516878e+001 -4.306932e-001 -1.027687e+002
3590056250 -3.309558e+000 1.364214e+002 -6.526812e+001 -1.185626e+002 -6.302335e+001 -1.817652e+001 -4.314660e-001 -1.033127e+002
3608800000 -3.316584e+000 1.354313e+002 -6.594094e+001 -1.339903e+002 -6.413130e+001 -3.153908e+000 -4.368953e-001 -1.038075e+002
3627543750 -3.330900e+000 1.344278e+002 -6.548801e+001 -1.539108e+002 -6.463734e+001 1.056855e+001 -4.405514e-001 -1.043451e+002
3646287500 -3.337090e+000 1.333975e+002 -6.533585e+001 -1.689681e+002 -6.443504e+001 2.394039e+001 -4.380081e-001 -1.048772e+002
3665031250 -3.344620e+000 1.324169e+002 -6.501117e+001 1.773438e+002 -6.442171e+001 3.945564e+001 -4.465475e-001 -1.053346e+002
3683775000 -3.361966e+000 1.314041e+002 -6.525301e+001 1.624123e+002 -6.453211e+001 5.873884e+001 -4.523915e-001 -1.058601e+002
3702518750 -3.364502e+000 1.303736e+002 -6.483768e+001 1.469990e+002 -6.451596e+001 6.922996e+001 -4.562418e-001 -1.064029e+002
3721262500 -3.374161e+000 1.293908e+002 -6.477441e+001 1.277437e+002 -6.471492e+001 7.811385e+001 -4.558168e-001 -1.069313e+002
3740006250 -3.390298e+000 1.283613e+002 -6.479897e+001 1.061955e+002 -6.457510e+001 7.905767e+001 -4.621860e-001 -1.074563e+002
3758750000 -3.391774e+000 1.273256e+002 -6.445837e+001 9.066653e+001 -6.422437e+001 8.737022e+001 -4.637448e-001 -1.080139e+002
3777493750 -3.403322e+000 1.263293e+002 -6.459011e+001 7.823441e+001 -6.430730e+001 1.061240e+002 -4.654669e-001 -1.085220e+002
3796237500 -3.416833e+000 1.252722e+002 -6.414643e+001 6.234972e+001 -6.432336e+001 1.306488e+002 -4.700783e-001 -1.090321e+002
3814981250 -3.419297e+000 1.242383e+002 -6.379594e+001 4.606687e+001 -6.482302e+001 1.565210e+002 -4.729602e-001 -1.095590e+002
3833725000 -3.428317e+000 1.232454e+002 -6.420523e+001 3.157531e+001 -6.505711e+001 -1.718586e+002 -4.712110e-001 -1.100422e+002
3852468750 -3.442820e+000 1.221940e+002 -6.458321e+001 2.764277e+001 -6.477470e+001 -1.432815e+002 -4.773009e-001 -1.105657e+002
3871212500 -3.442056e+000 1.211899e+002 -6.504508e+001 2.937184e+001 -6.463063e+001 -1.102318e+002 -4.818206e-001 -1.110947e+002
3889956250 -3.451583e+000 1.201714e+002 -6.503336e+001 2.781733e+001 -6.458662e+001 -8.051078e+001 -4.825298e-001 -1.116061e+002
3908700000 -3.463139e+000 1.191236e+002 -6.443353e+001 2.932654e+001 -6.456098e+001 -5.514608e+001 -4.903921e-001 -1.121221e+002
3927443750 -3.468442e+000 1.181005e+002 -6.427485e+001 2.745454e+001 -6.506177e+001 -2.973799e+001 -4.915874e-001 -1.126446e+002
3946187500 -3.479077e+000 1.170797e+002 -6.463029e+001 2.749706e+001 -6.464221e+001 -1.401502e+001 -4.932469e-001 -1.131606e+002
3964931250 -3.488844e+000 1.160403e+002 -6.471989e+001 2.229645e+001 -6.474008e+001 2.192334e+000 -4.977048e-001 -1.136880e+002
3983675000 -3.490701e+000 1.150387e+002 -6.534339e+001 2.332595e+001 -6.507528e+001 1.533858e+001 -4.993595e-001 -1.141730e+002
4002418750 -3.499596e+000 1.140171e+002 -6.575140e+001 2.507842e+001 -6.524554e+001 3.457038e+001 -5.049770e-001 -1.146690e+002
4021162500 -3.508654e+000 1.129884e+002 -6.567497e+001 3.371180e+001 -6.572931e+001 4.707251e+001 -5.111897e-001 -1.151527e+002
4039906250 -3.513563e+000 1.119749e+002 -6.512457e+001 4.814948e+001 -6.495914e+001 6.041816e+001 -5.140738e-001 -1.156750e+002
4058650000 -3.517636e+000 1.109361e+002 -6.577071e+001 6.339918e+001 -6.517516e+001 7.849730e+001 -5.157753e-001 -1.162143e+002
4077393750 -3.523849e+000 1.099335e+002 -6.617706e+001 7.786086e+001 -6.510184e+001 1.013616e+002 -5.222433e-001 -1.167125e+002
4096137500 -3.529783e+000 1.089015e+002 -6.673104e+001 8.850647e+001 -6.548283e+001 1.200950e+002 -5.210318e-001 -1.172457e+002
4114881250 -3.532644e+000 1.078599e+002 -6.682314e+001 9.894531e+001 -6.539450e+001 1.341453e+002 -5.228930e-001 -1.177811e+002
4133625000 -3.539366e+000 1.068669e+002 -6.688203e+001 1.146482e+002 -6.541006e+001 1.513524e+002 -5.266801e-001 -1.182669e+002
4152368750 -3.546204e+000 1.058276e+002 -6.675481e+001 1.298883e+002 -6.521563e+001 1.662097e+002 -5.351872e-001 -1.187769e+002
4171112500 -3.548801e+000 1.047891e+002 -6.691727e+001 1.488115e+002 -6.617448e+001 -1.770472e+002 -5.362691e-001 -1.193449e+002
4189856250 -3.553609e+000 1.037950e+002 -6.673387e+001 1.650682e+002 -6.617252e+001 -1.594453e+002 -5.404359e-001 -1.198352e+002
4208600000 -3.556571e+000 1.027457e+002 -6.679375e+001 1.748204e+002 -6.577452e+001 -1.424199e+002 -5.458195e-001 -1.203506e+002
4227343750 -3.557079e+000 1.017141e+002 -6.706557e+001 -1.787667e+002 -6.554494e+001 -1.310128e+002 -5.492222e-001 -1.208886e+002
4246087500 -3.562127e+000 1.007242e+002 -6.705108e+001 -1.630102e+002 -6.494305e+001 -1.252152e+002 -5.561321e-001 -1.213740e+002
4264831250 -3.566458e+000 9.967346e+001 -6.637054e+001 -1.514240e+002 -6.510072e+001 -1.259443e+002 -5.640648e-001 -1.219183e+002
4283575000 -3.564223e+000 9.862654e+001 -6.639167e+001 -1.434446e+002 -6.579702e+001 -1.271588e+002 -5.654790e-001 -1.224390e+002
4302318750 -3.571515e+000 9.758943e+001 -6.610352e+001 -1.452848e+002 -6.609375e+001 -1.314752e+002 -5.663428e-001 -1.229372e+002
4321062500 -3.573795e+000 9.655442e+001 -6.624061e+001 -1.448539e+002 -6.589152e+001 -1.304710e+002 -5.737917e-001 -1.234221e+002
4339806250 -3.573354e+000 9.553727e+001 -6.627382e+001 -1.478508e+002 -6.596920e+001 -1.319023e+002 -5.771939e-001 -1.239753e+002
4358550000 -3.577740e+000 9.451711e+001 -6.627818e+001 -1.479319e+002 -6.558389e+001 -1.425064e+002 -5.802441e-001 -1.244806e+002
4377293750 -3.583554e+000 9.349873e+001 -6.610915e+001 -1.503209e+002 -6.569756e+001 -1.459684e+002 -5.873005e-001 -1.250242e+002
4396037500 -3.580362e+000 9.244603e+001 -6.596725e+001 -1.455535e+002 -6.578453e+001 -1.492739e+002 -5.906964e-001 -1.255256e+002
4414781250 -3.582809e+000 9.141699e+001 -6.567628e+001 -1.477576e+002 -6.547905e+001 -1.474636e+002 -5.960807e-001 -1.260399e+002
4433525000 -3.588008e+000 9.036108e+001 -6.622515e+001 -1.459572e+002 -6.561176e+001 -1.529517e+002 -6.005715e-001 -1.265731e+002
4452268750 -3.588746e+000 8.931155e+001 -6.587450e+001 -1.446366e+002 -6.541711e+001 -1.519327e+002 -6.018950e-001 -1.271098e+002
4471012500 -3.590940e+000 8.825861e+001 -6.560408e+001 -1.472056e+002 -6.540881e+001 -1.526891e+002 -6.099876e-001 -1.276146e+002
4489756250 -3.595773e+000 8.720814e+001 -6.538234e+001 -1.477330e+002 -6.513853e+001 -1.554778e+002 -6.160383e-001 -1.281474e+002
4508500000 -3.593823e+000 8.614855e+001 -6.494680e+001 -1.502013e+002 -6.462395e+001 -1.610376e+002 -6.194220e-001 -1.286492e+002
4527243750 -3.595021e+000 8.510126e+001 -6.436688e+001 -1.445609e+002 -6.477438e+001 -1.646128e+002 -6.301716e-001 -1.291542e+002
4545987500 -3.595793e+000 8.404632e+001 -6.416642e+001 -1.414901e+002 -6.479588e+001 -1.630946e+002 -6.366782e-001 -1.296969e+002
4564731250 -3.593665e+000 8.298513e+001 -6.398848e+001 -1.409890e+002 -6.518530e+001 -1.639606e+002 -6.383955e-001 -1.302182e+002
4583475000 -3.595140e+000 8.194046e+001 -6.431459e+001 -1.433663e+002 -6.528692e+001 -1.628964e+002 -6.481668e-001 -1.307246e+002
4602218750 -3.593216e+000 8.090405e+001 -6.461092e+001 -1.422544e+002 -6.461954e+001 -1.662272e+002 -6.553525e-001 -1.312562e+002
4620962500 -3.594654e+000 7.982547e+001 -6.476006e+001 -1.455780e+002 -6.485036e+001 -1.691665e+002 -6.572160e-001 -1.317760e+002
4639706250 -3.592298e+000 7.876910e+001 -6.456804e+001 -1.478312e+002 -6.556939e+001 -1.709689e+002 -6.643264e-001 -1.322620e+002
4658450000 -3.591776e+000 7.772770e+001 -6.511758e+001 -1.439449e+002 -6.543835e+001 -1.723629e+002 -6.721706e-001 -1.328020e+002
4677193750 -3.586456e+000 7.668450e+001 -6.489969e+001 -1.457036e+002 -6.567249e+001 -1.743107e+002 -6.700787e-001 -1.333152e+002
4695937500 -3.591993e+000 7.563601e+001 -6.476936e+001 -1.469695e+002 -6.578857e+001 -1.738940e+002 -6.822476e-001 -1.338207e+002
4714681250 -3.588013e+000 7.455274e+001 -6.460390e+001 -1.531535e+002 -6.575376e+001 -1.753077e+002 -6.869963e-001 -1.343819e+002
4733425000 -3.582053e+000 7.352729e+001 -6.457735e+001 -1.543819e+002 -6.547458e+001 -1.728206e+002 -6.926319e-001 -1.348882e+002
4752168750 -3.588623e+000 7.247578e+001 -6.422214e+001 -1.579463e+002 -6.599380e+001 -1.722137e+002 -7.006729e-001 -1.354310e+002
4770912500 -3.584618e+000 7.137122e+001 -6.442949e+001 -1.587141e+002 -6.661584e+001 -1.718466e+002 -7.031652e-001 -1.359466e+002
4789656250 -3.580361e+000 7.033392e+001 -6.452730e+001 -1.569328e+002 -6.681398e+001 -1.709127e+002 -7.091267e-001 -1.364345e+002
4808400000 -3.580376e+000 6.926658e+001 -6.420520e+001 -1.581641e+002 -6.769965e+001 -1.744957e+002 -7.199572e-001 -1.369427e+002
4827143750 -3.575683e+000 6.818475e+001 -6.442999e+001 -1.599873e+002 -6.771783e+001 -1.750629e+002 -7.239210e-001 -1.375044e+002
4845887500 -3.569972e+000 6.714183e+001 -6.531346e+001 -1.602421e+002 -6.770566e+001 -1.783498e+002 -7.287632e-001 -1.380173e+002
4864631250 -3.571784e+000 6.609529e+001 -6.443896e+001 -1.640346e+002 -6.789836e+001 -1.761009e+002 -7.370929e-001 -1.385298e+002
4883375000 -3.563838e+000 6.499621e+001 -6.447079e+001 -1.673368e+002 -6.805077e+001 -1.798547e+002 -7.388085e-001 -1.390627e+002
4902118750 -3.560951e+000 6.396063e+001 -6.486948e+001 -1.670020e+002 -6.809627e+001 1.786376e+002 -7.429470e-001 -1.395613e+002
4920862500 -3.560056e+000 6.289829e+001 -6.518237e+001 -1.684034e+002 -6.795573e+001 1.752253e+002 -7.531914e-001 -1.400758e+002
4939606250 -3.553196e+000 6.179407e+001 -6.520831e+001 -1.676283e+002 -6.899971e+001 1.768291e+002 -7.532153e-001 -1.406218e+002
4958350000 -3.548310e+000 6.076306e+001 -6.540100e+001 -1.731473e+002 -6.842889e+001 1.756263e+002 -7.588013e-001 -1.411355e+002
4977093750 -3.546895e+000 5.969742e+001 -6.563358e+001 -1.747361e+002 -6.845102e+001 1.716175e+002 -7.646235e-001 -1.416441e+002
4995837500 -3.542930e+000 5.860505e+001 -6.574809e+001 -1.784629e+002 -6.829793e+001 1.728401e+002 -7.643057e-001 -1.421849e+002
5014581250 -3.535496e+000 5.757189e+001 -6.532378e+001 1.795788e+002 -6.834982e+001 1.740972e+002 -7.719361e-001 -1.426581e+002
5033325000 -3.531585e+000 5.645304e+001 -6.497785e+001 1.745240e+002 -6.799403e+001 -1.792028e+002 -7.794794e-001 -1.432008e+002
5052068750 -3.521907e+000 5.539407e+001 -6.530060e+001 1.732302e+002 -6.802052e+001 1.790767e+002 -7.826998e-001 -1.437180e+002
5070812500 -3.521749e+000 5.435972e+001 -6.548113e+001 1.735355e+002 -6.768023e+001 1.731889e+002 -7.899750e-001 -1.442389e+002
5089556250 -3.516220e+000 5.324498e+001 -6.470663e+001 1.720361e+002 -6.785730e+001 1.693527e+002 -7.950113e-001 -1.447722e+002
5108300000 -3.510935e+000 5.214984e+001 -6.512744e+001 1.708573e+002 -6.797157e+001 1.667746e+002 -7.994390e-001 -1.452892e+002
5127043750 -3.503152e+000 5.108192e+001 -6.554863e+001 1.642393e+002 -6.771406e+001 1.585725e+002 -8.034966e-001 -1.457769e+002
5145787500 -3.496372e+000 5.000199e+001 -6.543458e+001 1.621022e+002 -6.722250e+001 1.574416e+002 -8.139290e-001 -1.462962e+002
5164531250 -3.489376e+000 4.891096e+001 -6.564746e+001 1.635444e+002 -6.730539e+001 1.549237e+002 -8.185089e-001 -1.468255e+002
5183275000 -3.479392e+000 4.785582e+001 -6.611472e+001 1.631424e+002 -6.728903e+001 1.549337e+002 -8.237953e-001 -1.473269e+002
5202018750 -3.472426e+000 4.675616e+001 -6.619884e+001 1.585703e+002 -6.642988e+001 1.511423e+002 -8.302464e-001 -1.478594e+002
5220762500 -3.464448e+000 4.568452e+001 -6.633939e+001 1.548647e+002 -6.607675e+001 1.470114e+002 -8.334038e-001 -1.483968e+002
5239506250 -3.457378e+000 4.460527e+001 -6.664027e+001 1.533007e+002 -6.525533e+001 1.453742e+002 -8.371944e-001 -1.488972e+002
5258250000 -3.450343e+000 4.349361e+001 -6.644585e+001 1.523720e+002 -6.549596e+001 1.359232e+002 -8.451148e-001 -1.494237e+002
5276993750 -3.441906e+000 4.242273e+001 -6.516692e+001 1.494999e+002 -6.555731e+001 1.208336e+002 -8.492743e-001 -1.499434e+002
5295737500 -3.433267e+000 4.134363e+001 -6.495844e+001 1.479285e+002 -6.521256e+001 9.546500e+001 -8.547200e-001 -1.504529e+002
5314481250 -3.424537e+000 4.026170e+001 -6.492437e+001 1.425962e+002 -6.474888e+001 8.281730e+001 -8.610599e-001 -1.509604e+002
5333225000 -3.413721e+000 3.918478e+001 -6.466102e+001 1.411632e+002 -6.450206e+001 6.319630e+001 -8.662139e-001 -1.514837e+002
5351968750 -3.402816e+000 3.810799e+001 -6.413963e+001 1.402690e+002 -6.465237e+001 4.983035e+001 -8.729298e-001 -1.519818e+002
5370712500 -3.394051e+000 3.700563e+001 -6.424451e+001 1.365387e+002 -6.376558e+001 2.946640e+001 -8.800343e-001 -1.525132e+002
5389456250 -3.382070e+000 3.593647e+001 -6.418764e+001 1.367118e+002 -6.410142e+001 1.365174e+001 -8.860751e-001 -1.530291e+002
5408200000 -3.373789e+000 3.487038e+001 -6.397824e+001 1.395879e+002 -6.414647e+001 -1.360422e+000 -8.920031e-001 -1.535522e+002
5426943750 -3.365192e+000 3.375577e+001 -6.452942e+001 1.370098e+002 -6.374077e+001 -2.065834e+001 -8.993623e-001 -1.540614e+002
5445687500 -3.353480e+000 3.266864e+001 -6.478870e+001 1.352027e+002 -6.370403e+001 -3.891774e+001 -9.011347e-001 -1.545739e+002
5464431250 -3.344294e+000 3.159447e+001 -6.498677e+001 1.347025e+002 -6.397549e+001 -5.990270e+001 -9.077068e-001 -1.550613e+002
5483175000 -3.336264e+000 3.046516e+001 -6.465556e+001 1.334521e+002 -6.401232e+001 -7.058385e+001 -9.146813e-001 -1.555830e+002
5501918750 -3.320652e+000 2.938513e+001 -6.447502e+001 1.290437e+002 -6.372534e+001 -8.624261e+001 -9.195783e-001 -1.560925e+002
5520662500 -3.314507e+000 2.829788e+001 -6.438277e+001 1.288586e+002 -6.432678e+001 -1.042714e+002 -9.274063e-001 -1.565923e+002
5539406250 -3.304638e+000 2.719380e+001 -6.391903e+001 1.255428e+002 -6.420581e+001 -1.204013e+002 -9.330486e-001 -1.571167e+002
5558150000 -3.290144e+000 2.610774e+001 -6.391587e+001 1.255213e+002 -6.410649e+001 -1.351388e+002 -9.364361e-001 -1.576172e+002
5576893750 -3.283405e+000 2.500220e+001 -6.387571e+001 1.242121e+002 -6.420110e+001 -1.575686e+002 -9.415557e-001 -1.581238e+002
5595637500 -3.273290e+000 2.388104e+001 -6.430399e+001 1.153807e+002 -6.477797e+001 -1.752219e+002 -9.478443e-001 -1.586397e+002
5614381250 -3.259685e+000 2.279450e+001 -6.381402e+001 1.139693e+002 -6.505006e+001 1.566261e+002 -9.520339e-001 -1.591528e+002
5633125000 -3.251612e+000 2.169771e+001 -6.365981e+001 1.144947e+002 -6.503778e+001 1.401185e+002 -9.591347e-001 -1.596512e+002
5651868750 -3.239016e+000 2.058234e+001 -6.339411e+001 1.111907e+002 -6.532317e+001 1.220205e+002 -9.656464e-001 -1.601522e+002
5670612500 -3.224789e+000 1.950129e+001 -6.321509e+001 1.136211e+002 -6.519328e+001 1.045299e+002 -9.701098e-001 -1.606398e+002
5689356250 -3.216728e+000 1.840445e+001 -6.362232e+001 1.117559e+002 -6.493188e+001 9.764098e+001 -9.782822e-001 -1.611350e+002
5708100000 -3.203933e+000 1.728766e+001 -6.367479e+001 1.080826e+002 -6.508521e+001 9.669650e+001 -9.856485e-001 -1.616517e+002
5726843750 -3.189163e+000 1.621574e+001 -6.409288e+001 1.018120e+002 -6.496931e+001 9.745284e+001 -9.914213e-001 -1.621605e+002
5745587500 -3.182184e+000 1.510785e+001 -6.396598e+001 1.005277e+002 -6.497460e+001 9.249516e+001 -9.992669e-001 -1.626702e+002
5764331250 -3.168094e+000 1.399749e+001 -6.373970e+001 9.956425e+001 -6.505971e+001 9.433819e+001 -1.004519e+000 -1.631773e+002
5783075000 -3.156684e+000 1.291518e+001 -6.383255e+001 9.603735e+001 -6.509692e+001 8.512801e+001 -1.007629e+000 -1.636664e+002
5801818750 -3.148183e+000 1.184211e+001 -6.388464e+001 9.579679e+001 -6.506852e+001 7.919691e+001 -1.017987e+000 -1.641618e+002
5820562500 -3.137854e+000 1.068213e+001 -6.419925e+001 9.571661e+001 -6.493069e+001 7.670842e+001 -1.023090e+000 -1.646757e+002
5839306250 -3.120560e+000 9.589235e+000 -6.435094e+001 8.603563e+001 -6.516742e+001 7.929970e+001 -1.027246e+000 -1.651696e+002
5858050000 -3.109690e+000 8.516735e+000 -6.427847e+001 8.453114e+001 -6.535113e+001 8.085966e+001 -1.035816e+000 -1.656822e+002
5876793750 -3.102499e+000 7.355963e+000 -6.456838e+001 9.035634e+001 -6.537998e+001 8.662397e+001 -1.041803e+000 -1.662055e+002
5895537500 -3.083194e+000 6.266740e+000 -6.470370e+001 1.009935e+002 -6.520049e+001 8.459547e+001 -1.046638e+000 -1.667033e+002
5914281250 -3.071002e+000 5.204911e+000 -6.489077e+001 1.167552e+002 -6.534779e+001 7.457493e+001 -1.054689e+000 -1.672026e+002
5933025000 -3.061450e+000 4.060592e+000 -6.514085e+001 1.349356e+002 -6.553865e+001 7.399524e+001 -1.060308e+000 -1.677175e+002
5951768750 -3.039158e+000 2.980210e+000 -6.550533e+001 1.538404e+002 -6.482413e+001 7.686955e+001 -1.065652e+000 -1.682234e+002
5970512500 -3.027758e+000 1.898744e+000 -6.541132e+001 1.688620e+002 -6.495517e+001 7.625846e+001 -1.073126e+000 -1.687252e+002
5989256250 -3.014944e+000 7.434744e-001 -6.516295e+001 -1.746706e+002 -6.477730e+001 7.867769e+001 -1.077369e+000 -1.692370e+002
6008000000 -2.995568e+000 -3.231538e-001 -6.518058e+001 -1.565028e+002 -6.476193e+001 7.988600e+001 -1.083225e+000 -1.697349e+002
6026743750 -2.984051e+000 -1.416290e+000 -6.465635e+001 -1.427704e+002 -6.424063e+001 8.271953e+001 -1.089499e+000 -1.702441e+002
6045487500 -2.972837e+000 -2.571367e+000 -6.453429e+001 -1.319173e+002 -6.392778e+001 9.135394e+001 -1.094472e+000 -1.707419e+002
6064231250 -2.952296e+000 -3.614799e+000 -6.460164e+001 -1.172970e+002 -6.407974e+001 9.113903e+001 -1.100392e+000 -1.712582e+002
6082975000 -2.942136e+000 -4.732973e+000 -6.447106e+001 -1.049949e+002 -6.362059e+001 9.116882e+001 -1.106266e+000 -1.717739e+002
6101718750 -2.927264e+000 -5.885015e+000 -6.460604e+001 -9.393848e+001 -6.363820e+001 8.423858e+001 -1.110440e+000 -1.722847e+002
6120462500 -2.905873e+000 -6.937111e+000 -6.444097e+001 -8.409211e+001 -6.372643e+001 6.755718e+001 -1.117599e+000 -1.727871e+002
6139206250 -2.898546e+000 -8.060404e+000 -6.466135e+001 -7.345766e+001 -6.336121e+001 4.633662e+001 -1.122491e+000 -1.733011e+002
6157950000 -2.881862e+000 -9.225467e+000 -6.449999e+001 -5.929196e+001 -6.329662e+001 3.536545e+001 -1.127951e+000 -1.738005e+002
6176693750 -2.860495e+000 -1.027450e+001 -6.489856e+001 -4.243628e+001 -6.373864e+001 1.780651e+001 -1.137597e+000 -1.743078e+002
6195437500 -2.850178e+000 -1.141144e+001 -6.523373e+001 -3.019629e+001 -6.356855e+001 -2.699636e+000 -1.143489e+000 -1.748340e+002
6214181250 -2.830166e+000 -1.254748e+001 -6.554509e+001 -1.076311e+001 -6.345292e+001 -1.504486e+001 -1.148276e+000 -1.753428e+002
6232925000 -2.815332e+000 -1.365510e+001 -6.556277e+001 3.895129e+000 -6.406417e+001 -3.584817e+001 -1.154047e+000 -1.758548e+002
6251668750 -2.799859e+000 -1.476055e+001 -6.528106e+001 1.730828e+001 -6.397525e+001 -6.793221e+001 -1.160541e+000 -1.763612e+002
6270412500 -2.784856e+000 -1.590922e+001 -6.511179e+001 3.933194e+001 -6.386909e+001 -9.559752e+001 -1.165190e+000 -1.768617e+002
6289156250 -2.767482e+000 -1.700850e+001 -6.491434e+001 6.665576e+001 -6.443911e+001 -1.281754e+002 -1.174965e+000 -1.773719e+002
6307900000 -2.752250e+000 -1.809978e+001 -6.441424e+001 9.258888e+001 -6.446943e+001 -1.704128e+002 -1.180066e+000 -1.779046e+002
6326643750 -2.741782e+000 -1.922445e+001 -6.421868e+001 1.104006e+002 -6.484475e+001 1.532032e+002 -1.183172e+000 -1.784021e+002
6345387500 -2.727537e+000 -2.035003e+001 -6.409666e+001 1.241345e+002 -6.543448e+001 1.240956e+002 -1.193496e+000 -1.789249e+002
6364131250 -2.711585e+000 -2.145045e+001 -6.403899e+001 1.305056e+002 -6.534099e+001 9.226729e+001 -1.200569e+000 -1.794511e+002
6382875000 -2.700555e+000 -2.256755e+001 -6.413279e+001 1.286817e+002 -6.547985e+001 5.411901e+001 -1.205323e+000 -1.799604e+002
6401618750 -2.686264e+000 -2.369187e+001 -6.442984e+001 1.272962e+002 -6.626209e+001 1.743310e+001 -1.216288e+000 1.795107e+002
6420362500 -2.670838e+000 -2.477604e+001 -6.444411e+001 1.257073e+002 -6.648096e+001 -2.732247e+001 -1.222391e+000 1.789792e+002
6439106250 -2.660011e+000 -2.589966e+001 -6.473772e+001 1.234706e+002 -6.680083e+001 -7.468408e+001 -1.227187e+000 1.784845e+002
6457850000 -2.647262e+000 -2.702733e+001 -6.488899e+001 1.224509e+002 -6.695182e+001 -1.255262e+002 -1.239471e+000 1.779726e+002
6476593750 -2.628407e+000 -2.813741e+001 -6.536382e+001 1.208172e+002 -6.686984e+001 -1.790443e+002 -1.246037e+000 1.774384e+002
6495337500 -2.617936e+000 -2.926276e+001 -6.533958e+001 1.194245e+002 -6.777247e+001 1.292621e+002 -1.253151e+000 1.769402e+002
6514081250 -2.605207e+000 -3.037573e+001 -6.580334e+001 1.202060e+002 -6.815070e+001 7.744085e+001 -1.266654e+000 1.764106e+002
6532825000 -2.588474e+000 -3.148776e+001 -6.640241e+001 1.109064e+002 -6.846500e+001 3.328097e+001 -1.271863e+000 1.758710e+002
6551568750 -2.578591e+000 -3.261366e+001 -6.691750e+001 1.119192e+002 -6.875077e+001 -1.227492e+001 -1.277255e+000 1.753624e+002
6570312500 -2.563953e+000 -3.375182e+001 -6.678323e+001 1.152059e+002 -6.900972e+001 -4.618216e+001 -1.287971e+000 1.748277e+002
6589056250 -2.547233e+000 -3.485414e+001 -6.679787e+001 1.103262e+002 -6.995751e+001 -9.143484e+001 -1.291509e+000 1.742961e+002
6607800000 -2.537975e+000 -3.597621e+001 -6.661185e+001 1.052773e+002 -6.984956e+001 -1.269893e+002 -1.298008e+000 1.737808e+002
6626543750 -2.525506e+000 -3.709628e+001 -6.661462e+001 1.065836e+002 -7.034167e+001 -1.571239e+002 -1.307565e+000 1.732434e+002
6645287500 -2.514493e+000 -3.821468e+001 -6.655806e+001 1.038522e+002 -7.048627e+001 1.705259e+002 -1.311141e+000 1.727115e+002
6664031250 -2.500880e+000 -3.932824e+001 -6.646301e+001 1.063077e+002 -7.017239e+001 1.402339e+002 -1.319989e+000 1.722002e+002
6682775000 -2.490088e+000 -4.045342e+001 -6.694326e+001 1.032225e+002 -7.003893e+001 1.220539e+002 -1.330525e+000 1.716479e+002
6701518750 -2.475894e+000 -4.155103e+001 -6.756818e+001 9.739113e+001 -7.024383e+001 8.966356e+001 -1.336713e+000 1.711131e+002
6720262500 -2.466854e+000 -4.268366e+001 -6.737122e+001 8.453084e+001 -6.984509e+001 6.849731e+001 -1.342646e+000 1.705933e+002
6739006250 -2.451144e+000 -4.379277e+001 -6.806153e+001 6.151152e+001 -6.960439e+001 5.438930e+001 -1.352885e+000 1.700515e+002
6757750000 -2.439987e+000 -4.490487e+001 -6.807713e+001 3.491685e+001 -6.958802e+001 4.222823e+001 -1.357892e+000 1.695173e+002
6776493750 -2.430180e+000 -4.603353e+001 -6.842648e+001 1.357744e+001 -6.872091e+001 2.681439e+001 -1.364050e+000 1.690005e+002
6795237500 -2.414021e+000 -4.716245e+001 -6.853469e+001 -8.526541e+000 -6.925739e+001 3.232213e+000 -1.371058e+000 1.684552e+002
6813981250 -2.401939e+000 -4.828695e+001 -6.820470e+001 -2.152931e+001 -6.933292e+001 -1.033013e+001 -1.374976e+000 1.679353e+002
6832725000 -2.394061e+000 -4.942620e+001 -6.821466e+001 -3.611956e+001 -6.837062e+001 -1.955755e+001 -1.382745e+000 1.674004e+002
6851468750 -2.380338e+000 -5.053631e+001 -6.868167e+001 -5.132990e+001 -6.814504e+001 -2.835246e+001 -1.392235e+000 1.668445e+002
6870212500 -2.370369e+000 -5.166160e+001 -6.862209e+001 -6.982435e+001 -6.777190e+001 -3.042098e+001 -1.396934e+000 1.663161e+002
6888956250 -2.360900e+000 -5.280242e+001 -6.830453e+001 -8.311407e+001 -6.745325e+001 -2.591881e+001 -1.404716e+000 1.657822e+002
6907700000 -2.345947e+000 -5.391070e+001 -6.850976e+001 -9.574566e+001 -6.718330e+001 -2.559739e+001 -1.412012e+000 1.652236e+002
6926443750 -2.336670e+000 -5.504886e+001 -6.843801e+001 -1.128212e+002 -6.648209e+001 -2.174160e+001 -1.415238e+000 1.646817e+002
6945187500 -2.327995e+000 -5.620014e+001 -6.831215e+001 -1.281001e+002 -6.642268e+001 -7.816815e+000 -1.423947e+000 1.641338e+002
6963931250 -2.312848e+000 -5.729749e+001 -6.783751e+001 -1.434399e+002 -6.606686e+001 -3.257817e+000 -1.431017e+000 1.635834e+002
6982675000 -2.308049e+000 -5.844283e+001 -6.713226e+001 -1.718038e+002 -6.540868e+001 8.503071e+000 -1.434817e+000 1.630442e+002
7001418750 -2.298419e+000 -5.958740e+001 -6.710139e+001 1.602990e+002 -6.545299e+001 6.656223e+000 -1.447078e+000 1.625195e+002
7020162500 -2.283804e+000 -6.069946e+001 -6.756974e+001 1.376771e+002 -6.452311e+001 1.354693e+001 -1.454389e+000 1.619669e+002
7038906250 -2.280194e+000 -6.184527e+001 -6.784053e+001 1.078803e+002 -6.444830e+001 1.917883e+001 -1.456716e+000 1.614241e+002
7057650000 -2.271963e+000 -6.298846e+001 -6.789368e+001 7.437800e+001 -6.431920e+001 1.680275e+001 -1.470430e+000 1.608893e+002
7076393750 -2.258924e+000 -6.412007e+001 -6.778204e+001 3.853038e+001 -6.411729e+001 1.561823e+001 -1.477152e+000 1.603222e+002
7095137500 -2.255871e+000 -6.527103e+001 -6.778926e+001 6.919468e+000 -6.370729e+001 2.064080e+001 -1.480044e+000 1.597755e+002
7113881250 -2.246164e+000 -6.642193e+001 -6.764684e+001 -2.329011e+001 -6.408677e+001 2.096578e+001 -1.489562e+000 1.592463e+002
7132625000 -2.236140e+000 -6.756107e+001 -6.714917e+001 -5.355118e+001 -6.398283e+001 3.287149e+001 -1.493736e+000 1.586865e+002
7151368750 -2.230343e+000 -6.869438e+001 -6.704466e+001 -8.757996e+001 -6.441641e+001 3.982025e+001 -1.501686e+000 1.581563e+002
7170112500 -2.221094e+000 -6.985632e+001 -6.655309e+001 -1.110569e+002 -6.448473e+001 3.663980e+001 -1.514204e+000 1.576315e+002
7188856250 -2.211925e+000 -7.099416e+001 -6.661484e+001 -1.336785e+002 -6.417609e+001 3.429757e+001 -1.521274e+000 1.570619e+002
7207600000 -2.208888e+000 -7.212904e+001 -6.643324e+001 -1.633235e+002 -6.428874e+001 3.567929e+001 -1.527514e+000 1.565303e+002
7226343750 -2.201318e+000 -7.328925e+001 -6.636088e+001 1.757716e+002 -6.418154e+001 4.927961e+001 -1.539263e+000 1.559914e+002
7245087500 -2.194846e+000 -7.440800e+001 -6.654128e+001 1.523845e+002 -6.385709e+001 6.410213e+001 -1.545103e+000 1.554246e+002
7263831250 -2.188808e+000 -7.554575e+001 -6.649716e+001 1.310962e+002 -6.417222e+001 6.711495e+001 -1.551392e+000 1.548986e+002
7282575000 -2.180567e+000 -7.670117e+001 -6.600892e+001 1.137601e+002 -6.416148e+001 7.075246e+001 -1.560867e+000 1.543522e+002
7301318750 -2.176845e+000 -7.782476e+001 -6.574571e+001 1.001456e+002 -6.420050e+001 6.923273e+001 -1.564638e+000 1.537796e+002
7320062500 -2.172729e+000 -7.898289e+001 -6.565557e+001 8.285264e+001 -6.439354e+001 6.042481e+001 -1.572308e+000 1.532471e+002
7338806250 -2.166963e+000 -8.012854e+001 -6.516570e+001 6.150547e+001 -6.460458e+001 5.832531e+001 -1.581824e+000 1.526951e+002
7357550000 -2.162216e+000 -8.125819e+001 -6.516943e+001 4.504047e+001 -6.480717e+001 5.581887e+001 -1.588100e+000 1.521428e+002
7376293750 -2.157365e+000 -8.241584e+001 -6.513884e+001 2.681890e+001 -6.474942e+001 4.463549e+001 -1.597365e+000 1.516331e+002
7395037500 -2.158525e+000 -8.357433e+001 -6.492048e+001 1.875997e+001 -6.474536e+001 4.194337e+001 -1.607465e+000 1.511007e+002
7413781250 -2.152707e+000 -8.471616e+001 -6.512460e+001 1.632743e+001 -6.490609e+001 3.697576e+001 -1.618828e+000 1.505248e+002
7432525000 -2.147714e+000 -8.585318e+001 -6.530905e+001 9.017158e+000 -6.477119e+001 3.890351e+001 -1.617242e+000 1.499814e+002
7451268750 -2.150910e+000 -8.701595e+001 -6.462540e+001 5.781436e+000 -6.489576e+001 3.897899e+001 -1.627461e+000 1.494531e+002
7470012500 -2.143870e+000 -8.818965e+001 -6.455719e+001 5.724959e+000 -6.552287e+001 3.338845e+001 -1.636633e+000 1.489144e+002
7488756250 -2.137980e+000 -8.933937e+001 -6.474841e+001 4.558990e+000 -6.543365e+001 3.612437e+001 -1.642495e+000 1.483739e+002
7507500000 -2.142197e+000 -9.046553e+001 -6.475850e+001 5.756260e+000 -6.550754e+001 3.427097e+001 -1.653954e+000 1.478142e+002
7526243750 -2.136408e+000 -9.163284e+001 -6.472151e+001 -1.307895e+000 -6.624746e+001 3.537295e+001 -1.661238e+000 1.472684e+002
7544987500 -2.134871e+000 -9.279416e+001 -6.419120e+001 -2.136690e+000 -6.588786e+001 3.154094e+001 -1.667002e+000 1.467150e+002
7563731250 -2.139982e+000 -9.394273e+001 -6.432260e+001 -8.682796e+000 -6.590331e+001 2.395214e+001 -1.677973e+000 1.461492e+002
7582475000 -2.135219e+000 -9.513773e+001 -6.444493e+001 -9.542889e+000 -6.585235e+001 1.980538e+001 -1.680218e+000 1.455958e+002
7601218750 -2.135512e+000 -9.628117e+001 -6.464352e+001 -1.609959e+001 -6.585048e+001 2.007728e+001 -1.686567e+000 1.450581e+002
7619962500 -2.140392e+000 -9.743839e+001 -6.460654e+001 -1.894335e+001 -6.661263e+001 1.393916e+001 -1.697571e+000 1.445010e+002
7638706250 -2.135971e+000 -9.864172e+001 -6.433435e+001 -1.690888e+001 -6.649889e+001 1.054836e+001 -1.700869e+000 1.439417e+002
7657450000 -2.139496e+000 -9.978371e+001 -6.468417e+001 -2.412171e+001 -6.573050e+001 1.044959e+000 -1.709913e+000 1.434047e+002
7676193750 -2.144902e+000 -1.009727e+002 -6.504160e+001 -2.634236e+001 -6.566225e+001 -1.797690e+001 -1.718890e+000 1.428319e+002
7694937500 -2.140912e+000 -1.021668e+002 -6.510824e+001 -2.990403e+001 -6.520292e+001 -2.724870e+001 -1.722093e+000 1.422771e+002
7713681250 -2.146044e+000 -1.033242e+002 -6.529670e+001 -3.154959e+001 -6.530492e+001 -3.150632e+001 -1.733253e+000 1.417389e+002
7732425000 -2.152005e+000 -1.045148e+002 -6.555935e+001 -4.237119e+001 -6.527792e+001 -3.317189e+001 -1.742269e+000 1.411561e+002
7751168750 -2.148834e+000 -1.056908e+002 -6.537704e+001 -4.530521e+001 -6.496513e+001 -3.486525e+001 -1.743444e+000 1.405964e+002
7769912500 -2.157376e+000 -1.068542e+002 -6.605675e+001 -4.897667e+001 -6.484055e+001 -3.426817e+001 -1.755632e+000 1.400685e+002
7788656250 -2.166129e+000 -1.080616e+002 -6.650815e+001 -5.066101e+001 -6.447784e+001 -3.952238e+001 -1.763291e+000 1.394947e+002
7807400000 -2.165057e+000 -1.092445e+002 -6.657291e+001 -5.352907e+001 -6.449072e+001 -3.994100e+001 -1.763227e+000 1.389475e+002
7826143750 -2.170897e+000 -1.104016e+002 -6.645176e+001 -5.967508e+001 -6.448129e+001 -4.464677e+001 -1.775872e+000 1.383803e+002
7844887500 -2.183039e+000 -1.116019e+002 -6.632230e+001 -6.244630e+001 -6.431520e+001 -4.713216e+001 -1.777237e+000 1.378067e+002
7863631250 -2.186177e+000 -1.128116e+002 -6.626851e+001 -5.773196e+001 -6.421610e+001 -5.083399e+001 -1.788866e+000 1.372754e+002
7882375000 -2.193033e+000 -1.139604e+002 -6.628834e+001 -6.018665e+001 -6.411966e+001 -5.553023e+001 -1.800727e+000 1.366820e+002
7901118750 -2.207014e+000 -1.151552e+002 -6.634415e+001 -6.198522e+001 -6.319686e+001 -5.599001e+001 -1.802237e+000 1.360721e+002
7919862500 -2.212927e+000 -1.163584e+002 -6.602244e+001 -6.740924e+001 -6.301604e+001 -6.354497e+001 -1.806037e+000 1.355612e+002
7938606250 -2.220994e+000 -1.175294e+002 -6.566598e+001 -7.368505e+001 -6.345746e+001 -7.194712e+001 -1.818988e+000 1.350009e+002
7957350000 -2.237452e+000 -1.187225e+002 -6.558990e+001 -7.614487e+001 -6.273785e+001 -8.137357e+001 -1.822841e+000 1.344056e+002
7976093750 -2.243846e+000 -1.199255e+002 -6.555264e+001 -7.933739e+001 -6.325409e+001 -8.438837e+001 -1.830256e+000 1.338989e+002
7994837500 -2.254273e+000 -1.211087e+002 -6.523960e+001 -7.883688e+001 -6.283712e+001 -9.292107e+001 -1.843844e+000 1.333357e+002
8013581250 -2.270743e+000 -1.223174e+002 -6.513805e+001 -8.236755e+001 -6.239850e+001 -1.007847e+002 -1.848522e+000 1.327346e+002
8032325000 -2.276880e+000 -1.235267e+002 -6.491589e+001 -8.430828e+001 -6.268475e+001 -1.030925e+002 -1.854492e+000 1.322244e+002
8051068750 -2.291465e+000 -1.247061e+002 -6.502384e+001 -8.956381e+001 -6.208044e+001 -1.045051e+002 -1.866329e+000 1.316364e+002
8069812500 -2.308172e+000 -1.259097e+002 -6.523021e+001 -9.909893e+001 -6.219291e+001 -1.125536e+002 -1.869766e+000 1.310463e+002
8088556250 -2.317838e+000 -1.271393e+002 -6.473589e+001 -9.751280e+001 -6.266033e+001 -1.140631e+002 -1.876268e+000 1.305243e+002
8107300000 -2.334119e+000 -1.283304e+002 -6.464508e+001 -1.033682e+002 -6.300047e+001 -1.129486e+002 -1.888657e+000 1.299419e+002
8126043750 -2.354211e+000 -1.295475e+002 -6.475962e+001 -1.098487e+002 -6.307233e+001 -1.077615e+002 -1.890871e+000 1.293690e+002
8144787500 -2.364456e+000 -1.307690e+002 -6.482138e+001 -1.240917e+002 -6.312745e+001 -1.011204e+002 -1.898757e+000 1.288677e+002
8163531250 -2.382365e+000 -1.319625e+002 -6.474616e+001 -1.316642e+002 -6.331756e+001 -9.275172e+001 -1.915498e+000 1.282846e+002
8182275000 -2.403286e+000 -1.331908e+002 -6.531601e+001 -1.469385e+002 -6.352943e+001 -7.785429e+001 -1.919473e+000 1.277124e+002
8201018750 -2.416713e+000 -1.344284e+002 -6.501151e+001 -1.549464e+002 -6.347291e+001 -7.169558e+001 -1.927978e+000 1.271730e+002
8219762500 -2.436893e+000 -1.356488e+002 -6.476454e+001 -1.601307e+002 -6.404224e+001 -6.195681e+001 -1.940105e+000 1.265710e+002
8238506250 -2.455505e+000 -1.368868e+002 -6.458340e+001 -1.610280e+002 -6.392063e+001 -4.972623e+001 -1.942746e+000 1.259947e+002
8257250000 -2.470630e+000 -1.381064e+002 -6.487328e+001 -1.590560e+002 -6.370720e+001 -3.594256e+001 -1.951855e+000 1.254689e+002
8275993750 -2.492182e+000 -1.393235e+002 -6.484941e+001 -1.656711e+002 -6.385711e+001 -2.124564e+001 -1.963912e+000 1.248893e+002
8294737500 -2.513119e+000 -1.405618e+002 -6.504108e+001 -1.790723e+002 -6.419447e+001 -3.190764e+000 -1.966455e+000 1.243189e+002
8313481250 -2.533873e+000 -1.418118e+002 -6.507063e+001 1.797230e+002 -6.466695e+001 7.149611e+000 -1.977724e+000 1.237798e+002
8332225000 -2.557230e+000 -1.430523e+002 -6.462437e+001 1.759939e+002 -6.480280e+001 2.333088e+001 -1.989969e+000 1.231958e+002
8350968750 -2.577342e+000 -1.442861e+002 -6.479121e+001 1.755000e+002 -6.528068e+001 3.559408e+001 -1.994969e+000 1.226179e+002
8369712500 -2.598944e+000 -1.455344e+002 -6.486876e+001 1.738168e+002 -6.478703e+001 5.322190e+001 -2.006262e+000 1.220783e+002
8388456250 -2.624491e+000 -1.467813e+002 -6.502776e+001 1.740988e+002 -6.583302e+001 6.572438e+001 -2.019321e+000 1.214696e+002
8407200000 -2.646132e+000 -1.480385e+002 -6.554223e+001 1.668152e+002 -6.527987e+001 7.959127e+001 -2.024929e+000 1.208950e+002
8425943750 -2.670633e+000 -1.492875e+002 -6.586384e+001 1.673460e+002 -6.568092e+001 9.428788e+001 -2.038382e+000 1.203277e+002
8444687500 -2.696948e+000 -1.505500e+002 -6.623790e+001 1.721567e+002 -6.563266e+001 1.020949e+002 -2.047104e+000 1.197367e+002
8463431250 -2.721500e+000 -1.518219e+002 -6.633331e+001 1.685787e+002 -6.561379e+001 1.085239e+002 -2.051520e+000 1.191704e+002
8482175000 -2.745531e+000 -1.530679e+002 -6.609354e+001 1.740435e+002 -6.528243e+001 1.261912e+002 -2.064270e+000 1.186255e+002
8500918750 -2.776659e+000 -1.543392e+002 -6.643788e+001 1.763620e+002 -6.530703e+001 1.428845e+002 -2.075409e+000 1.180297e+002
8519662500 -2.803160e+000 -1.556028e+002 -6.653316e+001 1.744186e+002 -6.518894e+001 1.583529e+002 -2.082881e+000 1.174750e+002
8538406250 -2.832147e+000 -1.568837e+002 -6.628110e+001 1.717624e+002 -6.561880e+001 1.690581e+002 -2.098271e+000 1.168936e+002
8557150000 -2.863880e+000 -1.581795e+002 -6.661389e+001 -1.799313e+002 -6.578622e+001 1.785691e+002 -2.109170e+000 1.162804e+002
8575893750 -2.891787e+000 -1.594734e+002 -6.698185e+001 -1.743260e+002 -6.582789e+001 1.794663e+002 -2.115296e+000 1.157209e+002
8594637500 -2.923796e+000 -1.607521e+002 -6.693259e+001 -1.648165e+002 -6.604700e+001 -1.776049e+002 -2.128663e+000 1.151348e+002
8613381250 -2.956984e+000 -1.620453e+002 -6.639684e+001 -1.519830e+002 -6.625835e+001 -1.770684e+002 -2.139425e+000 1.145387e+002
8632125000 -2.988789e+000 -1.633535e+002 -6.634325e+001 -1.484433e+002 -6.671098e+001 -1.697944e+002 -2.148174e+000 1.139744e+002
8650868750 -3.021474e+000 -1.646484e+002 -6.659740e+001 -1.497103e+002 -6.629382e+001 -1.679305e+002 -2.163609e+000 1.133836e+002
8669612500 -3.054966e+000 -1.659589e+002 -6.659108e+001 -1.564386e+002 -6.654247e+001 -1.708599e+002 -2.173325e+000 1.127757e+002
8688356250 -3.087691e+000 -1.672915e+002 -6.638039e+001 -1.583932e+002 -6.664716e+001 -1.751447e+002 -2.182758e+000 1.122084e+002
8707100000 -3.122629e+000 -1.685991e+002 -6.680641e+001 -1.594863e+002 -6.718858e+001 -1.725729e+002 -2.199093e+000 1.116144e+002
8725843750 -3.160256e+000 -1.699138e+002 -6.654593e+001 -1.515598e+002 -6.693212e+001 -1.774547e+002 -2.208238e+000 1.110049e+002
8744587500 -3.195681e+000 -1.712478e+002 -6.668772e+001 -1.578963e+002 -6.652671e+001 -1.744229e+002 -2.219965e+000 1.104383e+002
8763331250 -3.231292e+000 -1.725761e+002 -6.693673e+001 -1.586976e+002 -6.648973e+001 -1.766478e+002 -2.235772e+000 1.098407e+002
8782075000 -3.270273e+000 -1.739210e+002 -6.728530e+001 -1.610322e+002 -6.609614e+001 -1.771468e+002 -2.241965e+000 1.092222e+002
8800818750 -3.305768e+000 -1.752604e+002 -6.808495e+001 -1.612344e+002 -6.602320e+001 1.788770e+002 -2.250400e+000 1.086498e+002
8819562500 -3.342104e+000 -1.766008e+002 -6.850738e+001 -1.690667e+002 -6.534227e+001 -1.784633e+002 -2.262856e+000 1.080666e+002
8838306250 -3.386584e+000 -1.779291e+002 -6.819884e+001 -1.697638e+002 -6.564514e+001 1.776114e+002 -2.272329e+000 1.074584e+002
8857050000 -3.427400e+000 -1.792836e+002 -6.817845e+001 -1.747286e+002 -6.562177e+001 1.745288e+002 -2.282681e+000 1.068774e+002
8875793750 -3.467423e+000 1.793519e+002 -6.843042e+001 1.752043e+002 -6.593754e+001 1.758055e+002 -2.298382e+000 1.062506e+002
8894537500 -3.511882e+000 1.779939e+002 -6.848302e+001 1.780590e+002 -6.602434e+001 -1.791315e+002 -2.306480e+000 1.056206e+002
8913281250 -3.553929e+000 1.766163e+002 -6.946906e+001 1.706859e+002 -6.632301e+001 1.721042e+002 -2.318791e+000 1.050271e+002
8932025000 -3.596353e+000 1.752503e+002 -6.949457e+001 1.631986e+002 -6.611830e+001 1.603901e+002 -2.332106e+000 1.044188e+002
8950768750 -3.642837e+000 1.738622e+002 -6.935574e+001 1.600784e+002 -6.657826e+001 1.380376e+002 -2.340029e+000 1.037944e+002
8969512500 -3.687088e+000 1.724771e+002 -6.958217e+001 1.566378e+002 -6.630514e+001 1.188180e+002 -2.351775e+000 1.031953e+002
8988256250 -3.729900e+000 1.710893e+002 -6.905486e+001 1.433410e+002 -6.628780e+001 9.709297e+001 -2.363375e+000 1.025683e+002
9007000000 -3.778782e+000 1.696963e+002 -6.895914e+001 1.322314e+002 -6.608498e+001 7.889780e+001 -2.371676e+000 1.019409e+002
9025743750 -3.822244e+000 1.683040e+002 -6.892715e+001 1.105087e+002 -6.577502e+001 6.088545e+001 -2.384641e+000 1.013497e+002
9044487500 -3.869539e+000 1.669135e+002 -6.946968e+001 8.728854e+001 -6.582144e+001 4.611996e+001 -2.394122e+000 1.007110e+002
9063231250 -3.921186e+000 1.655057e+002 -6.924536e+001 7.430917e+001 -6.555192e+001 3.639601e+001 -2.403310e+000 1.000938e+002
9081975000 -3.968855e+000 1.640936e+002 -6.922184e+001 5.912525e+001 -6.562230e+001 3.817990e+001 -2.416846e+000 9.948219e+001
9100718750 -4.021242e+000 1.626619e+002 -6.929895e+001 5.100835e+001 -6.579942e+001 4.370213e+001 -2.426902e+000 9.881395e+001
9119462500 -4.073847e+000 1.612259e+002 -6.911557e+001 4.299903e+001 -6.603179e+001 5.667613e+001 -2.433852e+000 9.819112e+001
9138206250 -4.119984e+000 1.598013e+002 -6.842731e+001 4.583139e+001 -6.590457e+001 6.096694e+001 -2.444949e+000 9.757849e+001
9156950000 -4.174645e+000 1.583696e+002 -6.857822e+001 3.780141e+001 -6.623914e+001 6.605552e+001 -2.454132e+000 9.693433e+001
9175693750 -4.231370e+000 1.569055e+002 -6.901319e+001 3.194786e+001 -6.630011e+001 7.307548e+001 -2.462482e+000 9.631865e+001
9194437500 -4.281528e+000 1.554570e+002 -6.895973e+001 2.035926e+001 -6.654034e+001 7.528245e+001 -2.475922e+000 9.568865e+001
9213181250 -4.338836e+000 1.539844e+002 -6.874820e+001 8.834687e+000 -6.673325e+001 8.667983e+001 -2.486828e+000 9.503224e+001
9231925000 -4.395776e+000 1.524985e+002 -6.803830e+001 -1.111509e+001 -6.710019e+001 1.065006e+002 -2.495801e+000 9.441259e+001
9250668750 -4.446296e+000 1.510497e+002 -6.771581e+001 -3.260591e+001 -6.699355e+001 1.265075e+002 -2.508945e+000 9.378945e+001
9269412500 -4.506835e+000 1.495685e+002 -6.808550e+001 -4.872124e+001 -6.693472e+001 1.477249e+002 -2.516512e+000 9.313466e+001
9288156250 -4.564266e+000 1.480463e+002 -6.776896e+001 -7.355876e+001 -6.668786e+001 1.777798e+002 -2.526211e+000 9.251321e+001
9306900000 -4.620994e+000 1.465670e+002 -6.697568e+001 -9.478049e+001 -6.650015e+001 -1.562657e+002 -2.538466e+000 9.189037e+001
9325643750 -4.683227e+000 1.450413e+002 -6.690288e+001 -1.278365e+002 -6.632967e+001 -1.351461e+002 -2.547829e+000 9.123009e+001
9344387500 -4.741978e+000 1.435126e+002 -6.585827e+001 -1.519065e+002 -6.634258e+001 -1.097399e+002 -2.557568e+000 9.060834e+001
9363131250 -4.796191e+000 1.420096e+002 -6.547289e+001 -1.715488e+002 -6.666612e+001 -7.425773e+001 -2.569918e+000 8.996783e+001
9381875000 -4.861454e+000 1.404857e+002 -6.519551e+001 1.671404e+002 -6.628506e+001 -3.747004e+001 -2.579828e+000 8.931099e+001
9400618750 -4.920841e+000 1.389393e+002 -6.492870e+001 1.485236e+002 -6.622804e+001 5.372089e+000 -2.589982e+000 8.869609e+001
9419362500 -4.981138e+000 1.374006e+002 -6.536382e+001 1.426265e+002 -6.610307e+001 4.235298e+001 -2.602026e+000 8.802793e+001
9438106250 -5.047626e+000 1.358149e+002 -6.515047e+001 1.435331e+002 -6.686195e+001 7.571847e+001 -2.608346e+000 8.734972e+001
9456850000 -5.106672e+000 1.342347e+002 -6.515299e+001 1.519065e+002 -6.673741e+001 1.142028e+002 -2.617013e+000 8.672364e+001
9475593750 -5.168687e+000 1.326820e+002 -6.471542e+001 1.654236e+002 -6.668594e+001 1.457245e+002 -2.631400e+000 8.605918e+001
9494337500 -5.236945e+000 1.310767e+002 -6.477258e+001 1.702504e+002 -6.652159e+001 1.720051e+002 -2.636647e+000 8.540908e+001
9513081250 -5.298513e+000 1.294800e+002 -6.430978e+001 1.771802e+002 -6.638535e+001 -1.685004e+002 -2.648289e+000 8.478524e+001
9531825000 -5.363862e+000 1.278873e+002 -6.404763e+001 1.771591e+002 -6.576511e+001 -1.525508e+002 -2.661837e+000 8.412425e+001
9550568750 -5.430667e+000 1.262462e+002 -6.392447e+001 1.717361e+002 -6.576611e+001 -1.418429e+002 -2.668233e+000 8.345397e+001
9569312500 -5.492698e+000 1.246184e+002 -6.454471e+001 1.591864e+002 -6.554434e+001 -1.316377e+002 -2.682506e+000 8.282770e+001
9588056250 -5.557665e+000 1.230034e+002 -6.425552e+001 1.531086e+002 -6.518652e+001 -1.157913e+002 -2.695475e+000 8.213949e+001
9606800000 -5.625928e+000 1.213492e+002 -6.361694e+001 1.512141e+002 -6.520328e+001 -1.038222e+002 -2.701364e+000 8.147718e+001
9625543750 -5.688537e+000 1.196985e+002 -6.354240e+001 1.486404e+002 -6.478369e+001 -8.682981e+001 -2.713718e+000 8.083172e+001
9644287500 -5.755849e+000 1.180388e+002 -6.386745e+001 1.446044e+002 -6.467677e+001 -7.552500e+001 -2.725682e+000 8.013943e+001
9663031250 -5.823017e+000 1.163351e+002 -6.403603e+001 1.515134e+002 -6.417616e+001 -7.079500e+001 -2.731985e+000 7.946848e+001
9681775000 -5.884243e+000 1.146452e+002 -6.392381e+001 1.680846e+002 -6.397184e+001 -7.068621e+001 -2.744840e+000 7.882755e+001
9700518750 -5.953709e+000 1.129679e+002 -6.325556e+001 1.763338e+002 -6.378926e+001 -6.646567e+001 -2.755983e+000 7.812655e+001
9719262500 -6.022136e+000 1.112359e+002 -6.317693e+001 -1.714771e+002 -6.378596e+001 -7.171983e+001 -2.764561e+000 7.747068e+001
9738006250 -6.084363e+000 1.095299e+002 -6.336282e+001 -1.564117e+002 -6.366391e+001 -7.559107e+001 -2.780496e+000 7.681324e+001
9756750000 -6.153162e+000 1.078052e+002 -6.339355e+001 -1.358503e+002 -6.340291e+001 -7.649927e+001 -2.794556e+000 7.609970e+001
9775493750 -6.221888e+000 1.060214e+002 -6.346806e+001 -1.205565e+002 -6.312168e+001 -7.533099e+001 -2.800514e+000 7.543962e+001
9794237500 -6.286528e+000 1.042760e+002 -6.335752e+001 -1.053812e+002 -6.267330e+001 -7.958498e+001 -2.812388e+000 7.480077e+001
9812981250 -6.352257e+000 1.025144e+002 -6.351345e+001 -9.388812e+001 -6.250354e+001 -7.885345e+001 -2.825820e+000 7.409325e+001
9831725000 -6.417126e+000 1.007402e+002 -6.316233e+001 -8.304446e+001 -6.195182e+001 -8.138714e+001 -2.832510e+000 7.340530e+001
9850468750 -6.482698e+000 9.895852e+001 -6.258726e+001 -8.020058e+001 -6.178095e+001 -8.120959e+001 -2.848675e+000 7.278400e+001
9869212500 -6.546332e+000 9.713699e+001 -6.203088e+001 -7.929186e+001 -6.081189e+001 -7.432251e+001 -2.864711e+000 7.208861e+001
9887956250 -6.607987e+000 9.532588e+001 -6.182244e+001 -7.950650e+001 -6.054245e+001 -7.446017e+001 -2.874440e+000 7.139357e+001
9906700000 -6.676775e+000 9.352280e+001 -6.164359e+001 -8.282719e+001 -6.001726e+001 -7.524780e+001 -2.883517e+000 7.072743e+001
9925443750 -6.738628e+000 9.167339e+001 -6.139963e+001 -8.269106e+001 -5.989790e+001 -7.496705e+001 -2.898660e+000 7.003897e+001
9944187500 -6.802722e+000 8.983945e+001 -6.156792e+001 -8.663038e+001 -5.956575e+001 -7.469053e+001 -2.908812e+000 6.936301e+001
9962931250 -6.872865e+000 8.798634e+001 -6.165733e+001 -8.550778e+001 -5.983671e+001 -7.464907e+001 -2.921481e+000 6.869891e+001
9981675000 -6.932675e+000 8.608374e+001 -6.157236e+001 -8.724660e+001 -5.960992e+001 -7.584596e+001 -2.936003e+000 6.798394e+001
10000418750 -6.992180e+000 8.423145e+001 -6.102387e+001 -8.842425e+001 -5.912476e+001 -7.492693e+001 -2.945196e+000 6.728363e+001
10019162500 -7.058869e+000 8.234203e+001 -6.072294e+001 -9.020876e+001 -5.875842e+001 -7.566476e+001 -2.956969e+000 6.661237e+001
10037906250 -7.112795e+000 8.042518e+001 -6.062172e+001 -9.077193e+001 -5.837809e+001 -7.665140e+001 -2.969803e+000 6.589340e+001
10056650000 -7.174007e+000 7.854404e+001 -6.030250e+001 -8.969879e+001 -5.826339e+001 -7.877531e+001 -2.980335e+000 6.521862e+001
10075393750 -7.240629e+000 7.659283e+001 -5.926441e+001 -8.573750e+001 -5.786419e+001 -8.056319e+001 -2.994651e+000 6.454050e+001
10094137500 -7.293002e+000 7.462144e+001 -5.877608e+001 -8.586023e+001 -5.770040e+001 -8.278323e+001 -3.010006e+000 6.381893e+001
10112881250 -7.354782e+000 7.270757e+001 -5.836704e+001 -8.792838e+001 -5.765933e+001 -8.522812e+001 -3.021712e+000 6.311296e+001
10131625000 -7.411965e+000 7.070715e+001 -5.820712e+001 -8.920124e+001 -5.736303e+001 -8.964629e+001 -3.037154e+000 6.242796e+001
10150368750 -7.459970e+000 6.874934e+001 -5.806411e+001 -8.862264e+001 -5.696526e+001 -8.916632e+001 -3.048185e+000 6.169012e+001
10169112500 -7.520051e+000 6.679238e+001 -5.769120e+001 -9.322475e+001 -5.663052e+001 -8.827731e+001 -3.056905e+000 6.099286e+001
10187856250 -7.576748e+000 6.475584e+001 -5.721609e+001 -9.621194e+001 -5.637639e+001 -9.117589e+001 -3.070699e+000 6.030470e+001
10206600000 -7.618527e+000 6.278020e+001 -5.686710e+001 -9.779095e+001 -5.610570e+001 -9.239204e+001 -3.083830e+000 5.955228e+001
10225343750 -7.676010e+000 6.079693e+001 -5.648704e+001 -1.000832e+002 -5.585572e+001 -9.552207e+001 -3.096423e+000 5.882684e+001
10244087500 -7.728495e+000 5.873384e+001 -5.608331e+001 -1.006189e+002 -5.552194e+001 -9.751392e+001 -3.108602e+000 5.812582e+001
10262831250 -7.771101e+000 5.672082e+001 -5.583570e+001 -1.028366e+002 -5.531905e+001 -9.970805e+001 -3.123030e+000 5.741362e+001
10281575000 -7.824569e+000 5.469491e+001 -5.558261e+001 -1.037692e+002 -5.520525e+001 -1.011795e+002 -3.133244e+000 5.668490e+001
10300318750 -7.869458e+000 5.260771e+001 -5.541553e+001 -1.048518e+002 -5.504636e+001 -1.031312e+002 -3.146725e+000 5.596925e+001
10319062500 -7.907621e+000 5.057486e+001 -5.507231e+001 -1.059773e+002 -5.481740e+001 -1.050616e+002 -3.159421e+000 5.524746e+001
10337806250 -7.950320e+000 4.850291e+001 -5.484483e+001 -1.073577e+002 -5.455408e+001 -1.067438e+002 -3.175213e+000 5.453283e+001
10356550000 -7.991245e+000 4.643012e+001 -5.450287e+001 -1.091613e+002 -5.418690e+001 -1.099047e+002 -3.186902e+000 5.377803e+001
10375293750 -8.027838e+000 4.438053e+001 -5.389061e+001 -1.089491e+002 -5.390025e+001 -1.122537e+002 -3.198714e+000 5.304900e+001
10394037500 -8.064536e+000 4.228740e+001 -5.349349e+001 -1.115845e+002 -5.335414e+001 -1.152166e+002 -3.212435e+000 5.233076e+001
10412781250 -8.098656e+000 4.019652e+001 -5.339127e+001 -1.134238e+002 -5.288773e+001 -1.167866e+002 -3.226912e+000 5.160628e+001
10431525000 -8.128718e+000 3.812000e+001 -5.293961e+001 -1.139335e+002 -5.284168e+001 -1.200904e+002 -3.239533e+000 5.087665e+001
10450268750 -8.161291e+000 3.601069e+001 -5.285245e+001 -1.148415e+002 -5.265603e+001 -1.226991e+002 -3.254130e+000 5.014286e+001
10469012500 -8.190541e+000 3.391854e+001 -5.245297e+001 -1.167275e+002 -5.237860e+001 -1.241175e+002 -3.266721e+000 4.940741e+001
10487756250 -8.220759e+000 3.181796e+001 -5.221434e+001 -1.192790e+002 -5.207837e+001 -1.265826e+002 -3.280541e+000 4.867981e+001
10506500000 -8.246410e+000 2.970840e+001 -5.217464e+001 -1.211535e+002 -5.185469e+001 -1.293382e+002 -3.296554e+000 4.793789e+001
10525243750 -8.268821e+000 2.761279e+001 -5.193090e+001 -1.218672e+002 -5.172249e+001 -1.295325e+002 -3.309181e+000 4.718869e+001
10543987500 -8.290896e+000 2.550752e+001 -5.181351e+001 -1.235055e+002 -5.134056e+001 -1.307561e+002 -3.321010e+000 4.646086e+001
10562731250 -8.310994e+000 2.340118e+001 -5.168611e+001 -1.253353e+002 -5.106863e+001 -1.320860e+002 -3.336297e+000 4.572370e+001
10581475000 -8.330851e+000 2.131750e+001 -5.152591e+001 -1.274093e+002 -5.085226e+001 -1.345725e+002 -3.348497e+000 4.498135e+001
10600218750 -8.349658e+000 1.919943e+001 -5.127530e+001 -1.278129e+002 -5.053229e+001 -1.363696e+002 -3.363699e+000 4.427381e+001
10618962500 -8.361683e+000 1.708282e+001 -5.104172e+001 -1.305157e+002 -5.034614e+001 -1.376032e+002 -3.382221e+000 4.353640e+001
10637706250 -8.374067e+000 1.498083e+001 -5.070385e+001 -1.332625e+002 -5.016861e+001 -1.398433e+002 -3.395948e+000 4.278863e+001
10656450000 -8.383908e+000 1.287038e+001 -5.047693e+001 -1.345695e+002 -4.989584e+001 -1.396153e+002 -3.412803e+000 4.204927e+001
10675193750 -8.391072e+000 1.077062e+001 -5.028204e+001 -1.365813e+002 -4.966389e+001 -1.403369e+002 -3.429978e+000 4.128783e+001
10693937500 -8.402270e+000 8.685186e+000 -5.001225e+001 -1.378186e+002 -4.946733e+001 -1.416295e+002 -3.441036e+000 4.052293e+001
10712681250 -8.407871e+000 6.581125e+000 -4.975101e+001 -1.391565e+002 -4.919429e+001 -1.435728e+002 -3.456362e+000 3.979752e+001
10731425000 -8.411716e+000 4.504663e+000 -4.957125e+001 -1.403460e+002 -4.890007e+001 -1.441913e+002 -3.475002e+000 3.903460e+001
10750168750 -8.417129e+000 2.402007e+000 -4.940352e+001 -1.423768e+002 -4.870241e+001 -1.456764e+002 -3.488024e+000 3.828198e+001
10768912500 -8.416018e+000 3.037910e-001 -4.922128e+001 -1.442483e+002 -4.849270e+001 -1.465825e+002 -3.505912e+000 3.753398e+001
10787656250 -8.413318e+000 -1.761712e+000 -4.895693e+001 -1.463325e+002 -4.827118e+001 -1.478584e+002 -3.524230e+000 3.676376e+001
10806400000 -8.411675e+000 -3.839263e+000 -4.882878e+001 -1.483105e+002 -4.807331e+001 -1.495465e+002 -3.536411e+000 3.598875e+001
10825143750 -8.406965e+000 -5.895028e+000 -4.858295e+001 -1.496796e+002 -4.787718e+001 -1.513153e+002 -3.555184e+000 3.524352e+001
10843887500 -8.402489e+000 -7.949862e+000 -4.826307e+001 -1.513176e+002 -4.765553e+001 -1.532577e+002 -3.572694e+000 3.446687e+001
10862631250 -8.397692e+000 -1.002404e+001 -4.809725e+001 -1.529763e+002 -4.734778e+001 -1.538467e+002 -3.588340e+000 3.369555e+001
10881375000 -8.385936e+000 -1.206590e+001 -4.782803e+001 -1.547176e+002 -4.712790e+001 -1.553885e+002 -3.608904e+000 3.293419e+001
10900118750 -8.381957e+000 -1.408880e+001 -4.765685e+001 -1.563873e+002 -4.693005e+001 -1.574696e+002 -3.628038e+000 3.214085e+001
10918862500 -8.373582e+000 -1.613062e+001 -4.744201e+001 -1.581065e+002 -4.671491e+001 -1.590384e+002 -3.641745e+000 3.134425e+001
10937606250 -8.360145e+000 -1.814353e+001 -4.705862e+001 -1.597859e+002 -4.646121e+001 -1.601061e+002 -3.659833e+000 3.059762e+001
10956350000 -8.349963e+000 -2.015512e+001 -4.679815e+001 -1.621489e+002 -4.618434e+001 -1.617815e+002 -3.678629e+000 2.980995e+001
10975093750 -8.338198e+000 -2.219140e+001 -4.642737e+001 -1.638264e+002 -4.587937e+001 -1.635431e+002 -3.697776e+000 2.901845e+001
10993837500 -8.318885e+000 -2.416295e+001 -4.616622e+001 -1.652791e+002 -4.568887e+001 -1.647680e+002 -3.719574e+000 2.822699e+001
11012581250 -8.309029e+000 -2.614873e+001 -4.587127e+001 -1.668026e+002 -4.539650e+001 -1.663174e+002 -3.738714e+000 2.742235e+001
11031325000 -8.295255e+000 -2.814696e+001 -4.566212e+001 -1.685026e+002 -4.522718e+001 -1.681047e+002 -3.754557e+000 2.661551e+001
11050068750 -8.279573e+000 -3.008734e+001 -4.539082e+001 -1.700276e+002 -4.491907e+001 -1.695297e+002 -3.773184e+000 2.583821e+001
11068812500 -8.269655e+000 -3.205992e+001 -4.516961e+001 -1.713772e+002 -4.461110e+001 -1.707880e+002 -3.792062e+000 2.503926e+001
11087556250 -8.251018e+000 -3.403320e+001 -4.491131e+001 -1.731797e+002 -4.436646e+001 -1.731131e+002 -3.811665e+000 2.425550e+001
11106300000 -8.234313e+000 -3.592013e+001 -4.468542e+001 -1.744571e+002 -4.416116e+001 -1.750915e+002 -3.834100e+000 2.345152e+001
11125043750 -8.223133e+000 -3.786710e+001 -4.448118e+001 -1.761366e+002 -4.389611e+001 -1.766931e+002 -3.854619e+000 2.262512e+001
11143787500 -8.207773e+000 -3.978794e+001 -4.418244e+001 -1.780210e+002 -4.360928e+001 -1.785660e+002 -3.874588e+000 2.181818e+001
11162531250 -8.193896e+000 -4.167543e+001 -4.395007e+001 1.797228e+002 -4.341836e+001 1.794135e+002 -3.894971e+000 2.102214e+001
11181275000 -8.181383e+000 -4.360115e+001 -4.368517e+001 1.781044e+002 -4.317250e+001 1.776878e+002 -3.915383e+000 2.019834e+001
11200018750 -8.162274e+000 -4.547696e+001 -4.338671e+001 1.764246e+002 -4.290334e+001 1.760260e+002 -3.937456e+000 1.940146e+001
11218762500 -8.147580e+000 -4.733095e+001 -4.316737e+001 1.752841e+002 -4.264942e+001 1.742579e+002 -3.962079e+000 1.858678e+001
11237506250 -8.134843e+000 -4.922234e+001 -4.287863e+001 1.736157e+002 -4.242772e+001 1.726098e+002 -3.982236e+000 1.773998e+001
11256250000 -8.120783e+000 -5.107946e+001 -4.264591e+001 1.717788e+002 -4.216295e+001 1.704200e+002 -4.001489e+000 1.692819e+001
11274993750 -8.109029e+000 -5.292012e+001 -4.239295e+001 1.699370e+002 -4.194260e+001 1.688660e+002 -4.026556e+000 1.611803e+001
11293737500 -8.098999e+000 -5.479996e+001 -4.212272e+001 1.681579e+002 -4.169025e+001 1.670108e+002 -4.048598e+000 1.526688e+001
11312481250 -8.083392e+000 -5.661927e+001 -4.186034e+001 1.663314e+002 -4.145767e+001 1.649198e+002 -4.072968e+000 1.446830e+001
11331225000 -8.070998e+000 -5.843639e+001 -4.164751e+001 1.643149e+002 -4.126008e+001 1.631761e+002 -4.099828e+000 1.361842e+001
11349968750 -8.061428e+000 -6.026564e+001 -4.139857e+001 1.627258e+002 -4.102973e+001 1.614924e+002 -4.121992e+000 1.275058e+001
11368712500 -8.050875e+000 -6.204633e+001 -4.115141e+001 1.607391e+002 -4.075167e+001 1.595517e+002 -4.143788e+000 1.190717e+001
11387456250 -8.048320e+000 -6.384677e+001 -4.091616e+001 1.591311e+002 -4.048717e+001 1.573852e+002 -4.170376e+000 1.106757e+001
11406200000 -8.037675e+000 -6.567419e+001 -4.062532e+001 1.573991e+002 -4.032046e+001 1.556763e+002 -4.195083e+000 1.020368e+001
11424943750 -8.031031e+000 -6.743295e+001 -4.037740e+001 1.552123e+002 -4.005264e+001 1.537250e+002 -4.219869e+000 9.372391e+000
11443687500 -8.030565e+000 -6.920949e+001 -4.011216e+001 1.533672e+002 -3.983827e+001 1.518344e+002 -4.250013e+000 8.499207e+000
11462431250 -8.022878e+000 -7.097416e+001 -3.984227e+001 1.513364e+002 -3.958692e+001 1.499983e+002 -4.274711e+000 7.612323e+000
11481175000 -8.021194e+000 -7.270511e+001 -3.957460e+001 1.496510e+002 -3.936390e+001 1.480778e+002 -4.298691e+000 6.738558e+000
11499918750 -8.024050e+000 -7.447514e+001 -3.934278e+001 1.477138e+002 -3.917243e+001 1.461428e+002 -4.328638e+000 5.856315e+000
11518662500 -8.022976e+000 -7.622820e+001 -3.912151e+001 1.460796e+002 -3.891051e+001 1.444248e+002 -4.355445e+000 4.940337e+000
11537406250 -8.024837e+000 -7.793153e+001 -3.885315e+001 1.442834e+002 -3.863953e+001 1.423397e+002 -4.381692e+000 4.082629e+000
11556150000 -8.030993e+000 -7.965630e+001 -3.860478e+001 1.423147e+002 -3.847438e+001 1.404527e+002 -4.411583e+000 3.176886e+000
11574893750 -8.034590e+000 -8.137331e+001 -3.836253e+001 1.405075e+002 -3.822965e+001 1.385474e+002 -4.438379e+000 2.248307e+000
11593637500 -8.045703e+000 -8.304234e+001 -3.811677e+001 1.386256e+002 -3.796659e+001 1.365889e+002 -4.463692e+000 1.363940e+000
11612381250 -8.058386e+000 -8.477174e+001 -3.789508e+001 1.368336e+002 -3.772789e+001 1.347704e+002 -4.494084e+000 4.468814e-001
11631125000 -8.069557e+000 -8.648109e+001 -3.765899e+001 1.350155e+002 -3.748972e+001 1.326692e+002 -4.523087e+000 -4.707767e-001
11649868750 -8.087047e+000 -8.812566e+001 -3.742638e+001 1.329886e+002 -3.725069e+001 1.307890e+002 -4.554231e+000 -1.371675e+000
11668612500 -8.106890e+000 -8.981667e+001 -3.719872e+001 1.312356e+002 -3.702797e+001 1.288743e+002 -4.589702e+000 -2.318923e+000
11687356250 -8.122027e+000 -9.148955e+001 -3.696786e+001 1.292968e+002 -3.678747e+001 1.272719e+002 -4.618263e+000 -3.262430e+000
11706100000 -8.149142e+000 -9.314225e+001 -3.673049e+001 1.274108e+002 -3.655932e+001 1.253176e+002 -4.647693e+000 -4.192889e+000
11724843750 -8.176079e+000 -9.482166e+001 -3.649492e+001 1.255663e+002 -3.631603e+001 1.235184e+002 -4.680696e+000 -5.143304e+000
11743587500 -8.201773e+000 -9.647285e+001 -3.624836e+001 1.237517e+002 -3.606607e+001 1.219759e+002 -4.710733e+000 -6.096269e+000
11762331250 -8.236565e+000 -9.808995e+001 -3.599116e+001 1.220544e+002 -3.578274e+001 1.200120e+002 -4.745519e+000 -7.010645e+000
11781075000 -8.270823e+000 -9.974837e+001 -3.572384e+001 1.201650e+002 -3.555276e+001 1.181961e+002 -4.784544e+000 -7.995244e+000
11799818750 -8.307815e+000 -1.013750e+002 -3.546381e+001 1.184369e+002 -3.533662e+001 1.164511e+002 -4.820453e+000 -8.980056e+000
11818562500 -8.347392e+000 -1.029985e+002 -3.520671e+001 1.166341e+002 -3.506374e+001 1.147702e+002 -4.853886e+000 -9.948030e+000
11837306250 -8.390429e+000 -1.045811e+002 -3.498190e+001 1.147526e+002 -3.478373e+001 1.128500e+002 -4.891398e+000 -1.088625e+001
11856050000 -8.435945e+000 -1.061888e+002 -3.470117e+001 1.129853e+002 -3.450329e+001 1.110428e+002 -4.930395e+000 -1.188174e+001
11874793750 -8.481960e+000 -1.077389e+002 -3.443724e+001 1.111054e+002 -3.423340e+001 1.092051e+002 -4.965906e+000 -1.284041e+001
11893537500 -8.544489e+000 -1.093087e+002 -3.416240e+001 1.093035e+002 -3.396442e+001 1.073627e+002 -5.014899e+000 -1.381863e+001
11912281250 -8.603015e+000 -1.109073e+002 -3.388333e+001 1.074201e+002 -3.370163e+001 1.054538e+002 -5.049591e+000 -1.486511e+001
11931025000 -8.663955e+000 -1.124363e+002 -3.359409e+001 1.055355e+002 -3.339951e+001 1.036087e+002 -5.086021e+000 -1.581435e+001
11949768750 -8.735865e+000 -1.139791e+002 -3.328628e+001 1.036100e+002 -3.313375e+001 1.017685e+002 -5.135930e+000 -1.678422e+001
11968512500 -8.803551e+000 -1.155537e+002 -3.299916e+001 1.016557e+002 -3.285021e+001 9.985385e+001 -5.175461e+000 -1.785237e+001
11987256250 -8.876792e+000 -1.170105e+002 -3.269597e+001 9.977454e+001 -3.252704e+001 9.792255e+001 -5.224680e+000 -1.881143e+001
12006000000 -8.964756e+000 -1.184958e+002 -3.238501e+001 9.772646e+001 -3.221175e+001 9.600952e+001 -5.277992e+000 -1.983895e+001
12024743750 -9.048573e+000 -1.200001e+002 -3.208149e+001 9.582877e+001 -3.190368e+001 9.413013e+001 -5.321226e+000 -2.093677e+001
12043487500 -9.139911e+000 -1.214093e+002 -3.177902e+001 9.376596e+001 -3.158354e+001 9.208988e+001 -5.370008e+000 -2.189513e+001
12062231250 -9.240438e+000 -1.228555e+002 -3.143920e+001 9.178518e+001 -3.129518e+001 9.015464e+001 -5.427035e+000 -2.294997e+001
12080975000 -9.333687e+000 -1.242859e+002 -3.111593e+001 8.984089e+001 -3.099371e+001 8.791636e+001 -5.471421e+000 -2.404354e+001
12099718750 -9.441947e+000 -1.255916e+002 -3.078493e+001 8.770497e+001 -3.065897e+001 8.581851e+001 -5.527999e+000 -2.503371e+001
12118462500 -9.563697e+000 -1.269568e+002 -3.043829e+001 8.562257e+001 -3.034308e+001 8.362504e+001 -5.590776e+000 -2.614460e+001
12137206250 -9.678432e+000 -1.282700e+002 -3.011327e+001 8.364503e+001 -3.001279e+001 8.145377e+001 -5.639457e+000 -2.725027e+001
12155950000 -9.806671e+000 -1.295106e+002 -2.976558e+001 8.146794e+001 -2.965537e+001 7.931625e+001 -5.702177e+000 -2.825988e+001
12174693750 -9.937534e+000 -1.307740e+002 -2.941965e+001 7.929285e+001 -2.932384e+001 7.706605e+001 -5.766958e+000 -2.938737e+001
12193437500 -1.006229e+001 -1.319488e+002 -2.907044e+001 7.699709e+001 -2.899097e+001 7.485858e+001 -5.821517e+000 -3.052604e+001
12212181250 -1.020487e+001 -1.330225e+002 -2.872988e+001 7.460925e+001 -2.863968e+001 7.255444e+001 -5.890425e+000 -3.153670e+001
12230925000 -1.035457e+001 -1.341171e+002 -2.837309e+001 7.227287e+001 -2.829106e+001 7.011260e+001 -5.958237e+000 -3.265749e+001
12249668750 -1.050424e+001 -1.351353e+002 -2.800883e+001 6.990990e+001 -2.794233e+001 6.766271e+001 -6.021022e+000 -3.376203e+001
12268412500 -1.066031e+001 -1.360995e+002 -2.764788e+001 6.751665e+001 -2.759622e+001 6.524349e+001 -6.094060e+000 -3.483991e+001
12287156250 -1.081647e+001 -1.370415e+002 -2.728313e+001 6.509219e+001 -2.725210e+001 6.273861e+001 -6.165526e+000 -3.598885e+001
12305900000 -1.096832e+001 -1.378630e+002 -2.691435e+001 6.259909e+001 -2.689688e+001 6.026825e+001 -6.238314e+000 -3.711076e+001
12324643750 -1.112933e+001 -1.385822e+002 -2.655496e+001 6.002708e+001 -2.654022e+001 5.774196e+001 -6.313245e+000 -3.823357e+001
12343387500 -1.129250e+001 -1.392652e+002 -2.618678e+001 5.741607e+001 -2.618958e+001 5.520799e+001 -6.397208e+000 -3.936892e+001
12362131250 -1.145528e+001 -1.398733e+002 -2.582576e+001 5.483565e+001 -2.583953e+001 5.254595e+001 -6.477190e+000 -4.049549e+001
12380875000 -1.161378e+001 -1.404373e+002 -2.546982e+001 5.215971e+001 -2.549000e+001 4.983794e+001 -6.561573e+000 -4.160897e+001
12399618750 -1.176853e+001 -1.409217e+002 -2.511299e+001 4.931913e+001 -2.513491e+001 4.714582e+001 -6.649925e+000 -4.273020e+001
12418362500 -1.191320e+001 -1.412815e+002 -2.475475e+001 4.654571e+001 -2.478073e+001 4.439898e+001 -6.736853e+000 -4.383838e+001
12437106250 -1.205816e+001 -1.415484e+002 -2.441146e+001 4.369141e+001 -2.443380e+001 4.154983e+001 -6.828473e+000 -4.495643e+001
12455850000 -1.220414e+001 -1.418045e+002 -2.405805e+001 4.078735e+001 -2.408637e+001 3.867562e+001 -6.923359e+000 -4.608216e+001
12474593750 -1.233763e+001 -1.419951e+002 -2.369752e+001 3.789417e+001 -2.374793e+001 3.576030e+001 -7.016999e+000 -4.720385e+001
12493337500 -1.246204e+001 -1.421210e+002 -2.335285e+001 3.490192e+001 -2.340149e+001 3.277606e+001 -7.115559e+000 -4.828887e+001
12512081250 -1.257861e+001 -1.422146e+002 -2.300292e+001 3.184477e+001 -2.305130e+001 2.982347e+001 -7.218902e+000 -4.937399e+001
12530825000 -1.267781e+001 -1.422219e+002 -2.266673e+001 2.878987e+001 -2.272329e+001 2.675641e+001 -7.321192e+000 -5.044632e+001
12549568750 -1.277513e+001 -1.421279e+002 -2.233180e+001 2.564705e+001 -2.239358e+001 2.368107e+001 -7.426619e+000 -5.152968e+001
12568312500 -1.286594e+001 -1.420873e+002 -2.199157e+001 2.243005e+001 -2.206905e+001 2.058678e+001 -7.535330e+000 -5.262320e+001
12587056250 -1.293625e+001 -1.420330e+002 -2.166891e+001 1.922368e+001 -2.175564e+001 1.737633e+001 -7.638614e+000 -5.370483e+001
12605800000 -1.300013e+001 -1.419288e+002 -2.134984e+001 1.596484e+001 -2.143357e+001 1.417240e+001 -7.747584e+000 -5.472569e+001
12624543750 -1.305270e+001 -1.418596e+002 -2.103124e+001 1.272881e+001 -2.112140e+001 1.097661e+001 -7.866553e+000 -5.573544e+001
12643287500 -1.308518e+001 -1.417579e+002 -2.072412e+001 9.472959e+000 -2.081696e+001 7.685449e+000 -7.978516e+000 -5.680572e+001
12662031250 -1.311210e+001 -1.416189e+002 -2.042706e+001 6.098128e+000 -2.051052e+001 4.385887e+000 -8.095086e+000 -5.781550e+001
12680775000 -1.313432e+001 -1.415259e+002 -2.013348e+001 2.750456e+000 -2.022354e+001 1.109352e+000 -8.215922e+000 -5.885555e+001
12699518750 -1.314929e+001 -1.415452e+002 -1.984753e+001 -6.649303e-001 -1.994072e+001 -2.275396e+000 -8.328643e+000 -5.984644e+001
12718262500 -1.315025e+001 -1.415689e+002 -1.956568e+001 -4.106843e+000 -1.965401e+001 -5.638862e+000 -8.452841e+000 -6.078477e+001
12737006250 -1.314490e+001 -1.416179e+002 -1.929768e+001 -7.502352e+000 -1.938278e+001 -9.012812e+000 -8.575672e+000 -6.176752e+001
12755750000 -1.312222e+001 -1.417276e+002 -1.903036e+001 -1.095043e+001 -1.911999e+001 -1.249803e+001 -8.695378e+000 -6.269933e+001
12774493750 -1.310074e+001 -1.418314e+002 -1.876261e+001 -1.440117e+001 -1.885136e+001 -1.592927e+001 -8.823948e+000 -6.361040e+001
12793237500 -1.307787e+001 -1.420276e+002 -1.851031e+001 -1.785768e+001 -1.860587e+001 -1.933575e+001 -8.947558e+000 -6.457893e+001
12811981250 -1.305318e+001 -1.423013e+002 -1.826333e+001 -2.138459e+001 -1.835926e+001 -2.285928e+001 -9.064879e+000 -6.547141e+001
12830725000 -1.302097e+001 -1.426407e+002 -1.801934e+001 -2.484756e+001 -1.811011e+001 -2.632548e+001 -9.194620e+000 -6.635065e+001
12849468750 -1.299209e+001 -1.430757e+002 -1.779178e+001 -2.834062e+001 -1.788461e+001 -2.978214e+001 -9.315837e+000 -6.727222e+001
12868212500 -1.295947e+001 -1.435326e+002 -1.755984e+001 -3.186613e+001 -1.766315e+001 -3.334100e+001 -9.439314e+000 -6.812070e+001
12886956250 -1.292773e+001 -1.440107e+002 -1.733405e+001 -3.534367e+001 -1.743384e+001 -3.677270e+001 -9.570992e+000 -6.898663e+001
12905700000 -1.290837e+001 -1.445592e+002 -1.712284e+001 -3.885956e+001 -1.722329e+001 -4.025727e+001 -9.688314e+000 -6.987876e+001
12924443750 -1.288748e+001 -1.452232e+002 -1.690576e+001 -4.238983e+001 -1.701122e+001 -4.381113e+001 -9.806008e+000 -7.070203e+001
12943187500 -1.287139e+001 -1.459027e+002 -1.670374e+001 -4.583586e+001 -1.680277e+001 -4.722980e+001 -9.932364e+000 -7.153810e+001
12961931250 -1.286238e+001 -1.466294e+002 -1.650615e+001 -4.937103e+001 -1.661397e+001 -5.070131e+001 -1.004710e+001 -7.238913e+001
12980675000 -1.285196e+001 -1.473959e+002 -1.630369e+001 -5.284363e+001 -1.641633e+001 -5.424363e+001 -1.016749e+001 -7.317927e+001
12999418750 -1.285502e+001 -1.481128e+002 -1.612557e+001 -5.625317e+001 -1.623040e+001 -5.765501e+001 -1.029317e+001 -7.399597e+001
13018162500 -1.287701e+001 -1.488968e+002 -1.594948e+001 -5.977698e+001 -1.605772e+001 -6.111177e+001 -1.040848e+001 -7.479550e+001
13036906250 -1.289958e+001 -1.497702e+002 -1.577017e+001 -6.322536e+001 -1.587851e+001 -6.459012e+001 -1.052892e+001 -7.558550e+001
13055650000 -1.292302e+001 -1.506140e+002 -1.560600e+001 -6.665067e+001 -1.571152e+001 -6.795460e+001 -1.064456e+001 -7.640046e+001
13074393750 -1.296255e+001 -1.514169e+002 -1.544258e+001 -7.013736e+001 -1.555729e+001 -7.139687e+001 -1.075577e+001 -7.718288e+001
13093137500 -1.300796e+001 -1.522440e+002 -1.527789e+001 -7.356560e+001 -1.539542e+001 -7.483485e+001 -1.087597e+001 -7.797829e+001
13111881250 -1.306419e+001 -1.530225e+002 -1.512554e+001 -7.699126e+001 -1.524883e+001 -7.816409e+001 -1.099224e+001 -7.876524e+001
13130625000 -1.313146e+001 -1.537772e+002 -1.497312e+001 -8.038342e+001 -1.510171e+001 -8.157031e+001 -1.110401e+001 -7.960757e+001
13149368750 -1.320282e+001 -1.545482e+002 -1.482587e+001 -8.373959e+001 -1.495262e+001 -8.492425e+001 -1.121560e+001 -8.042722e+001
13168112500 -1.327738e+001 -1.553091e+002 -1.468447e+001 -8.712571e+001 -1.481732e+001 -8.825761e+001 -1.132834e+001 -8.123051e+001
13186856250 -1.335748e+001 -1.559619e+002 -1.454491e+001 -9.048155e+001 -1.468296e+001 -9.160946e+001 -1.144135e+001 -8.207323e+001
13205600000 -1.344524e+001 -1.566041e+002 -1.441662e+001 -9.380241e+001 -1.454567e+001 -9.490934e+001 -1.155525e+001 -8.292111e+001
13224343750 -1.353963e+001 -1.571907e+002 -1.428613e+001 -9.714761e+001 -1.442009e+001 -9.819868e+001 -1.166842e+001 -8.378577e+001
13243087500 -1.364020e+001 -1.577242e+002 -1.415947e+001 -1.004279e+002 -1.429216e+001 -1.014969e+002 -1.178103e+001 -8.468948e+001
13261831250 -1.374471e+001 -1.582550e+002 -1.403916e+001 -1.037175e+002 -1.417075e+001 -1.047322e+002 -1.189132e+001 -8.555606e+001
13280575000 -1.384553e+001 -1.587276e+002 -1.391562e+001 -1.070057e+002 -1.405437e+001 -1.079752e+002 -1.200495e+001 -8.645460e+001
13299318750 -1.394838e+001 -1.590972e+002 -1.380064e+001 -1.102319e+002 -1.393559e+001 -1.112067e+002 -1.211838e+001 -8.735106e+001
13318062500 -1.405354e+001 -1.594086e+002 -1.369326e+001 -1.134804e+002 -1.382691e+001 -1.144166e+002 -1.223415e+001 -8.826080e+001
13336806250 -1.416016e+001 -1.596731e+002 -1.357993e+001 -1.167089e+002 -1.372278e+001 -1.175973e+002 -1.235524e+001 -8.925459e+001
13355550000 -1.427441e+001 -1.598695e+002 -1.347932e+001 -1.198851e+002 -1.361824e+001 -1.207715e+002 -1.247624e+001 -9.024937e+001
13374293750 -1.437894e+001 -1.600915e+002 -1.337941e+001 -1.231179e+002 -1.351710e+001 -1.239488e+002 -1.259465e+001 -9.126208e+001
13393037500 -1.447247e+001 -1.602598e+002 -1.327743e+001 -1.262569e+002 -1.341339e+001 -1.270821e+002 -1.271754e+001 -9.229603e+001
13411781250 -1.456745e+001 -1.603376e+002 -1.318673e+001 -1.293847e+002 -1.331704e+001 -1.301963e+002 -1.283999e+001 -9.330905e+001
13430525000 -1.466064e+001 -1.603857e+002 -1.309068e+001 -1.325959e+002 -1.322002e+001 -1.333181e+002 -1.297218e+001 -9.437330e+001
13449268750 -1.474856e+001 -1.603456e+002 -1.299337e+001 -1.356685e+002 -1.312668e+001 -1.364096e+002 -1.310624e+001 -9.550503e+001
13468012500 -1.484515e+001 -1.602702e+002 -1.290940e+001 -1.387895e+002 -1.304049e+001 -1.394615e+002 -1.324108e+001 -9.667069e+001
13486756250 -1.492934e+001 -1.602407e+002 -1.281783e+001 -1.419195e+002 -1.295092e+001 -1.425517e+002 -1.338027e+001 -9.785751e+001
13505500000 -1.499613e+001 -1.601951e+002 -1.272975e+001 -1.449473e+002 -1.285945e+001 -1.455918e+002 -1.352550e+001 -9.907919e+001
13524243750 -1.505492e+001 -1.600816e+002 -1.265256e+001 -1.480176e+002 -1.277693e+001 -1.486116e+002 -1.367014e+001 -1.003168e+002
13542987500 -1.510635e+001 -1.599296e+002 -1.256610e+001 -1.510751e+002 -1.268982e+001 -1.516598e+002 -1.382275e+001 -1.015791e+002
13561731250 -1.515486e+001 -1.596979e+002 -1.249047e+001 -1.540532e+002 -1.260577e+001 -1.546402e+002 -1.398565e+001 -1.029057e+002
13580475000 -1.521303e+001 -1.594986e+002 -1.241628e+001 -1.571156e+002 -1.253214e+001 -1.576204e+002 -1.414384e+001 -1.042684e+002
13599218750 -1.525239e+001 -1.593496e+002 -1.233361e+001 -1.601080e+002 -1.245185e+001 -1.605904e+002 -1.430896e+001 -1.056410e+002
13617962500 -1.528116e+001 -1.591985e+002 -1.226365e+001 -1.630592e+002 -1.237422e+001 -1.635108e+002 -1.448060e+001 -1.070439e+002
13636706250 -1.530516e+001 -1.590142e+002 -1.219033e+001 -1.660838e+002 -1.230560e+001 -1.664681e+002 -1.465917e+001 -1.084577e+002
13655450000 -1.531676e+001 -1.587871e+002 -1.211569e+001 -1.690059e+002 -1.222961e+001 -1.694282e+002 -1.486143e+001 -1.099365e+002
13674193750 -1.533158e+001 -1.585274e+002 -1.205331e+001 -1.719368e+002 -1.215719e+001 -1.723047e+002 -1.505881e+001 -1.115281e+002
13692937500 -1.535241e+001 -1.583398e+002 -1.198613e+001 -1.749156e+002 -1.209534e+001 -1.752643e+002 -1.526361e+001 -1.131628e+002
13711681250 -1.535400e+001 -1.582343e+002 -1.192013e+001 -1.777827e+002 -1.202432e+001 -1.781943e+002 -1.547442e+001 -1.148437e+002
13730425000 -1.534435e+001 -1.581414e+002 -1.186486e+001 1.793262e+002 -1.195807e+001 1.789833e+002 -1.568819e+001 -1.165462e+002
13749168750 -1.533850e+001 -1.580417e+002 -1.179807e+001 1.763949e+002 -1.189461e+001 1.760894e+002 -1.592181e+001 -1.182716e+002
13767912500 -1.531960e+001 -1.578992e+002 -1.173721e+001 1.735626e+002 -1.182637e+001 1.731873e+002 -1.618270e+001 -1.200599e+002
13786656250 -1.530173e+001 -1.577756e+002 -1.168672e+001 1.706982e+002 -1.176664e+001 1.704018e+002 -1.644614e+001 -1.220186e+002
13805400000 -1.529180e+001 -1.576997e+002 -1.162429e+001 1.678381e+002 -1.170983e+001 1.675388e+002 -1.671033e+001 -1.240079e+002
13824143750 -1.527203e+001 -1.576967e+002 -1.156634e+001 1.650410e+002 -1.164466e+001 1.646943e+002 -1.698944e+001 -1.260775e+002
13842887500 -1.524533e+001 -1.576620e+002 -1.151633e+001 1.621737e+002 -1.159294e+001 1.619128e+002 -1.727757e+001 -1.282149e+002
13861631250 -1.521487e+001 -1.576747e+002 -1.145830e+001 1.593620e+002 -1.154019e+001 1.590602e+002 -1.759091e+001 -1.303385e+002
13880375000 -1.517515e+001 -1.576763e+002 -1.140959e+001 1.565655e+002 -1.147719e+001 1.562673e+002 -1.794172e+001 -1.326636e+002
13899118750 -1.514401e+001 -1.576921e+002 -1.136443e+001 1.537402e+002 -1.142838e+001 1.534865e+002 -1.829114e+001 -1.352565e+002
13917862500 -1.512261e+001 -1.577669e+002 -1.130985e+001 1.509763e+002 -1.137710e+001 1.506646e+002 -1.863809e+001 -1.378934e+002
13936606250 -1.509098e+001 -1.578641e+002 -1.126838e+001 1.482376e+002 -1.132102e+001 1.479337e+002 -1.900351e+001 -1.406061e+002
13955350000 -1.506337e+001 -1.579778e+002 -1.122672e+001 1.454357e+002 -1.128009e+001 1.451982e+002 -1.938608e+001 -1.433907e+002
13974093750 -1.502998e+001 -1.581292e+002 -1.118192e+001 1.427027e+002 -1.123154e+001 1.424014e+002 -1.982044e+001 -1.463650e+002
13992837500 -1.498683e+001 -1.582539e+002 -1.114361e+001 1.399686e+002 -1.118232e+001 1.396771e+002 -2.026069e+001 -1.498356e+002
14011581250 -1.495215e+001 -1.583323e+002 -1.110490e+001 1.371973e+002 -1.114396e+001 1.369554e+002 -2.067668e+001 -1.535612e+002
14030325000 -1.492054e+001 -1.585563e+002 -1.106621e+001 1.344939e+002 -1.110108e+001 1.341721e+002 -2.110610e+001 -1.574378e+002
14049068750 -1.488278e+001 -1.587771e+002 -1.103493e+001 1.317791e+002 -1.105692e+001 1.314840e+002 -2.153401e+001 -1.614927e+002
14067812500 -1.484477e+001 -1.589799e+002 -1.099780e+001 1.290509e+002 -1.102499e+001 1.287866e+002 -2.197040e+001 -1.656134e+002
14086556250 -1.480308e+001 -1.592660e+002 -1.096490e+001 1.263751e+002 -1.098473e+001 1.260481e+002 -2.242182e+001 -1.704765e+002
14105300000 -1.475291e+001 -1.595219e+002 -1.093841e+001 1.236882e+002 -1.094634e+001 1.233904e+002 -2.281688e+001 -1.755661e+002
14124043750 -1.471426e+001 -1.597180e+002 -1.090469e+001 1.210187e+002 -1.091982e+001 1.207405e+002 -2.316817e+001 1.792852e+002
14142787500 -1.468307e+001 -1.600003e+002 -1.087940e+001 1.183766e+002 -1.088607e+001 1.180489e+002 -2.351060e+001 1.739925e+002
14161531250 -1.464277e+001 -1.603016e+002 -1.085403e+001 1.157027e+002 -1.085609e+001 1.154324e+002 -2.383835e+001 1.685971e+002
14180275000 -1.459913e+001 -1.606129e+002 -1.082539e+001 1.130738e+002 -1.083397e+001 1.127704e+002 -2.415371e+001 1.629049e+002
14199018750 -1.455590e+001 -1.610175e+002 -1.080623e+001 1.104625e+002 -1.080192e+001 1.101218e+002 -2.439952e+001 1.567212e+002
14217762500 -1.450688e+001 -1.612895e+002 -1.078520e+001 1.078274e+002 -1.077850e+001 1.075149e+002 -2.456676e+001 1.507024e+002
14236506250 -1.447071e+001 -1.616096e+002 -1.076210e+001 1.052374e+002 -1.076037e+001 1.048934e+002 -2.472186e+001 1.447453e+002
14255250000 -1.443013e+001 -1.619985e+002 -1.074781e+001 1.026334e+002 -1.073592e+001 1.022722e+002 -2.483771e+001 1.387523e+002
14273993750 -1.438755e+001 -1.624121e+002 -1.073083e+001 1.000431e+002 -1.071633e+001 9.972860e+001 -2.493528e+001 1.327365e+002
14292737500 -1.434611e+001 -1.628365e+002 -1.071386e+001 9.750809e+001 -1.070306e+001 9.714383e+001 -2.499718e+001 1.264258e+002
14311481250 -1.429728e+001 -1.632924e+002 -1.070243e+001 9.496224e+001 -1.068326e+001 9.457357e+001 -2.495736e+001 1.200894e+002
14330225000 -1.424409e+001 -1.636912e+002 -1.068612e+001 9.243111e+001 -1.066930e+001 9.206477e+001 -2.487935e+001 1.142139e+002
14348968750 -1.420087e+001 -1.641276e+002 -1.067646e+001 8.992211e+001 -1.066022e+001 8.951164e+001 -2.479167e+001 1.083599e+002
14367712500 -1.415436e+001 -1.646270e+002 -1.066675e+001 8.739842e+001 -1.064573e+001 8.697711e+001 -2.466651e+001 1.025626e+002
14386456250 -1.410332e+001 -1.651257e+002 -1.065526e+001 8.492858e+001 -1.063615e+001 8.448839e+001 -2.451789e+001 9.671723e+001
14405200000 -1.405896e+001 -1.656712e+002 -1.064613e+001 8.247060e+001 -1.062909e+001 8.199431e+001 -2.429656e+001 9.085142e+001
14423943750 -1.401197e+001 -1.662673e+002 -1.063922e+001 7.998842e+001 -1.061728e+001 7.951963e+001 -2.400727e+001 8.547094e+001
14442687500 -1.396244e+001 -1.668320e+002 -1.063119e+001 7.757106e+001 -1.061342e+001 7.702694e+001 -2.371598e+001 8.046037e+001
14461431250 -1.392324e+001 -1.674028e+002 -1.062641e+001 7.515224e+001 -1.060688e+001 7.457934e+001 -2.339524e+001 7.559197e+001
14480175000 -1.388103e+001 -1.680287e+002 -1.061712e+001 7.272378e+001 -1.059989e+001 7.214227e+001 -2.306803e+001 7.088544e+001
14498918750 -1.383942e+001 -1.686961e+002 -1.061310e+001 7.034296e+001 -1.059738e+001 6.971156e+001 -2.272011e+001 6.613107e+001
14517662500 -1.380058e+001 -1.693963e+002 -1.060853e+001 6.792347e+001 -1.059243e+001 6.730966e+001 -2.230843e+001 6.202752e+001
14536406250 -1.375396e+001 -1.700747e+002 -1.060181e+001 6.554653e+001 -1.058854e+001 6.490508e+001 -2.191694e+001 5.823846e+001
14555150000 -1.371117e+001 -1.707684e+002 -1.060038e+001 6.319988e+001 -1.058172e+001 6.248409e+001 -2.154527e+001 5.459595e+001
14573893750 -1.367326e+001 -1.715130e+002 -1.059468e+001 6.082650e+001 -1.057730e+001 6.011686e+001 -2.117234e+001 5.116440e+001
14592637500 -1.364001e+001 -1.722619e+002 -1.058724e+001 5.849592e+001 -1.057289e+001 5.774945e+001 -2.080381e+001 4.780302e+001
14611381250 -1.360755e+001 -1.730618e+002 -1.058708e+001 5.618578e+001 -1.056560e+001 5.538789e+001 -2.041915e+001 4.463042e+001
14630125000 -1.357327e+001 -1.738718e+002 -1.058133e+001 5.383149e+001 -1.056452e+001 5.305215e+001 -2.005308e+001 4.196656e+001
14648868750 -1.353815e+001 -1.747264e+002 -1.057275e+001 5.154758e+001 -1.056179e+001 5.072340e+001 -1.972995e+001 3.929127e+001
14667612500 -1.350933e+001 -1.755627e+002 -1.057008e+001 4.924935e+001 -1.055417e+001 4.837814e+001 -1.941195e+001 3.666756e+001
14686356250 -1.348904e+001 -1.764510e+002 -1.056459e+001 4.693883e+001 -1.055250e+001 4.607831e+001 -1.911480e+001 3.415881e+001
14705100000 -1.346394e+001 -1.773615e+002 -1.055869e+001 4.468723e+001 -1.055060e+001 4.375127e+001 -1.882603e+001 3.169525e+001
14723843750 -1.344054e+001 -1.783025e+002 -1.055608e+001 4.239892e+001 -1.054292e+001 4.145918e+001 -1.852886e+001 2.938871e+001
14742587500 -1.341930e+001 -1.792747e+002 -1.054538e+001 4.011840e+001 -1.053976e+001 3.917186e+001 -1.826640e+001 2.726536e+001
14761331250 -1.339696e+001 1.797657e+002 -1.054073e+001 3.788570e+001 -1.053898e+001 3.687340e+001 -1.802413e+001 2.501493e+001
14780075000 -1.337852e+001 1.788192e+002 -1.053904e+001 3.561852e+001 -1.053247e+001 3.460268e+001 -1.778048e+001 2.283733e+001
14798818750 -1.336850e+001 1.777987e+002 -1.052871e+001 3.335701e+001 -1.053228e+001 3.233643e+001 -1.755671e+001 2.070087e+001
14817562500 -1.336068e+001 1.767774e+002 -1.052212e+001 3.114551e+001 -1.052667e+001 3.004625e+001 -1.733732e+001 1.861500e+001
14836306250 -1.334940e+001 1.757133e+002 -1.051820e+001 2.887578e+001 -1.052101e+001 2.780404e+001 -1.711887e+001 1.661970e+001
14855050000 -1.333860e+001 1.746703e+002 -1.050364e+001 2.663730e+001 -1.052085e+001 2.553334e+001 -1.693155e+001 1.466111e+001
14873793750 -1.333035e+001 1.735879e+002 -1.050006e+001 2.444065e+001 -1.051336e+001 2.328015e+001 -1.675805e+001 1.264267e+001
14892537500 -1.332834e+001 1.725428e+002 -1.049339e+001 2.217978e+001 -1.050711e+001 2.105649e+001 -1.658804e+001 1.066786e+001
14911281250 -1.333173e+001 1.714380e+002 -1.048373e+001 1.995659e+001 -1.050471e+001 1.879807e+001 -1.642212e+001 8.737296e+000
14930025000 -1.333730e+001 1.703041e+002 -1.047807e+001 1.775886e+001 -1.049563e+001 1.655539e+001 -1.625962e+001 6.812747e+000
14948768750 -1.334238e+001 1.691524e+002 -1.047012e+001 1.552906e+001 -1.049482e+001 1.435653e+001 -1.610748e+001 4.982493e+000
14967512500 -1.335277e+001 1.679630e+002 -1.045644e+001 1.332780e+001 -1.049303e+001 1.212591e+001 -1.598009e+001 3.167758e+000
14986256250 -1.335773e+001 1.667591e+002 -1.044935e+001 1.112155e+001 -1.048519e+001 9.915101e+000 -1.585227e+001 1.304211e+000
15005000000 -1.337473e+001 1.656084e+002 -1.044075e+001 8.894552e+000 -1.048844e+001 7.718423e+000 -1.573127e+001 -5.544491e-001
15023743750 -1.339842e+001 1.643493e+002 -1.042989e+001 6.704928e+000 -1.048774e+001 5.463126e+000 -1.561930e+001 -2.414399e+000
15042487500 -1.341843e+001 1.630986e+002 -1.042524e+001 4.489005e+000 -1.048284e+001 3.266701e+000 -1.550802e+001 -4.208627e+000
15061231250 -1.344032e+001 1.618402e+002 -1.041707e+001 2.279295e+000 -1.048332e+001 1.065041e+000 -1.541320e+001 -6.002304e+000
15079975000 -1.346860e+001 1.605322e+002 -1.040596e+001 6.656048e-002 -1.048415e+001 -1.162672e+000 -1.532430e+001 -7.808033e+000
15098718750 -1.349297e+001 1.592342e+002 -1.040353e+001 -2.126164e+000 -1.048311e+001 -3.359426e+000 -1.524163e+001 -9.648926e+000
15117462500 -1.352705e+001 1.579419e+002 -1.039703e+001 -4.357966e+000 -1.048741e+001 -5.546533e+000 -1.516349e+001 -1.149982e+001
15136206250 -1.357021e+001 1.565819e+002 -1.038640e+001 -6.561872e+000 -1.048875e+001 -7.753994e+000 -1.508684e+001 -1.333057e+001
15154950000 -1.360970e+001 1.552070e+002 -1.038689e+001 -8.729054e+000 -1.048553e+001 -9.952514e+000 -1.501702e+001 -1.511844e+001
15173693750 -1.365401e+001 1.537987e+002 -1.038437e+001 -1.097366e+001 -1.049124e+001 -1.212605e+001 -1.496611e+001 -1.693556e+001
15192437500 -1.370124e+001 1.523954e+002 -1.037666e+001 -1.316405e+001 -1.049324e+001 -1.433139e+001 -1.490990e+001 -1.873474e+001
15211181250 -1.375082e+001 1.509620e+002 -1.037960e+001 -1.535005e+001 -1.049092e+001 -1.651264e+001 -1.487116e+001 -2.053668e+001
15229925000 -1.380976e+001 1.495259e+002 -1.037611e+001 -1.757724e+001 -1.049811e+001 -1.870235e+001 -1.482751e+001 -2.235715e+001
15248668750 -1.387157e+001 1.480271e+002 -1.036985e+001 -1.976229e+001 -1.050288e+001 -2.090010e+001 -1.478171e+001 -2.410432e+001
15267412500 -1.393546e+001 1.465081e+002 -1.037572e+001 -2.194399e+001 -1.050101e+001 -2.305903e+001 -1.475851e+001 -2.586010e+001
15286156250 -1.399988e+001 1.449341e+002 -1.037397e+001 -2.416887e+001 -1.050898e+001 -2.521820e+001 -1.473622e+001 -2.765852e+001
15304900000 -1.407286e+001 1.433955e+002 -1.036893e+001 -2.635522e+001 -1.051647e+001 -2.741784e+001 -1.471469e+001 -2.941570e+001
15323643750 -1.414843e+001 1.418011e+002 -1.037531e+001 -2.852447e+001 -1.052113e+001 -2.957546e+001 -1.470914e+001 -3.121447e+001
15342387500 -1.422956e+001 1.401734e+002 -1.037191e+001 -3.073795e+001 -1.052922e+001 -3.171454e+001 -1.469528e+001 -3.303681e+001
15361131250 -1.431032e+001 1.385208e+002 -1.037209e+001 -3.288461e+001 -1.053542e+001 -3.391376e+001 -1.468467e+001 -3.478442e+001
15379875000 -1.439141e+001 1.368360e+002 -1.037858e+001 -3.506743e+001 -1.053947e+001 -3.604916e+001 -1.469628e+001 -3.656188e+001
15398618750 -1.447591e+001 1.351565e+002 -1.037783e+001 -3.727844e+001 -1.055158e+001 -3.819547e+001 -1.470032e+001 -3.836172e+001
15417362500 -1.457424e+001 1.334529e+002 -1.038187e+001 -3.942503e+001 -1.055930e+001 -4.036596e+001 -1.471745e+001 -4.012269e+001
15436106250 -1.466447e+001 1.316642e+002 -1.039228e+001 -4.162896e+001 -1.056103e+001 -4.251184e+001 -1.474332e+001 -4.191324e+001
15454850000 -1.476093e+001 1.299175e+002 -1.039289e+001 -4.383832e+001 -1.057201e+001 -4.463638e+001 -1.476570e+001 -4.368187e+001
15473593750 -1.486738e+001 1.280561e+002 -1.039886e+001 -4.598586e+001 -1.058018e+001 -4.681490e+001 -1.479395e+001 -4.543229e+001
15492337500 -1.496783e+001 1.261963e+002 -1.040745e+001 -4.818279e+001 -1.058625e+001 -4.892638e+001 -1.482783e+001 -4.718259e+001
15511081250 -1.507787e+001 1.243377e+002 -1.041030e+001 -5.035117e+001 -1.059416e+001 -5.105849e+001 -1.486639e+001 -4.895517e+001
15529825000 -1.519018e+001 1.224165e+002 -1.041887e+001 -5.252603e+001 -1.059933e+001 -5.321054e+001 -1.491107e+001 -5.068542e+001
15548568750 -1.529865e+001 1.204353e+002 -1.042878e+001 -5.470860e+001 -1.060550e+001 -5.532002e+001 -1.496310e+001 -5.242738e+001
15567312500 -1.541940e+001 1.184614e+002 -1.043236e+001 -5.688374e+001 -1.061594e+001 -5.746204e+001 -1.501172e+001 -5.423144e+001
15586056250 -1.554176e+001 1.163843e+002 -1.044302e+001 -5.906695e+001 -1.062408e+001 -5.960179e+001 -1.506587e+001 -5.597585e+001
15604800000 -1.565116e+001 1.143046e+002 -1.045033e+001 -6.123339e+001 -1.063394e+001 -6.171758e+001 -1.512849e+001 -5.770649e+001
15623543750 -1.577775e+001 1.122115e+002 -1.045473e+001 -6.338136e+001 -1.064262e+001 -6.384732e+001 -1.519950e+001 -5.945866e+001
15642287500 -1.590668e+001 1.099821e+002 -1.046352e+001 -6.555304e+001 -1.065096e+001 -6.598870e+001 -1.527084e+001 -6.119030e+001
15661031250 -1.602975e+001 1.077249e+002 -1.047204e+001 -6.773997e+001 -1.066132e+001 -6.809662e+001 -1.535370e+001 -6.292607e+001
15679775000 -1.616758e+001 1.054290e+002 -1.048173e+001 -6.990758e+001 -1.067274e+001 -7.022375e+001 -1.543369e+001 -6.472482e+001
15698518750 -1.629375e+001 1.029830e+002 -1.049247e+001 -7.207801e+001 -1.068461e+001 -7.237263e+001 -1.551385e+001 -6.647167e+001
15717262500 -1.642520e+001 1.006580e+002 -1.050200e+001 -7.424460e+001 -1.069653e+001 -7.448930e+001 -1.560840e+001 -6.819933e+001
15736006250 -1.655553e+001 9.820487e+001 -1.051545e+001 -7.640420e+001 -1.070404e+001 -7.660780e+001 -1.571110e+001 -6.995250e+001
15754750000 -1.668595e+001 9.565540e+001 -1.052904e+001 -7.858393e+001 -1.071519e+001 -7.872533e+001 -1.581727e+001 -7.166407e+001
15773493750 -1.681499e+001 9.309162e+001 -1.054173e+001 -8.076283e+001 -1.073069e+001 -8.087148e+001 -1.593101e+001 -7.340832e+001
15792237500 -1.693928e+001 9.042182e+001 -1.055838e+001 -8.297921e+001 -1.074193e+001 -8.295957e+001 -1.604364e+001 -7.515323e+001
15810981250 -1.705843e+001 8.775666e+001 -1.056869e+001 -8.513401e+001 -1.075633e+001 -8.510069e+001 -1.615443e+001 -7.685354e+001
15829725000 -1.718595e+001 8.496923e+001 -1.058609e+001 -8.727058e+001 -1.076482e+001 -8.725099e+001 -1.628144e+001 -7.857926e+001
15848468750 -1.729533e+001 8.216988e+001 -1.060211e+001 -8.947535e+001 -1.077815e+001 -8.935790e+001 -1.641214e+001 -8.033193e+001
15867212500 -1.741526e+001 7.930701e+001 -1.061442e+001 -9.162582e+001 -1.080008e+001 -9.148616e+001 -1.654613e+001 -8.204485e+001
15885956250 -1.752922e+001 7.635749e+001 -1.063772e+001 -9.376930e+001 -1.080869e+001 -9.367553e+001 -1.669869e+001 -8.380761e+001
15904700000 -1.762793e+001 7.338541e+001 -1.065630e+001 -9.595946e+001 -1.082560e+001 -9.573949e+001 -1.685492e+001 -8.558849e+001
15923443750 -1.772007e+001 7.038228e+001 -1.067276e+001 -9.809468e+001 -1.085201e+001 -9.788254e+001 -1.701549e+001 -8.733746e+001
15942187500 -1.780175e+001 6.734354e+001 -1.069840e+001 -1.002452e+002 -1.085952e+001 -1.000611e+002 -1.719297e+001 -8.901655e+001
15960931250 -1.788787e+001 6.420534e+001 -1.071589e+001 -1.024193e+002 -1.087644e+001 -1.021079e+002 -1.738087e+001 -9.079227e+001
15979675000 -1.797238e+001 6.104466e+001 -1.073480e+001 -1.045418e+002 -1.090263e+001 -1.042842e+002 -1.757708e+001 -9.263642e+001
15998418750 -1.803133e+001 5.775219e+001 -1.076293e+001 -1.066674e+002 -1.091004e+001 -1.064283e+002 -1.777960e+001 -9.440975e+001
16017162500 -1.807823e+001 5.455776e+001 -1.078169e+001 -1.088408e+002 -1.093063e+001 -1.084870e+002 -1.800354e+001 -9.618491e+001
16035906250 -1.813660e+001 5.131791e+001 -1.080568e+001 -1.109689e+002 -1.095350e+001 -1.106570e+002 -1.822762e+001 -9.798431e+001
16054650000 -1.817826e+001 4.801277e+001 -1.083949e+001 -1.131305e+002 -1.096526e+001 -1.127849e+002 -1.846615e+001 -9.981403e+001
16073393750 -1.820917e+001 4.469348e+001 -1.086084e+001 -1.152880e+002 -1.099220e+001 -1.148462e+002 -1.873274e+001 -1.017106e+002
16092137500 -1.823822e+001 4.133948e+001 -1.088932e+001 -1.173821e+002 -1.101510e+001 -1.170169e+002 -1.899797e+001 -1.037614e+002
16110881250 -1.823414e+001 3.794683e+001 -1.092148e+001 -1.195162e+002 -1.102827e+001 -1.191210e+002 -1.928278e+001 -1.057416e+002
16129625000 -1.822532e+001 3.472306e+001 -1.094100e+001 -1.216789e+002 -1.105502e+001 -1.211899e+002 -1.958836e+001 -1.077410e+002
16148368750 -1.821242e+001 3.137011e+001 -1.097197e+001 -1.237641e+002 -1.107707e+001 -1.233704e+002 -1.990037e+001 -1.098528e+002
16167112500 -1.818437e+001 2.803702e+001 -1.100431e+001 -1.258864e+002 -1.109527e+001 -1.254409e+002 -2.025148e+001 -1.119395e+002
16185856250 -1.814787e+001 2.475986e+001 -1.102562e+001 -1.280340e+002 -1.112441e+001 -1.275450e+002 -2.064023e+001 -1.142959e+002
16204600000 -1.810019e+001 2.143441e+001 -1.105790e+001 -1.300922e+002 -1.114771e+001 -1.297071e+002 -2.103493e+001 -1.167520e+002
16223343750 -1.803691e+001 1.818259e+001 -1.109085e+001 -1.321949e+002 -1.117098e+001 -1.318227e+002 -2.148652e+001 -1.191902e+002
16242087500 -1.797519e+001 1.499045e+001 -1.111971e+001 -1.343293e+002 -1.120003e+001 -1.339112e+002 -2.195819e+001 -1.220046e+002
16260831250 -1.790017e+001 1.184909e+001 -1.115261e+001 -1.364176e+002 -1.122575e+001 -1.360549e+002 -2.242968e+001 -1.247388e+002
16279575000 -1.782844e+001 8.662127e+000 -1.118688e+001 -1.385359e+002 -1.125261e+001 -1.381552e+002 -2.300394e+001 -1.278478e+002
16298318750 -1.773617e+001 5.541686e+000 -1.121413e+001 -1.406565e+002 -1.127612e+001 -1.402708e+002 -2.360723e+001 -1.318212e+002
16317062500 -1.762972e+001 2.427697e+000 -1.124599e+001 -1.427402e+002 -1.130830e+001 -1.423616e+002 -2.417843e+001 -1.357050e+002
16335806250 -1.751379e+001 -5.571924e-001 -1.128191e+001 -1.448627e+002 -1.133516e+001 -1.444934e+002 -2.480403e+001 -1.403616e+002
16354550000 -1.740757e+001 -3.512231e+000 -1.131283e+001 -1.469797e+002 -1.135996e+001 -1.466082e+002 -2.539354e+001 -1.456603e+002
16373293750 -1.729636e+001 -6.453951e+000 -1.134823e+001 -1.490509e+002 -1.139367e+001 -1.486772e+002 -2.599786e+001 -1.512510e+002
16392037500 -1.716804e+001 -9.269856e+000 -1.138619e+001 -1.511698e+002 -1.142589e+001 -1.508166e+002 -2.652278e+001 -1.578174e+002
16410781250 -1.703352e+001 -1.206167e+001 -1.141725e+001 -1.532628e+002 -1.145310e+001 -1.529119e+002 -2.691954e+001 -1.644585e+002
16429525000 -1.689407e+001 -1.477727e+001 -1.145782e+001 -1.553435e+002 -1.149042e+001 -1.550057e+002 -2.732690e+001 -1.713385e+002
16448268750 -1.675324e+001 -1.743981e+001 -1.149320e+001 -1.574865e+002 -1.152598e+001 -1.571465e+002 -2.763689e+001 -1.785591e+002
16467012500 -1.661031e+001 -1.999418e+001 -1.152703e+001 -1.595666e+002 -1.155847e+001 -1.592502e+002 -2.791688e+001 1.740614e+002
16485756250 -1.645750e+001 -2.255380e+001 -1.156779e+001 -1.616416e+002 -1.159330e+001 -1.613569e+002 -2.815855e+001 1.662923e+002
16504500000 -1.630356e+001 -2.495424e+001 -1.160569e+001 -1.637706e+002 -1.162579e+001 -1.635062e+002 -2.826527e+001 1.585143e+002
16523243750 -1.614654e+001 -2.732565e+001 -1.163963e+001 -1.658405e+002 -1.165599e+001 -1.655859e+002 -2.832834e+001 1.510096e+002
16541987500 -1.598950e+001 -2.963086e+001 -1.168465e+001 -1.679291e+002 -1.169424e+001 -1.676778e+002 -2.835142e+001 1.433748e+002
16560731250 -1.584181e+001 -3.186511e+001 -1.172143e+001 -1.700317e+002 -1.172996e+001 -1.698318e+002 -2.829938e+001 1.357920e+002
16579475000 -1.569134e+001 -3.406522e+001 -1.176379e+001 -1.720890e+002 -1.176473e+001 -1.718998e+002 -2.824100e+001 1.283311e+002
16598218750 -1.553586e+001 -3.621466e+001 -1.180801e+001 -1.741894e+002 -1.180771e+001 -1.740057e+002 -2.810120e+001 1.205021e+002
16616962500 -1.538447e+001 -3.829031e+001 -1.184821e+001 -1.762820e+002 -1.184473e+001 -1.761439e+002 -2.785980e+001 1.129011e+002
16635706250 -1.523086e+001 -4.032631e+001 -1.189306e+001 -1.783388e+002 -1.187952e+001 -1.782209e+002 -2.758601e+001 1.055841e+002
16654450000 -1.508091e+001 -4.228904e+001 -1.194017e+001 1.795658e+002 -1.192294e+001 1.796901e+002 -2.722557e+001 9.817104e+001
16673193750 -1.493487e+001 -4.421280e+001 -1.198376e+001 1.774857e+002 -1.196106e+001 1.775354e+002 -2.681571e+001 9.120186e+001
16691937500 -1.478436e+001 -4.615718e+001 -1.203177e+001 1.754272e+002 -1.200176e+001 1.754807e+002 -2.640485e+001 8.410193e+001
16710681250 -1.462945e+001 -4.798134e+001 -1.208071e+001 1.733456e+002 -1.204712e+001 1.733844e+002 -2.585033e+001 7.719392e+001
16729425000 -1.448103e+001 -4.974201e+001 -1.212468e+001 1.712931e+002 -1.208952e+001 1.712754e+002 -2.521107e+001 7.120539e+001
16748168750 -1.433522e+001 -5.150082e+001 -1.217327e+001 1.692571e+002 -1.213177e+001 1.692263e+002 -2.458050e+001 6.522765e+001
16766912500 -1.419125e+001 -5.320130e+001 -1.222172e+001 1.671752e+002 -1.218263e+001 1.671178e+002 -2.386320e+001 6.004779e+001
16785656250 -1.405513e+001 -5.487512e+001 -1.226625e+001 1.651304e+002 -1.222680e+001 1.650027e+002 -2.316794e+001 5.558842e+001
16804400000 -1.391183e+001 -5.655892e+001 -1.231839e+001 1.630866e+002 -1.227492e+001 1.629367e+002 -2.244675e+001 5.123395e+001
16823143750 -1.377119e+001 -5.816074e+001 -1.236660e+001 1.610267e+002 -1.232661e+001 1.608232e+002 -2.174820e+001 4.784476e+001
16841887500 -1.363768e+001 -5.971651e+001 -1.241563e+001 1.589881e+002 -1.236849e+001 1.587298e+002 -2.114415e+001 4.472071e+001
16860631250 -1.350211e+001 -6.124142e+001 -1.247076e+001 1.569431e+002 -1.241565e+001 1.566777e+002 -2.051279e+001 4.181981e+001
16879375000 -1.337303e+001 -6.271745e+001 -1.252208e+001 1.549076e+002 -1.246740e+001 1.545770e+002 -1.993523e+001 3.932193e+001
16898118750 -1.324960e+001 -6.422779e+001 -1.257445e+001 1.528894e+002 -1.251361e+001 1.525306e+002 -1.938110e+001 3.708085e+001
16916862500 -1.311730e+001 -6.570857e+001 -1.262663e+001 1.508450e+002 -1.256950e+001 1.505174e+002 -1.884696e+001 3.510725e+001
16935606250 -1.298988e+001 -6.711319e+001 -1.267428e+001 1.488120e+002 -1.262399e+001 1.484388e+002 -1.838086e+001 3.317699e+001
16954350000 -1.286777e+001 -6.853281e+001 -1.272964e+001 1.468105e+002 -1.267450e+001 1.463756e+002 -1.793706e+001 3.119144e+001
16973093750 -1.274293e+001 -6.990401e+001 -1.278397e+001 1.447661e+002 -1.273396e+001 1.443470e+002 -1.750065e+001 2.933387e+001
16991837500 -1.262233e+001 -7.125995e+001 -1.283928e+001 1.427572e+002 -1.279044e+001 1.422863e+002 -1.709879e+001 2.753610e+001
17010581250 -1.250341e+001 -7.264068e+001 -1.289277e+001 1.407458e+002 -1.284125e+001 1.402335e+002 -1.669915e+001 2.573685e+001
17029325000 -1.238227e+001 -7.399952e+001 -1.295045e+001 1.387273e+002 -1.290035e+001 1.381982e+002 -1.632347e+001 2.416749e+001
17048068750 -1.226668e+001 -7.527426e+001 -1.300816e+001 1.367330e+002 -1.295560e+001 1.361444e+002 -1.597673e+001 2.263569e+001
17066812500 -1.215798e+001 -7.653411e+001 -1.306534e+001 1.347258e+002 -1.301210e+001 1.341256e+002 -1.564133e+001 2.102466e+001
17085556250 -1.204348e+001 -7.777120e+001 -1.312069e+001 1.327296e+002 -1.307226e+001 1.321031e+002 -1.532061e+001 1.954206e+001
17104300000 -1.193494e+001 -7.900539e+001 -1.317686e+001 1.307313e+002 -1.313168e+001 1.300681e+002 -1.502035e+001 1.804376e+001
17123043750 -1.182652e+001 -8.023217e+001 -1.323359e+001 1.287303e+002 -1.319002e+001 1.280531e+002 -1.471659e+001 1.659053e+001
17141787500 -1.171304e+001 -8.143674e+001 -1.329247e+001 1.267520e+002 -1.325247e+001 1.260378e+002 -1.443146e+001 1.525455e+001
17160531250 -1.161032e+001 -8.259646e+001 -1.335506e+001 1.247567e+002 -1.331027e+001 1.240153e+002 -1.416995e+001 1.390448e+001
17179275000 -1.150734e+001 -8.377507e+001 -1.341438e+001 1.227670e+002 -1.336949e+001 1.220009e+002 -1.390314e+001 1.251770e+001
17198018750 -1.140672e+001 -8.492385e+001 -1.347178e+001 1.208047e+002 -1.343212e+001 1.200032e+002 -1.365213e+001 1.121354e+001
17216762500 -1.130750e+001 -8.608893e+001 -1.353672e+001 1.188298e+002 -1.349095e+001 1.179990e+002 -1.341107e+001 9.878115e+000
17235506250 -1.120956e+001 -8.724645e+001 -1.359928e+001 1.168370e+002 -1.354728e+001 1.160134e+002 -1.316686e+001 8.638438e+000
17254250000 -1.110658e+001 -8.835781e+001 -1.366094e+001 1.148768e+002 -1.361144e+001 1.140364e+002 -1.294473e+001 7.428901e+000
17272993750 -1.101351e+001 -8.943405e+001 -1.372205e+001 1.129186e+002 -1.367560e+001 1.120325e+002 -1.272786e+001 6.154364e+000
17291737500 -1.092157e+001 -9.056707e+001 -1.378139e+001 1.109400e+002 -1.373794e+001 1.100640e+002 -1.250986e+001 4.914546e+000
17310481250 -1.082965e+001 -9.166949e+001 -1.384315e+001 1.089932e+002 -1.380366e+001 1.080744e+002 -1.230338e+001 3.690872e+000
17329225000 -1.074121e+001 -9.277171e+001 -1.390638e+001 1.070362e+002 -1.386797e+001 1.060767e+002 -1.210197e+001 2.432152e+000
17347968750 -1.065245e+001 -9.387686e+001 -1.396763e+001 1.050883e+002 -1.393160e+001 1.040820e+002 -1.190104e+001 1.252597e+000
17366712500 -1.056384e+001 -9.493414e+001 -1.403628e+001 1.031740e+002 -1.399688e+001 1.021007e+002 -1.171543e+001 6.930933e-002
17385456250 -1.048256e+001 -9.596360e+001 -1.410116e+001 1.011975e+002 -1.406103e+001 1.001213e+002 -1.152846e+001 -1.127825e+000
17404200000 -1.039816e+001 -9.704970e+001 -1.416070e+001 9.926371e+001 -1.412771e+001 9.813558e+001 -1.134667e+001 -2.321430e+000
17422943750 -1.031721e+001 -9.810103e+001 -1.422915e+001 9.734322e+001 -1.419589e+001 9.617526e+001 -1.117338e+001 -3.509849e+000
17441687500 -1.023965e+001 -9.917813e+001 -1.429932e+001 9.537532e+001 -1.426437e+001 9.424272e+001 -1.099900e+001 -4.693301e+000
17460431250 -1.015415e+001 -1.002248e+002 -1.435971e+001 9.342381e+001 -1.433233e+001 9.228157e+001 -1.083099e+001 -5.819632e+000
17479175000 -1.007036e+001 -1.012457e+002 -1.442729e+001 9.150655e+001 -1.440374e+001 9.033792e+001 -1.067294e+001 -6.953674e+000
17497918750 -9.992764e+000 -1.022804e+002 -1.449316e+001 8.956123e+001 -1.447193e+001 8.837908e+001 -1.051983e+001 -8.140343e+000
17516662500 -9.919994e+000 -1.033461e+002 -1.455578e+001 8.766160e+001 -1.454232e+001 8.643368e+001 -1.036348e+001 -9.301682e+000
17535406250 -9.845727e+000 -1.043896e+002 -1.462693e+001 8.578457e+001 -1.460964e+001 8.450297e+001 -1.021575e+001 -1.045810e+001
17554150000 -9.777755e+000 -1.054233e+002 -1.469257e+001 8.384339e+001 -1.467966e+001 8.257089e+001 -1.006713e+001 -1.161533e+001
17572893750 -9.705587e+000 -1.064472e+002 -1.475766e+001 8.196485e+001 -1.475229e+001 8.064860e+001 -9.923432e+000 -1.273548e+001
17591637500 -9.637201e+000 -1.074411e+002 -1.483008e+001 8.007818e+001 -1.482638e+001 7.873467e+001 -9.791114e+000 -1.389941e+001
17610381250 -9.576445e+000 -1.084222e+002 -1.489907e+001 7.814982e+001 -1.489678e+001 7.680321e+001 -9.658520e+000 -1.507209e+001
17629125000 -9.512214e+000 -1.094508e+002 -1.496589e+001 7.629415e+001 -1.496976e+001 7.487687e+001 -9.526681e+000 -1.622444e+001
17647868750 -9.449351e+000 -1.104316e+002 -1.503790e+001 7.441557e+001 -1.504381e+001 7.298357e+001 -9.401649e+000 -1.738656e+001
17666612500 -9.387454e+000 -1.114387e+002 -1.510302e+001 7.248730e+001 -1.512224e+001 7.109519e+001 -9.277666e+000 -1.855840e+001
17685356250 -9.324033e+000 -1.124309e+002 -1.517078e+001 7.065008e+001 -1.519213e+001 6.921439e+001 -9.158108e+000 -1.968424e+001
17704100000 -9.262749e+000 -1.133621e+002 -1.524830e+001 6.876751e+001 -1.526909e+001 6.733147e+001 -9.046264e+000 -2.085211e+001
17722843750 -9.211029e+000 -1.143210e+002 -1.531320e+001 6.686869e+001 -1.534210e+001 6.542655e+001 -8.933058e+000 -2.203753e+001
17741587500 -9.157415e+000 -1.152859e+002 -1.538368e+001 6.505981e+001 -1.541643e+001 6.358228e+001 -8.823690e+000 -2.319369e+001
17760331250 -9.101540e+000 -1.162494e+002 -1.545661e+001 6.318070e+001 -1.549331e+001 6.173020e+001 -8.719122e+000 -2.435582e+001
17779075000 -9.051064e+000 -1.172195e+002 -1.552161e+001 6.131498e+001 -1.556386e+001 5.986572e+001 -8.613150e+000 -2.550283e+001
17797818750 -8.993969e+000 -1.181638e+002 -1.559165e+001 5.950276e+001 -1.563878e+001 5.801230e+001 -8.514568e+000 -2.663084e+001
17816562500 -8.944178e+000 -1.190589e+002 -1.566539e+001 5.763163e+001 -1.571899e+001 5.615761e+001 -8.425400e+000 -2.778028e+001
17835306250 -8.905242e+000 -1.199793e+002 -1.572957e+001 5.580038e+001 -1.578729e+001 5.427672e+001 -8.331754e+000 -2.893937e+001
17854050000 -8.859203e+000 -1.209147e+002 -1.580056e+001 5.399557e+001 -1.586028e+001 5.245633e+001 -8.240577e+000 -3.006736e+001
17872793750 -8.817082e+000 -1.218185e+002 -1.586794e+001 5.215791e+001 -1.593654e+001 5.058549e+001 -8.156481e+000 -3.122287e+001
17891537500 -8.779105e+000 -1.227584e+002 -1.593351e+001 5.034992e+001 -1.600658e+001 4.877004e+001 -8.068411e+000 -3.236554e+001
17910281250 -8.734191e+000 -1.236537e+002 -1.600609e+001 4.855222e+001 -1.607829e+001 4.693181e+001 -7.988988e+000 -3.348981e+001
17929025000 -8.700524e+000 -1.245009e+002 -1.607806e+001 4.671515e+001 -1.615806e+001 4.512764e+001 -7.910064e+000 -3.461327e+001
17947768750 -8.670324e+000 -1.254060e+002 -1.614022e+001 4.490527e+001 -1.622852e+001 4.330779e+001 -7.833404e+000 -3.574986e+001
17966512500 -8.635550e+000 -1.262984e+002 -1.621090e+001 4.308979e+001 -1.630314e+001 4.153203e+001 -7.759882e+000 -3.686853e+001
17985256250 -8.601389e+000 -1.271756e+002 -1.627958e+001 4.125539e+001 -1.637831e+001 3.968557e+001 -7.687877e+000 -3.799591e+001
18004000000 -8.565475e+000 -1.280916e+002 -1.634321e+001 3.945661e+001 -1.644851e+001 3.788256e+001 -7.618714e+000 -3.909511e+001
18022743750 -8.523625e+000 -1.289497e+002 -1.641560e+001 3.766960e+001 -1.651890e+001 3.611709e+001 -7.554200e+000 -4.016985e+001
18041487500 -8.492817e+000 -1.297767e+002 -1.647880e+001 3.583801e+001 -1.658955e+001 3.429264e+001 -7.491817e+000 -4.127374e+001
18060231250 -8.466864e+000 -1.306372e+002 -1.654564e+001 3.405054e+001 -1.665900e+001 3.250488e+001 -7.431093e+000 -4.238614e+001
18078975000 -8.434208e+000 -1.314875e+002 -1.661378e+001 3.224593e+001 -1.672700e+001 3.074257e+001 -7.369320e+000 -4.347828e+001
18097718750 -8.409142e+000 -1.323282e+002 -1.667505e+001 3.045915e+001 -1.679682e+001 2.890635e+001 -7.308150e+000 -4.458052e+001
18116462500 -8.378971e+000 -1.331993e+002 -1.673676e+001 2.869028e+001 -1.686476e+001 2.711042e+001 -7.251712e+000 -4.567130e+001
18135206250 -8.346006e+000 -1.340271e+002 -1.680339e+001 2.686873e+001 -1.693713e+001 2.536918e+001 -7.201683e+000 -4.673180e+001
18153950000 -8.326614e+000 -1.347951e+002 -1.686763e+001 2.507741e+001 -1.701011e+001 2.356132e+001 -7.151264e+000 -4.780683e+001
18172693750 -8.304170e+000 -1.356366e+002 -1.693210e+001 2.328281e+001 -1.707617e+001 2.174854e+001 -7.100486e+000 -4.888780e+001
18191437500 -8.281483e+000 -1.364350e+002 -1.700047e+001 2.147139e+001 -1.714662e+001 2.001007e+001 -7.051719e+000 -4.994955e+001
18210181250 -8.262040e+000 -1.372455e+002 -1.706238e+001 1.970480e+001 -1.721509e+001 1.819285e+001 -7.003222e+000 -5.102205e+001
18228925000 -8.234858e+000 -1.380906e+002 -1.712621e+001 1.790564e+001 -1.728188e+001 1.642996e+001 -6.958718e+000 -5.206451e+001
18247668750 -8.209221e+000 -1.388438e+002 -1.719180e+001 1.611772e+001 -1.734791e+001 1.466767e+001 -6.914943e+000 -5.312068e+001
18266412500 -8.194241e+000 -1.396037e+002 -1.725450e+001 1.431842e+001 -1.742109e+001 1.289519e+001 -6.875453e+000 -5.417992e+001
18285156250 -8.175594e+000 -1.403982e+002 -1.731539e+001 1.255548e+001 -1.748665e+001 1.111120e+001 -6.835107e+000 -5.522836e+001
18303900000 -8.156172e+000 -1.411733e+002 -1.737898e+001 1.072621e+001 -1.755726e+001 9.334387e+000 -6.798255e+000 -5.626621e+001
18322643750 -8.141232e+000 -1.419505e+002 -1.743543e+001 8.933088e+000 -1.762351e+001 7.518546e+000 -6.762206e+000 -5.730923e+001
18341387500 -8.118020e+000 -1.427312e+002 -1.749804e+001 7.128448e+000 -1.769344e+001 5.762115e+000 -6.727765e+000 -5.832923e+001
18360131250 -8.100592e+000 -1.434553e+002 -1.755899e+001 5.313986e+000 -1.776087e+001 3.982084e+000 -6.694402e+000 -5.935836e+001
18378875000 -8.091867e+000 -1.441704e+002 -1.761902e+001 3.520719e+000 -1.782234e+001 2.172983e+000 -6.661532e+000 -6.039238e+001
18397618750 -8.079500e+000 -1.449394e+002 -1.768197e+001 1.720726e+000 -1.788208e+001 3.646246e-001 -6.628213e+000 -6.142035e+001
18416362500 -8.068865e+000 -1.456969e+002 -1.774053e+001 -1.077110e-001 -1.795244e+001 -1.421294e+000 -6.598021e+000 -6.242751e+001
18435106250 -8.059460e+000 -1.464398e+002 -1.779979e+001 -1.894282e+000 -1.801224e+001 -3.269933e+000 -6.567909e+000 -6.343899e+001
18453850000 -8.045202e+000 -1.471770e+002 -1.786095e+001 -3.730131e+000 -1.807594e+001 -5.068223e+000 -6.541947e+000 -6.443693e+001
18472593750 -8.037387e+000 -1.478544e+002 -1.792160e+001 -5.575573e+000 -1.814572e+001 -6.864244e+000 -6.514563e+000 -6.544708e+001
18491337500 -8.033832e+000 -1.485675e+002 -1.797964e+001 -7.386559e+000 -1.820802e+001 -8.681432e+000 -6.487533e+000 -6.643510e+001
18510081250 -8.031170e+000 -1.493052e+002 -1.804094e+001 -9.239960e+000 -1.827199e+001 -1.051763e+001 -6.465083e+000 -6.742743e+001
18528825000 -8.029860e+000 -1.500143e+002 -1.809713e+001 -1.110583e+001 -1.833898e+001 -1.235446e+001 -6.444488e+000 -6.840739e+001
18547568750 -8.028776e+000 -1.507623e+002 -1.815933e+001 -1.296626e+001 -1.839776e+001 -1.421223e+001 -6.419898e+000 -6.936484e+001
18566312500 -8.022851e+000 -1.514898e+002 -1.821782e+001 -1.482036e+001 -1.845847e+001 -1.606029e+001 -6.398693e+000 -7.033361e+001
18585056250 -8.023871e+000 -1.521587e+002 -1.827690e+001 -1.669882e+001 -1.852231e+001 -1.793742e+001 -6.381438e+000 -7.130409e+001
18603800000 -8.031257e+000 -1.528595e+002 -1.833833e+001 -1.855946e+001 -1.858181e+001 -1.978670e+001 -6.363704e+000 -7.226298e+001
18622543750 -8.036934e+000 -1.535746e+002 -1.839440e+001 -2.048584e+001 -1.864305e+001 -2.167612e+001 -6.345051e+000 -7.321400e+001
18641287500 -8.046139e+000 -1.542740e+002 -1.845186e+001 -2.242506e+001 -1.870798e+001 -2.358157e+001 -6.332438e+000 -7.417123e+001
18660031250 -8.056190e+000 -1.550033e+002 -1.851406e+001 -2.434560e+001 -1.876327e+001 -2.548705e+001 -6.314313e+000 -7.511055e+001
18678775000 -8.057170e+000 -1.556758e+002 -1.857177e+001 -2.628683e+001 -1.883346e+001 -2.739124e+001 -6.303342e+000 -7.603242e+001
18697518750 -8.068419e+000 -1.563092e+002 -1.863161e+001 -2.823246e+001 -1.889552e+001 -2.931737e+001 -6.291479e+000 -7.696314e+001
18716262500 -8.085979e+000 -1.569703e+002 -1.869821e+001 -3.021232e+001 -1.895589e+001 -3.123745e+001 -6.278557e+000 -7.787285e+001
18735006250 -8.105736e+000 -1.576328e+002 -1.876151e+001 -3.216786e+001 -1.901962e+001 -3.314775e+001 -6.264364e+000 -7.877024e+001
18753750000 -8.126043e+000 -1.582895e+002 -1.882901e+001 -3.412393e+001 -1.908868e+001 -3.514220e+001 -6.253326e+000 -7.966779e+001
18772493750 -8.144559e+000 -1.589589e+002 -1.889528e+001 -3.610229e+001 -1.914399e+001 -3.711072e+001 -6.242915e+000 -8.054729e+001
18791237500 -8.157578e+000 -1.595721e+002 -1.895539e+001 -3.809515e+001 -1.921206e+001 -3.913533e+001 -6.237403e+000 -8.144205e+001
18809981250 -8.178329e+000 -1.601477e+002 -1.902148e+001 -4.009468e+001 -1.928122e+001 -4.113213e+001 -6.233320e+000 -8.231607e+001
18828725000 -8.205837e+000 -1.607183e+002 -1.908851e+001 -4.211485e+001 -1.935067e+001 -4.311870e+001 -6.226576e+000 -8.318034e+001
18847468750 -8.237126e+000 -1.612831e+002 -1.915356e+001 -4.414690e+001 -1.942035e+001 -4.517618e+001 -6.221967e+000 -8.406136e+001
18866212500 -8.272017e+000 -1.618551e+002 -1.922559e+001 -4.623526e+001 -1.948904e+001 -4.720610e+001 -6.218077e+000 -8.492751e+001
18884956250 -8.300983e+000 -1.624488e+002 -1.929585e+001 -4.832048e+001 -1.955919e+001 -4.929228e+001 -6.213164e+000 -8.577454e+001
18903700000 -8.325429e+000 -1.629426e+002 -1.936672e+001 -5.038832e+001 -1.963299e+001 -5.140987e+001 -6.214159e+000 -8.662209e+001
18922443750 -8.361356e+000 -1.633937e+002 -1.944206e+001 -5.249976e+001 -1.970104e+001 -5.349644e+001 -6.212767e+000 -8.747399e+001
18941187500 -8.396698e+000 -1.638482e+002 -1.951418e+001 -5.463710e+001 -1.978145e+001 -5.556060e+001 -6.210862e+000 -8.829654e+001
18959931250 -8.435556e+000 -1.642888e+002 -1.959305e+001 -5.676987e+001 -1.986345e+001 -5.770813e+001 -6.209561e+000 -8.912486e+001
18978675000 -8.477386e+000 -1.647221e+002 -1.967559e+001 -5.897110e+001 -1.995029e+001 -5.985242e+001 -6.212965e+000 -8.996223e+001
18997418750 -8.510441e+000 -1.651406e+002 -1.976069e+001 -6.115032e+001 -2.003297e+001 -6.200686e+001 -6.214923e+000 -9.076592e+001
19016162500 -8.542363e+000 -1.654733e+002 -1.984569e+001 -6.333923e+001 -2.012359e+001 -6.419760e+001 -6.218250e+000 -9.158513e+001
19034906250 -8.580944e+000 -1.657789e+002 -1.993579e+001 -6.557427e+001 -2.021249e+001 -6.635665e+001 -6.220866e+000 -9.239377e+001
19053650000 -8.618372e+000 -1.660513e+002 -2.002481e+001 -6.775259e+001 -2.030974e+001 -6.859667e+001 -6.222348e+000 -9.319344e+001
19072393750 -8.658988e+000 -1.663060e+002 -2.011836e+001 -6.996864e+001 -2.040866e+001 -7.082693e+001 -6.224692e+000 -9.398394e+001
19091137500 -8.698695e+000 -1.665578e+002 -2.022018e+001 -7.222559e+001 -2.050984e+001 -7.303313e+001 -6.229438e+000 -9.477404e+001
19109881250 -8.730487e+000 -1.668209e+002 -2.032413e+001 -7.448206e+001 -2.061065e+001 -7.522793e+001 -6.231948e+000 -9.554647e+001
19128625000 -8.759995e+000 -1.669675e+002 -2.043766e+001 -7.672803e+001 -2.072207e+001 -7.748343e+001 -6.236830e+000 -9.632801e+001
19147368750 -8.792964e+000 -1.670779e+002 -2.054706e+001 -7.906224e+001 -2.083926e+001 -7.975129e+001 -6.242003e+000 -9.713179e+001
19166112500 -8.820831e+000 -1.671543e+002 -2.066201e+001 -8.132872e+001 -2.095782e+001 -8.203550e+001 -6.247385e+000 -9.791004e+001
19184856250 -8.849442e+000 -1.672301e+002 -2.078636e+001 -8.367550e+001 -2.106951e+001 -8.433733e+001 -6.254299e+000 -9.868429e+001
19203600000 -8.878804e+000 -1.673508e+002 -2.090316e+001 -8.602101e+001 -2.119589e+001 -8.662584e+001 -6.259902e+000 -9.946566e+001
19222343750 -8.891540e+000 -1.674192e+002 -2.103284e+001 -8.831973e+001 -2.132944e+001 -8.892567e+001 -6.266138e+000 -1.002194e+002
19241087500 -8.901917e+000 -1.674240e+002 -2.117088e+001 -9.070376e+001 -2.146475e+001 -9.125266e+001 -6.275664e+000 -1.010008e+002
19259831250 -8.911507e+000 -1.674242e+002 -2.130761e+001 -9.307811e+001 -2.160087e+001 -9.359242e+001 -6.281206e+000 -1.017646e+002
19278575000 -8.915691e+000 -1.673600e+002 -2.145801e+001 -9.538316e+001 -2.174706e+001 -9.586273e+001 -6.290257e+000 -1.025069e+002
19297318750 -8.921296e+000 -1.673188e+002 -2.161012e+001 -9.776220e+001 -2.189573e+001 -9.815763e+001 -6.299316e+000 -1.032749e+002
19316062500 -8.918940e+000 -1.673145e+002 -2.174997e+001 -1.001463e+002 -2.204623e+001 -1.004291e+002 -6.306007e+000 -1.040405e+002
19334806250 -8.900563e+000 -1.672918e+002 -2.190640e+001 -1.024577e+002 -2.220625e+001 -1.027607e+002 -6.316756e+000 -1.047940e+002
19353550000 -8.881658e+000 -1.672167e+002 -2.207166e+001 -1.048345e+002 -2.237893e+001 -1.050757e+002 -6.329426e+000 -1.055729e+002
19372293750 -8.858487e+000 -1.671528e+002 -2.223598e+001 -1.071700e+002 -2.254420e+001 -1.073979e+002 -6.337656e+000 -1.063486e+002
19391037500 -8.830585e+000 -1.670333e+002 -2.241036e+001 -1.095000e+002 -2.271382e+001 -1.097158e+002 -6.348130e+000 -1.071115e+002
19409781250 -8.802482e+000 -1.669591e+002 -2.258681e+001 -1.118511e+002 -2.288472e+001 -1.120442e+002 -6.356683e+000 -1.078865e+002
19428525000 -8.765304e+000 -1.669596e+002 -2.276158e+001 -1.141393e+002 -2.306471e+001 -1.143881e+002 -6.363218e+000 -1.086619e+002
19447268750 -8.712208e+000 -1.669349e+002 -2.294782e+001 -1.164512e+002 -2.324541e+001 -1.167277e+002 -6.376108e+000 -1.094206e+002
19466012500 -8.658658e+000 -1.668841e+002 -2.313534e+001 -1.188411e+002 -2.343375e+001 -1.190028e+002 -6.390115e+000 -1.102101e+002
19484756250 -8.600752e+000 -1.668610e+002 -2.332328e+001 -1.211611e+002 -2.363168e+001 -1.212877e+002 -6.404524e+000 -1.110039e+002
19503500000 -8.537651e+000 -1.668131e+002 -2.353858e+001 -1.234109e+002 -2.383459e+001 -1.235962e+002 -6.423289e+000 -1.118003e+002
19522243750 -8.478662e+000 -1.668292e+002 -2.373656e+001 -1.257330e+002 -2.404210e+001 -1.258682e+002 -6.438113e+000 -1.126284e+002
19540987500 -8.408135e+000 -1.669143e+002 -2.393673e+001 -1.280141e+002 -2.424633e+001 -1.282965e+002 -6.456232e+000 -1.134343e+002
19559731250 -8.325317e+000 -1.669894e+002 -2.414005e+001 -1.303181e+002 -2.444697e+001 -1.306050e+002 -6.479496e+000 -1.142441e+002
19578475000 -8.244568e+000 -1.670807e+002 -2.435097e+001 -1.326190e+002 -2.466883e+001 -1.328896e+002 -6.500837e+000 -1.150845e+002
19597218750 -8.156579e+000 -1.671920e+002 -2.457202e+001 -1.348877e+002 -2.488089e+001 -1.352534e+002 -6.523178e+000 -1.159161e+002
19615962500 -8.072913e+000 -1.672833e+002 -2.479744e+001 -1.371760e+002 -2.510499e+001 -1.374879e+002 -6.548876e+000 -1.167708e+002
19634706250 -7.992272e+000 -1.674575e+002 -2.500824e+001 -1.395063e+002 -2.533795e+001 -1.398532e+002 -6.573208e+000 -1.176423e+002
19653450000 -7.901278e+000 -1.677099e+002 -2.524313e+001 -1.418483e+002 -2.557563e+001 -1.420231e+002 -6.599480e+000 -1.185127e+002
19672193750 -7.807283e+000 -1.679434e+002 -2.548080e+001 -1.441217e+002 -2.580764e+001 -1.442861e+002 -6.632805e+000 -1.193918e+002
19690937500 -7.713701e+000 -1.682018e+002 -2.570879e+001 -1.464389e+002 -2.605704e+001 -1.465284e+002 -6.666611e+000 -1.202980e+002
19709681250 -7.614450e+000 -1.684917e+002 -2.597333e+001 -1.487076e+002 -2.629939e+001 -1.489025e+002 -6.703145e+000 -1.212013e+002
19728425000 -7.523078e+000 -1.687732e+002 -2.621574e+001 -1.509998e+002 -2.655495e+001 -1.511244e+002 -6.741359e+000 -1.220957e+002
19747168750 -7.436563e+000 -1.691347e+002 -2.647458e+001 -1.532373e+002 -2.681454e+001 -1.534066e+002 -6.780422e+000 -1.230351e+002
19765912500 -7.342621e+000 -1.695482e+002 -2.672582e+001 -1.554826e+002 -2.705768e+001 -1.557430e+002 -6.822039e+000 -1.239508e+002
19784656250 -7.247074e+000 -1.699492e+002 -2.698820e+001 -1.578159e+002 -2.730124e+001 -1.580790e+002 -6.868996e+000 -1.248859e+002
19803400000 -7.155022e+000 -1.703809e+002 -2.725304e+001 -1.600145e+002 -2.756963e+001 -1.603551e+002 -6.920521e+000 -1.258499e+002
19822143750 -7.062768e+000 -1.708418e+002 -2.754836e+001 -1.622439e+002 -2.782638e+001 -1.626529e+002 -6.969924e+000 -1.268305e+002
19840887500 -6.971433e+000 -1.712899e+002 -2.780368e+001 -1.646095e+002 -2.812378e+001 -1.649393e+002 -7.027068e+000 -1.277716e+002
19859631250 -6.887621e+000 -1.717695e+002 -2.805515e+001 -1.670586e+002 -2.839393e+001 -1.675016e+002 -7.084639e+000 -1.287887e+002
19878375000 -6.801383e+000 -1.723312e+002 -2.834097e+001 -1.696126e+002 -2.868713e+001 -1.696885e+002 -7.148403e+000 -1.297750e+002
19897118750 -6.716633e+000 -1.729147e+002 -2.864801e+001 -1.718280e+002 -2.897833e+001 -1.720941e+002 -7.220383e+000 -1.307914e+002
19915862500 -6.629643e+000 -1.734897e+002 -2.893533e+001 -1.743113e+002 -2.922671e+001 -1.741785e+002 -7.293778e+000 -1.317846e+002
19934606250 -6.549500e+000 -1.740502e+002 -2.921794e+001 -1.768353e+002 -2.950903e+001 -1.762640e+002 -7.367318e+000 -1.328140e+002
19953350000 -6.472588e+000 -1.746413e+002 -2.950874e+001 -1.793054e+002 -2.976834e+001 -1.784085e+002 -7.450450e+000 -1.338174e+002
19972093750 -6.398587e+000 -1.752723e+002 -2.983283e+001 1.786108e+002 -3.007045e+001 1.795495e+002 -7.536219e+000 -1.348267e+002
19990837500 -6.324802e+000 -1.759449e+002 -3.012345e+001 1.759943e+002 -3.042254e+001 1.773396e+002 -7.626879e+000 -1.358341e+002
20009581250 -6.253323e+000 -1.766254e+002 -3.041150e+001 1.738335e+002 -3.071058e+001 1.746881e+002 -7.729291e+000 -1.368822e+002
20028325000 -6.179021e+000 -1.773108e+002 -3.080989e+001 1.710308e+002 -3.104707e+001 1.723203e+002 -7.832016e+000 -1.379324e+002
20047068750 -6.111946e+000 -1.779763e+002 -3.115924e+001 1.688932e+002 -3.139198e+001 1.698616e+002 -7.952130e+000 -1.389983e+002
20065812500 -6.045821e+000 -1.786542e+002 -3.151468e+001 1.668588e+002 -3.174316e+001 1.681084e+002 -8.074959e+000 -1.400813e+002
20084556250 -5.983326e+000 -1.793646e+002 -3.187060e+001 1.646170e+002 -3.210740e+001 1.654901e+002 -8.201477e+000 -1.411712e+002
20103300000 -5.918760e+000 1.799069e+002 -3.221468e+001 1.621528e+002 -3.243440e+001 1.629717e+002 -8.337228e+000 -1.422267e+002
20122043750 -5.855816e+000 1.791721e+002 -3.260327e+001 1.595374e+002 -3.280599e+001 1.604211e+002 -8.489491e+000 -1.433316e+002
20140787500 -5.796120e+000 1.784483e+002 -3.294173e+001 1.568853e+002 -3.316027e+001 1.578561e+002 -8.645380e+000 -1.444392e+002
20159531250 -5.738663e+000 1.777372e+002 -3.334428e+001 1.545492e+002 -3.357036e+001 1.551549e+002 -8.819165e+000 -1.455547e+002
20178275000 -5.685243e+000 1.770093e+002 -3.373616e+001 1.523027e+002 -3.393118e+001 1.526175e+002 -9.000743e+000 -1.466665e+002
20197018750 -5.637112e+000 1.762675e+002 -3.410225e+001 1.498250e+002 -3.429054e+001 1.507877e+002 -9.186209e+000 -1.477506e+002
20215762500 -5.585980e+000 1.755008e+002 -3.446394e+001 1.475198e+002 -3.464655e+001 1.486055e+002 -9.396816e+000 -1.488604e+002
20234506250 -5.533697e+000 1.747461e+002 -3.490346e+001 1.444127e+002 -3.499160e+001 1.462232e+002 -9.626834e+000 -1.499755e+002
20253250000 -5.477622e+000 1.740081e+002 -3.532190e+001 1.413971e+002 -3.546838e+001 1.437391e+002 -9.877236e+000 -1.510687e+002
20271993750 -5.436551e+000 1.732754e+002 -3.575961e+001 1.387403e+002 -3.605132e+001 1.405804e+002 -1.014832e+001 -1.521737e+002
20290737500 -5.397851e+000 1.724880e+002 -3.630185e+001 1.357663e+002 -3.654419e+001 1.384247e+002 -1.042242e+001 -1.531859e+002
20309481250 -5.357471e+000 1.716961e+002 -3.666890e+001 1.331916e+002 -3.690284e+001 1.355523e+002 -1.071291e+001 -1.541718e+002
20328225000 -5.315909e+000 1.709476e+002 -3.706975e+001 1.310753e+002 -3.734957e+001 1.328155e+002 -1.103682e+001 -1.550054e+002
20346968750 -5.274690e+000 1.701761e+002 -3.758157e+001 1.288609e+002 -3.787713e+001 1.289960e+002 -1.139132e+001 -1.558338e+002
20365712500 -5.231802e+000 1.694369e+002 -3.812128e+001 1.267721e+002 -3.841050e+001 1.265603e+002 -1.178161e+001 -1.566130e+002
20384456250 -5.197928e+000 1.687001e+002 -3.865932e+001 1.229507e+002 -3.899993e+001 1.235475e+002 -1.219257e+001 -1.572898e+002
20403200000 -5.169237e+000 1.679455e+002 -3.912810e+001 1.194344e+002 -3.957114e+001 1.198259e+002 -1.263078e+001 -1.578051e+002
20421943750 -5.136126e+000 1.671771e+002 -3.969553e+001 1.151709e+002 -4.002052e+001 1.167646e+002 -1.310984e+001 -1.580484e+002
20440687500 -5.100203e+000 1.664130e+002 -4.046045e+001 1.109303e+002 -4.075950e+001 1.137055e+002 -1.362366e+001 -1.578987e+002
20459431250 -5.069788e+000 1.656748e+002 -4.092308e+001 1.073144e+002 -4.128819e+001 1.101669e+002 -1.417040e+001 -1.573584e+002
20478175000 -5.033039e+000 1.649448e+002 -4.158097e+001 1.020567e+002 -4.190485e+001 1.041263e+002 -1.472876e+001 -1.563056e+002
20496918750 -5.010230e+000 1.642455e+002 -4.209230e+001 9.721581e+001 -4.233712e+001 9.900410e+001 -1.526704e+001 -1.548206e+002
20515662500 -4.988661e+000 1.634990e+002 -4.252641e+001 9.313911e+001 -4.298691e+001 9.361104e+001 -1.578767e+001 -1.527627e+002
20534406250 -4.964664e+000 1.627253e+002 -4.313963e+001 8.876868e+001 -4.343593e+001 8.854993e+001 -1.624776e+001 -1.502503e+002
20553150000 -4.938391e+000 1.619613e+002 -4.350877e+001 8.454254e+001 -4.377652e+001 8.421117e+001 -1.666880e+001 -1.473268e+002
20571893750 -4.910506e+000 1.612140e+002 -4.405900e+001 7.891652e+001 -4.420818e+001 7.945962e+001 -1.703435e+001 -1.441110e+002
20590637500 -4.881219e+000 1.604886e+002 -4.452255e+001 7.362466e+001 -4.446251e+001 7.558418e+001 -1.736203e+001 -1.407007e+002
20609381250 -4.859920e+000 1.597788e+002 -4.487838e+001 6.624789e+001 -4.504429e+001 7.025772e+001 -1.763638e+001 -1.372424e+002
20628125000 -4.840946e+000 1.590037e+002 -4.533302e+001 5.949038e+001 -4.546656e+001 6.027427e+001 -1.784888e+001 -1.338022e+002
20646868750 -4.819953e+000 1.582375e+002 -4.565400e+001 5.317430e+001 -4.604099e+001 5.347683e+001 -1.801157e+001 -1.301090e+002
20665612500 -4.801115e+000 1.574633e+002 -4.593341e+001 4.668072e+001 -4.626778e+001 4.732977e+001 -1.811360e+001 -1.263060e+002
20684356250 -4.779792e+000 1.567138e+002 -4.625470e+001 4.118317e+001 -4.661623e+001 4.129019e+001 -1.818060e+001 -1.224385e+002
20703100000 -4.754259e+000 1.559926e+002 -4.636681e+001 3.565497e+001 -4.678857e+001 3.457827e+001 -1.820196e+001 -1.186035e+002
20721843750 -4.741682e+000 1.552767e+002 -4.656672e+001 2.973755e+001 -4.688470e+001 2.839417e+001 -1.820208e+001 -1.148747e+002
20740587500 -4.731344e+000 1.545477e+002 -4.677832e+001 2.282858e+001 -4.708559e+001 2.130569e+001 -1.814493e+001 -1.111150e+002
20759331250 -4.712444e+000 1.537874e+002 -4.687355e+001 1.639551e+001 -4.750063e+001 1.613021e+001 -1.802213e+001 -1.073452e+002
20778075000 -4.697229e+000 1.530286e+002 -4.692642e+001 8.854726e+000 -4.757298e+001 9.738832e+000 -1.785239e+001 -1.035891e+002
20796818750 -4.677591e+000 1.522515e+002 -4.701415e+001 1.206723e+000 -4.764138e+001 2.153437e+000 -1.762455e+001 -9.972467e+001
20815562500 -4.656681e+000 1.515552e+002 -4.709696e+001 -3.965977e+000 -4.754229e+001 -4.703579e+000 -1.737354e+001 -9.597900e+001
20834306250 -4.647003e+000 1.508665e+002 -4.719765e+001 -9.879332e+000 -4.749274e+001 -1.007122e+001 -1.706028e+001 -9.245789e+001
20853050000 -4.638389e+000 1.501459e+002 -4.710257e+001 -1.502004e+001 -4.747748e+001 -1.750862e+001 -1.667616e+001 -8.912263e+001
20871793750 -4.625869e+000 1.494072e+002 -4.686351e+001 -2.100794e+001 -4.734127e+001 -2.561803e+001 -1.623319e+001 -8.604738e+001
20890537500 -4.614532e+000 1.486380e+002 -4.682316e+001 -2.672630e+001 -4.720576e+001 -3.206772e+001 -1.573522e+001 -8.338826e+001
20909281250 -4.598345e+000 1.478719e+002 -4.654966e+001 -3.058032e+001 -4.721796e+001 -3.776176e+001 -1.518845e+001 -8.108360e+001
20928025000 -4.581680e+000 1.471775e+002 -4.641062e+001 -3.632520e+001 -4.734591e+001 -4.301544e+001 -1.464854e+001 -7.919920e+001
20946768750 -4.577238e+000 1.464846e+002 -4.638340e+001 -4.187595e+001 -4.715826e+001 -4.689710e+001 -1.410364e+001 -7.792026e+001
20965512500 -4.573581e+000 1.457646e+002 -4.613717e+001 -4.687115e+001 -4.729306e+001 -5.059879e+001 -1.357533e+001 -7.709026e+001
20984256250 -4.567696e+000 1.450359e+002 -4.627136e+001 -5.251206e+001 -4.744310e+001 -5.599445e+001 -1.306070e+001 -7.661364e+001
21003000000 -4.555290e+000 1.442717e+002 -4.621242e+001 -5.609959e+001 -4.731788e+001 -6.097132e+001 -1.257154e+001 -7.646073e+001
21021743750 -4.543600e+000 1.435564e+002 -4.627800e+001 -6.103896e+001 -4.741197e+001 -6.582501e+001 -1.208861e+001 -7.645708e+001
21040487500 -4.531349e+000 1.428615e+002 -4.623509e+001 -6.440617e+001 -4.723793e+001 -6.980352e+001 -1.164634e+001 -7.654790e+001
21059231250 -4.526859e+000 1.421879e+002 -4.612303e+001 -6.735155e+001 -4.708630e+001 -6.955695e+001 -1.123587e+001 -7.671795e+001
21077975000 -4.522150e+000 1.414613e+002 -4.615621e+001 -6.976856e+001 -4.707552e+001 -7.199463e+001 -1.083407e+001 -7.705322e+001
21096718750 -4.515334e+000 1.407376e+002 -4.606849e+001 -7.102369e+001 -4.726908e+001 -7.468671e+001 -1.045828e+001 -7.752570e+001
21115462500 -4.508714e+000 1.399851e+002 -4.597527e+001 -7.517488e+001 -4.730962e+001 -7.796008e+001 -1.008561e+001 -7.804987e+001
21134206250 -4.500584e+000 1.392495e+002 -4.604145e+001 -7.820927e+001 -4.704374e+001 -8.008407e+001 -9.728641e+000 -7.856107e+001
21152950000 -4.491598e+000 1.385744e+002 -4.639885e+001 -8.046353e+001 -4.726439e+001 -8.253899e+001 -9.381501e+000 -7.910077e+001
21171693750 -4.488116e+000 1.378886e+002 -4.660209e+001 -8.076817e+001 -4.729506e+001 -8.412204e+001 -9.049119e+000 -7.974958e+001
21190437500 -4.489026e+000 1.371602e+002 -4.669600e+001 -8.207035e+001 -4.695393e+001 -8.617329e+001 -8.734913e+000 -8.051900e+001
21209181250 -4.488712e+000 1.364248e+002 -4.678257e+001 -8.317844e+001 -4.713631e+001 -8.636419e+001 -8.431190e+000 -8.134039e+001
21227925000 -4.483902e+000 1.356743e+002 -4.675459e+001 -8.577005e+001 -4.703964e+001 -8.815298e+001 -8.137039e+000 -8.225994e+001
21246668750 -4.477423e+000 1.349459e+002 -4.684899e+001 -8.676849e+001 -4.711898e+001 -8.874062e+001 -7.841379e+000 -8.318413e+001
21265412500 -4.470889e+000 1.342464e+002 -4.677526e+001 -8.706967e+001 -4.718921e+001 -9.196510e+001 -7.565883e+000 -8.417503e+001
21284156250 -4.472522e+000 1.335132e+002 -4.690824e+001 -8.741679e+001 -4.731585e+001 -9.118036e+001 -7.299801e+000 -8.520628e+001
21302900000 -4.473946e+000 1.327713e+002 -4.709641e+001 -8.666824e+001 -4.755131e+001 -9.318140e+001 -7.046912e+000 -8.631840e+001
21321643750 -4.473314e+000 1.320285e+002 -4.737460e+001 -8.826170e+001 -4.762314e+001 -9.399234e+001 -6.803878e+000 -8.745487e+001
21340387500 -4.472204e+000 1.312891e+002 -4.753133e+001 -9.017664e+001 -4.742757e+001 -9.287778e+001 -6.571842e+000 -8.866208e+001
21359131250 -4.460824e+000 1.305528e+002 -4.758746e+001 -9.022492e+001 -4.743629e+001 -9.170201e+001 -6.356573e+000 -8.989832e+001
21377875000 -4.455067e+000 1.298705e+002 -4.765054e+001 -9.036433e+001 -4.759373e+001 -9.242528e+001 -6.151093e+000 -9.118030e+001
21396618750 -4.459401e+000 1.291484e+002 -4.795440e+001 -8.999575e+001 -4.748615e+001 -9.425523e+001 -5.961272e+000 -9.243651e+001
21415362500 -4.459616e+000 1.284072e+002 -4.764204e+001 -9.005367e+001 -4.743185e+001 -9.435987e+001 -5.784395e+000 -9.371835e+001
21434106250 -4.463540e+000 1.276686e+002 -4.751652e+001 -9.067361e+001 -4.734988e+001 -9.392493e+001 -5.619570e+000 -9.497245e+001
21452850000 -4.462520e+000 1.268875e+002 -4.728305e+001 -9.087290e+001 -4.714967e+001 -9.571210e+001 -5.467796e+000 -9.624393e+001
21471593750 -4.461001e+000 1.261718e+002 -4.731032e+001 -8.973937e+001 -4.701765e+001 -9.563884e+001 -5.324797e+000 -9.747086e+001
21490337500 -4.462396e+000 1.254736e+002 -4.727005e+001 -9.023362e+001 -4.711069e+001 -9.564019e+001 -5.193039e+000 -9.865907e+001
21509081250 -4.467766e+000 1.247219e+002 -4.716818e+001 -9.207582e+001 -4.682460e+001 -9.641211e+001 -5.065970e+000 -9.986544e+001
21527825000 -4.469632e+000 1.240050e+002 -4.726305e+001 -9.319704e+001 -4.669424e+001 -9.811867e+001 -4.951223e+000 -1.010540e+002
21546568750 -4.473504e+000 1.232698e+002 -4.717030e+001 -9.259147e+001 -4.641880e+001 -9.851860e+001 -4.842963e+000 -1.022381e+002
21565312500 -4.475996e+000 1.225081e+002 -4.751784e+001 -9.140353e+001 -4.653223e+001 -9.762180e+001 -4.737821e+000 -1.034061e+002
21584056250 -4.470713e+000 1.218129e+002 -4.764574e+001 -9.377501e+001 -4.645590e+001 -9.826717e+001 -4.640863e+000 -1.045176e+002
21602800000 -4.471117e+000 1.211276e+002 -4.730788e+001 -9.546589e+001 -4.650081e+001 -9.813093e+001 -4.547740e+000 -1.056222e+002
21621543750 -4.474634e+000 1.204145e+002 -4.722757e+001 -9.696542e+001 -4.657565e+001 -1.001555e+002 -4.460840e+000 -1.067254e+002
21640287500 -4.478503e+000 1.196841e+002 -4.713718e+001 -9.758344e+001 -4.639722e+001 -1.011617e+002 -4.374357e+000 -1.077796e+002
21659031250 -4.486862e+000 1.189569e+002 -4.701554e+001 -9.700337e+001 -4.628450e+001 -1.012198e+002 -4.291521e+000 -1.088439e+002
21677775000 -4.489047e+000 1.182294e+002 -4.672176e+001 -9.929115e+001 -4.634832e+001 -1.035911e+002 -4.208324e+000 -1.099098e+002
21696518750 -4.488873e+000 1.175216e+002 -4.677563e+001 -1.013088e+002 -4.631947e+001 -1.042772e+002 -4.131650e+000 -1.109205e+002
21715262500 -4.490151e+000 1.168407e+002 -4.663863e+001 -1.040505e+002 -4.624488e+001 -1.064924e+002 -4.063672e+000 -1.119250e+002
21734006250 -4.499212e+000 1.161304e+002 -4.648907e+001 -1.062120e+002 -4.587778e+001 -1.044055e+002 -3.993544e+000 -1.129234e+002
21752750000 -4.503565e+000 1.154106e+002 -4.610944e+001 -1.059420e+002 -4.586352e+001 -1.039206e+002 -3.926269e+000 -1.139094e+002
21771493750 -4.512907e+000 1.146538e+002 -4.604626e+001 -1.063943e+002 -4.595498e+001 -1.051417e+002 -3.862268e+000 -1.148920e+002
21790237500 -4.519909e+000 1.139092e+002 -4.590303e+001 -1.074611e+002 -4.585758e+001 -1.076046e+002 -3.798841e+000 -1.158521e+002
21808981250 -4.518977e+000 1.132000e+002 -4.584672e+001 -1.097733e+002 -4.554580e+001 -1.083847e+002 -3.738567e+000 -1.167802e+002
21827725000 -4.522993e+000 1.125491e+002 -4.566805e+001 -1.107421e+002 -4.577013e+001 -1.060957e+002 -3.680762e+000 -1.177188e+002
21846468750 -4.529447e+000 1.118229e+002 -4.583004e+001 -1.122734e+002 -4.569785e+001 -1.074734e+002 -3.621424e+000 -1.186357e+002
21865212500 -4.539321e+000 1.110932e+002 -4.587686e+001 -1.119931e+002 -4.583961e+001 -1.084547e+002 -3.569294e+000 -1.195579e+002
21883956250 -4.548490e+000 1.103555e+002 -4.588857e+001 -1.134074e+002 -4.611189e+001 -1.084746e+002 -3.516026e+000 -1.204749e+002
21902700000 -4.554815e+000 1.095973e+002 -4.585659e+001 -1.148318e+002 -4.617728e+001 -1.099901e+002 -3.456723e+000 -1.213834e+002
21921443750 -4.559176e+000 1.088765e+002 -4.590740e+001 -1.152758e+002 -4.635652e+001 -1.129375e+002 -3.407029e+000 -1.222838e+002
21940187500 -4.572437e+000 1.081977e+002 -4.603353e+001 -1.153919e+002 -4.647540e+001 -1.143889e+002 -3.356576e+000 -1.231851e+002
21958931250 -4.584137e+000 1.074524e+002 -4.606843e+001 -1.154193e+002 -4.659610e+001 -1.146385e+002 -3.306340e+000 -1.240552e+002
21977675000 -4.595641e+000 1.067076e+002 -4.605584e+001 -1.161966e+002 -4.671897e+001 -1.148670e+002 -3.261307e+000 -1.249524e+002
21996418750 -4.604717e+000 1.059672e+002 -4.563913e+001 -1.193125e+002 -4.681414e+001 -1.172605e+002 -3.216777e+000 -1.258404e+002
22015162500 -4.611225e+000 1.051944e+002 -4.515545e+001 -1.177170e+002 -4.677051e+001 -1.177349e+002 -3.169804e+000 -1.267079e+002
22033906250 -4.620415e+000 1.044717e+002 -4.534074e+001 -1.188369e+002 -4.681349e+001 -1.185955e+002 -3.132740e+000 -1.275566e+002
22052650000 -4.634694e+000 1.037622e+002 -4.562413e+001 -1.192879e+002 -4.724280e+001 -1.170872e+002 -3.090401e+000 -1.284062e+002
22071393750 -4.647055e+000 1.030475e+002 -4.561637e+001 -1.196349e+002 -4.747191e+001 -1.181821e+002 -3.051742e+000 -1.292601e+002
22090137500 -4.655993e+000 1.023146e+002 -4.572484e+001 -1.183891e+002 -4.758047e+001 -1.196834e+002 -3.015171e+000 -1.301024e+002
22108881250 -4.672046e+000 1.015398e+002 -4.581585e+001 -1.173452e+002 -4.787652e+001 -1.189632e+002 -2.978276e+000 -1.309168e+002
22127625000 -4.678574e+000 1.007891e+002 -4.592848e+001 -1.180764e+002 -4.786744e+001 -1.186179e+002 -2.941090e+000 -1.317222e+002
22146368750 -4.693041e+000 1.000505e+002 -4.621229e+001 -1.165299e+002 -4.797276e+001 -1.183113e+002 -2.905001e+000 -1.325313e+002
22165112500 -4.706679e+000 9.933003e+001 -4.633698e+001 -1.178257e+002 -4.794686e+001 -1.180677e+002 -2.866531e+000 -1.333544e+002
22183856250 -4.719388e+000 9.855733e+001 -4.635112e+001 -1.178209e+002 -4.809942e+001 -1.187567e+002 -2.836334e+000 -1.341324e+002
22202600000 -4.732793e+000 9.783776e+001 -4.638155e+001 -1.180193e+002 -4.803949e+001 -1.182199e+002 -2.805172e+000 -1.349608e+002
22221343750 -4.751195e+000 9.703574e+001 -4.665363e+001 -1.180585e+002 -4.801594e+001 -1.191042e+002 -2.769539e+000 -1.357934e+002
22240087500 -4.764079e+000 9.627197e+001 -4.669564e+001 -1.175118e+002 -4.815482e+001 -1.197580e+002 -2.736860e+000 -1.365674e+002
22258831250 -4.777086e+000 9.551329e+001 -4.663285e+001 -1.191149e+002 -4.798000e+001 -1.236761e+002 -2.707792e+000 -1.373802e+002
22277575000 -4.797790e+000 9.477792e+001 -4.679655e+001 -1.190965e+002 -4.795966e+001 -1.245096e+002 -2.677382e+000 -1.381859e+002
22296318750 -4.814413e+000 9.404654e+001 -4.683529e+001 -1.213919e+002 -4.800627e+001 -1.257931e+002 -2.646762e+000 -1.389753e+002
22315062500 -4.830553e+000 9.328982e+001 -4.681156e+001 -1.205118e+002 -4.803613e+001 -1.253570e+002 -2.617760e+000 -1.397630e+002
22333806250 -4.844697e+000 9.251079e+001 -4.684621e+001 -1.209188e+002 -4.796090e+001 -1.260455e+002 -2.589751e+000 -1.405728e+002
22352550000 -4.854172e+000 9.173419e+001 -4.692688e+001 -1.209945e+002 -4.784502e+001 -1.268427e+002 -2.558229e+000 -1.413560e+002
22371293750 -4.864822e+000 9.103143e+001 -4.692807e+001 -1.208600e+002 -4.763297e+001 -1.272308e+002 -2.531914e+000 -1.421715e+002
22390037500 -4.885995e+000 9.026627e+001 -4.679858e+001 -1.219924e+002 -4.748518e+001 -1.267694e+002 -2.507165e+000 -1.429704e+002
22408781250 -4.897849e+000 8.950468e+001 -4.690088e+001 -1.218061e+002 -4.762095e+001 -1.268833e+002 -2.481818e+000 -1.437415e+002
22427525000 -4.918242e+000 8.875829e+001 -4.709975e+001 -1.213927e+002 -4.762765e+001 -1.278650e+002 -2.455621e+000 -1.445398e+002
22446268750 -4.934335e+000 8.795364e+001 -4.702804e+001 -1.215480e+002 -4.768616e+001 -1.276616e+002 -2.429157e+000 -1.453322e+002
22465012500 -4.943186e+000 8.719281e+001 -4.705450e+001 -1.219158e+002 -4.778953e+001 -1.272099e+002 -2.403795e+000 -1.461158e+002
22483756250 -4.965645e+000 8.644547e+001 -4.688973e+001 -1.221452e+002 -4.731997e+001 -1.295622e+002 -2.382287e+000 -1.469053e+002
22502500000 -4.981762e+000 8.562107e+001 -4.709124e+001 -1.229817e+002 -4.726712e+001 -1.291711e+002 -2.357682e+000 -1.476785e+002
22521243750 -4.998364e+000 8.482802e+001 -4.719192e+001 -1.253371e+002 -4.731494e+001 -1.293100e+002 -2.336359e+000 -1.484511e+002
22539987500 -5.015941e+000 8.401299e+001 -4.724878e+001 -1.264031e+002 -4.705480e+001 -1.291719e+002 -2.315835e+000 -1.492342e+002
22558731250 -5.029573e+000 8.316485e+001 -4.723199e+001 -1.261016e+002 -4.704095e+001 -1.288461e+002 -2.294324e+000 -1.499980e+002
22577475000 -5.042840e+000 8.242095e+001 -4.713712e+001 -1.271831e+002 -4.693277e+001 -1.299757e+002 -2.274247e+000 -1.507633e+002
22596218750 -5.054266e+000 8.164506e+001 -4.711029e+001 -1.258891e+002 -4.698318e+001 -1.307673e+002 -2.258555e+000 -1.515345e+002
22614962500 -5.080695e+000 8.085986e+001 -4.710379e+001 -1.257361e+002 -4.680079e+001 -1.318011e+002 -2.236058e+000 -1.523106e+002
22633706250 -5.098470e+000 8.001927e+001 -4.699159e+001 -1.253475e+002 -4.688920e+001 -1.315219e+002 -2.219929e+000 -1.530473e+002
22652450000 -5.111699e+000 7.924084e+001 -4.701154e+001 -1.255654e+002 -4.681539e+001 -1.307141e+002 -2.203365e+000 -1.538003e+002
22671193750 -5.139233e+000 7.840663e+001 -4.698454e+001 -1.273787e+002 -4.666249e+001 -1.300023e+002 -2.181962e+000 -1.545408e+002
22689937500 -5.146576e+000 7.758456e+001 -4.709272e+001 -1.274845e+002 -4.660215e+001 -1.297590e+002 -2.169585e+000 -1.552528e+002
22708681250 -5.163170e+000 7.686671e+001 -4.695029e+001 -1.267300e+002 -4.666369e+001 -1.293118e+002 -2.158245e+000 -1.560032e+002
22727425000 -5.187918e+000 7.605683e+001 -4.687616e+001 -1.263717e+002 -4.672248e+001 -1.300051e+002 -2.143485e+000 -1.567079e+002
22746168750 -5.202497e+000 7.518371e+001 -4.696217e+001 -1.267969e+002 -4.669601e+001 -1.312690e+002 -2.132187e+000 -1.574388e+002
22764912500 -5.221910e+000 7.443277e+001 -4.684227e+001 -1.257784e+002 -4.683212e+001 -1.312624e+002 -2.122710e+000 -1.581514e+002
22783656250 -5.245638e+000 7.359439e+001 -4.689160e+001 -1.259723e+002 -4.676952e+001 -1.298050e+002 -2.111705e+000 -1.588460e+002
22802400000 -5.252866e+000 7.274973e+001 -4.687526e+001 -1.271345e+002 -4.690681e+001 -1.286892e+002 -2.104886e+000 -1.595289e+002
22821143750 -5.273727e+000 7.201567e+001 -4.690157e+001 -1.277797e+002 -4.699492e+001 -1.303650e+002 -2.091535e+000 -1.602379e+002
22839887500 -5.309885e+000 7.113899e+001 -4.686219e+001 -1.278270e+002 -4.686895e+001 -1.313268e+002 -2.083092e+000 -1.609169e+002
22858631250 -5.325375e+000 7.029562e+001 -4.674172e+001 -1.284884e+002 -4.663865e+001 -1.300833e+002 -2.076164e+000 -1.616096e+002
22877375000 -5.346919e+000 6.949603e+001 -4.659878e+001 -1.288972e+002 -4.643201e+001 -1.324303e+002 -2.067119e+000 -1.622836e+002
22896118750 -5.373114e+000 6.859602e+001 -4.653997e+001 -1.291586e+002 -4.615924e+001 -1.337094e+002 -2.058029e+000 -1.629588e+002
22914862500 -5.374421e+000 6.782280e+001 -4.655902e+001 -1.308577e+002 -4.623434e+001 -1.332860e+002 -2.050431e+000 -1.636240e+002
22933606250 -5.407848e+000 6.710896e+001 -4.631476e+001 -1.315192e+002 -4.610396e+001 -1.338233e+002 -2.042010e+000 -1.642826e+002
22952350000 -5.432632e+000 6.622490e+001 -4.608187e+001 -1.311559e+002 -4.634661e+001 -1.325686e+002 -2.036443e+000 -1.649297e+002
22971093750 -5.444798e+000 6.540449e+001 -4.596682e+001 -1.308619e+002 -4.613259e+001 -1.337410e+002 -2.029886e+000 -1.655992e+002
22989837500 -5.474950e+000 6.460542e+001 -4.577521e+001 -1.319886e+002 -4.623672e+001 -1.334702e+002 -2.021959e+000 -1.662640e+002
23008581250 -5.493050e+000 6.363998e+001 -4.562485e+001 -1.332265e+002 -4.627859e+001 -1.331313e+002 -2.016325e+000 -1.669147e+002
23027325000 -5.506235e+000 6.282578e+001 -4.550740e+001 -1.347467e+002 -4.637933e+001 -1.336981e+002 -2.010031e+000 -1.675473e+002
23046068750 -5.534604e+000 6.202266e+001 -4.560730e+001 -1.362066e+002 -4.640337e+001 -1.341866e+002 -2.007479e+000 -1.681706e+002
23064812500 -5.562618e+000 6.112844e+001 -4.575351e+001 -1.379423e+002 -4.618387e+001 -1.364283e+002 -2.005160e+000 -1.688141e+002
23083556250 -5.588591e+000 6.028751e+001 -4.556226e+001 -1.380882e+002 -4.608770e+001 -1.373551e+002 -2.000626e+000 -1.694482e+002
23102300000 -5.612540e+000 5.938622e+001 -4.559203e+001 -1.372825e+002 -4.618480e+001 -1.404124e+002 -1.999509e+000 -1.700757e+002
23121043750 -5.638223e+000 5.847511e+001 -4.551386e+001 -1.377869e+002 -4.609912e+001 -1.406062e+002 -1.995140e+000 -1.707070e+002
23139787500 -5.650575e+000 5.762241e+001 -4.561368e+001 -1.403185e+002 -4.601814e+001 -1.400977e+002 -1.987794e+000 -1.713036e+002
23158531250 -5.680324e+000 5.677433e+001 -4.565068e+001 -1.420021e+002 -4.598486e+001 -1.412075e+002 -1.986683e+000 -1.719275e+002
23177275000 -5.708814e+000 5.589436e+001 -4.568808e+001 -1.445392e+002 -4.595567e+001 -1.427095e+002 -1.985069e+000 -1.725310e+002
23196018750 -5.733831e+000 5.495887e+001 -4.568571e+001 -1.481830e+002 -4.585742e+001 -1.436153e+002 -1.979935e+000 -1.731376e+002
23214762500 -5.760161e+000 5.403261e+001 -4.554003e+001 -1.493168e+002 -4.582347e+001 -1.440019e+002 -1.976068e+000 -1.737346e+002
23233506250 -5.783568e+000 5.309284e+001 -4.569978e+001 -1.512543e+002 -4.563513e+001 -1.455438e+002 -1.972318e+000 -1.743321e+002
23252250000 -5.797143e+000 5.225056e+001 -4.568651e+001 -1.530929e+002 -4.569017e+001 -1.454875e+002 -1.967427e+000 -1.749104e+002
23270993750 -5.822855e+000 5.141290e+001 -4.607436e+001 -1.547062e+002 -4.562495e+001 -1.466600e+002 -1.963391e+000 -1.754819e+002
23289737500 -5.850222e+000 5.045687e+001 -4.605909e+001 -1.560953e+002 -4.587841e+001 -1.470422e+002 -1.961442e+000 -1.760665e+002
23308481250 -5.877532e+000 4.954290e+001 -4.631291e+001 -1.572086e+002 -4.607106e+001 -1.460575e+002 -1.957422e+000 -1.766464e+002
23327225000 -5.900335e+000 4.861193e+001 -4.657590e+001 -1.572615e+002 -4.620337e+001 -1.487078e+002 -1.955716e+000 -1.772173e+002
23345968750 -5.923070e+000 4.759835e+001 -4.663499e+001 -1.595074e+002 -4.628898e+001 -1.511573e+002 -1.951513e+000 -1.778007e+002
23364712500 -5.938992e+000 4.667274e+001 -4.687509e+001 -1.609620e+002 -4.632389e+001 -1.530645e+002 -1.948111e+000 -1.783711e+002
23383456250 -5.972130e+000 4.580865e+001 -4.732302e+001 -1.627300e+002 -4.622217e+001 -1.551109e+002 -1.945253e+000 -1.789282e+002
23402200000 -6.002913e+000 4.485737e+001 -4.761932e+001 -1.640161e+002 -4.654625e+001 -1.568396e+002 -1.945035e+000 -1.795006e+002
23420943750 -6.026443e+000 4.391896e+001 -4.766639e+001 -1.648177e+002 -4.665791e+001 -1.575842e+002 -1.940765e+000 1.799534e+002
23439687500 -6.057858e+000 4.296460e+001 -4.785700e+001 -1.632389e+002 -4.649845e+001 -1.596272e+002 -1.939419e+000 1.793991e+002
23458431250 -6.083576e+000 4.199605e+001 -4.816130e+001 -1.619898e+002 -4.646325e+001 -1.611829e+002 -1.935781e+000 1.788215e+002
23477175000 -6.099970e+000 4.110345e+001 -4.819071e+001 -1.624940e+002 -4.656618e+001 -1.601576e+002 -1.930278e+000 1.782764e+002
23495918750 -6.124026e+000 4.018521e+001 -4.812382e+001 -1.626689e+002 -4.680935e+001 -1.603949e+002 -1.929246e+000 1.777359e+002
23514662500 -6.150445e+000 3.919435e+001 -4.821050e+001 -1.642704e+002 -4.695715e+001 -1.618686e+002 -1.927555e+000 1.771882e+002
23533406250 -6.173514e+000 3.827152e+001 -4.835463e+001 -1.642539e+002 -4.697894e+001 -1.622731e+002 -1.926098e+000 1.766548e+002
23552150000 -6.196323e+000 3.726821e+001 -4.863431e+001 -1.652683e+002 -4.705130e+001 -1.629246e+002 -1.927138e+000 1.760933e+002
23570893750 -6.217943e+000 3.626608e+001 -4.884681e+001 -1.606042e+002 -4.753991e+001 -1.669426e+002 -1.924566e+000 1.755419e+002
23589637500 -6.233673e+000 3.535811e+001 -4.898470e+001 -1.608505e+002 -4.754726e+001 -1.691016e+002 -1.919847e+000 1.750256e+002
23608381250 -6.266592e+000 3.440576e+001 -4.909966e+001 -1.601728e+002 -4.774687e+001 -1.698922e+002 -1.919792e+000 1.744706e+002
23627125000 -6.291018e+000 3.338824e+001 -4.922256e+001 -1.584725e+002 -4.782587e+001 -1.707238e+002 -1.915063e+000 1.739242e+002
23645868750 -6.315147e+000 3.240978e+001 -4.928609e+001 -1.588176e+002 -4.825089e+001 -1.702083e+002 -1.916038e+000 1.733919e+002
23664612500 -6.348547e+000 3.140553e+001 -4.916708e+001 -1.592152e+002 -4.872500e+001 -1.702558e+002 -1.915422e+000 1.728465e+002
23683356250 -6.369077e+000 3.033008e+001 -4.923958e+001 -1.577662e+002 -4.863198e+001 -1.699211e+002 -1.912513e+000 1.722780e+002
23702100000 -6.390812e+000 2.937522e+001 -4.906877e+001 -1.595196e+002 -4.867230e+001 -1.674357e+002 -1.910532e+000 1.717546e+002
23720843750 -6.421117e+000 2.840730e+001 -4.919499e+001 -1.581697e+002 -4.884239e+001 -1.700989e+002 -1.908560e+000 1.712041e+002
23739587500 -6.450273e+000 2.734380e+001 -4.934795e+001 -1.604907e+002 -4.911814e+001 -1.712135e+002 -1.903820e+000 1.706703e+002
23758331250 -6.479470e+000 2.630914e+001 -4.927215e+001 -1.619514e+002 -4.930624e+001 -1.727280e+002 -1.905330e+000 1.701394e+002
23777075000 -6.508886e+000 2.524351e+001 -4.925508e+001 -1.611511e+002 -4.923473e+001 -1.722140e+002 -1.906564e+000 1.695942e+002
23795818750 -6.524858e+000 2.418912e+001 -4.920135e+001 -1.595706e+002 -4.928775e+001 -1.736335e+002 -1.901950e+000 1.690501e+002
23814562500 -6.549219e+000 2.317905e+001 -4.912380e+001 -1.618112e+002 -4.982609e+001 -1.757906e+002 -1.902873e+000 1.685178e+002
23833306250 -6.583980e+000 2.215475e+001 -4.898874e+001 -1.642956e+002 -4.959555e+001 -1.747062e+002 -1.900477e+000 1.679709e+002
23852050000 -6.613434e+000 2.107480e+001 -4.920722e+001 -1.664421e+002 -4.940939e+001 -1.760890e+002 -1.896574e+000 1.674327e+002
23870793750 -6.637367e+000 2.004833e+001 -4.901191e+001 -1.685141e+002 -4.999137e+001 -1.739219e+002 -1.894446e+000 1.669135e+002
23889537500 -6.667602e+000 1.893505e+001 -4.882007e+001 -1.711470e+002 -5.015923e+001 -1.757561e+002 -1.892509e+000 1.663635e+002
23908281250 -6.690283e+000 1.786957e+001 -4.883857e+001 -1.726160e+002 -5.010167e+001 -1.775675e+002 -1.888203e+000 1.658449e+002
23927025000 -6.721185e+000 1.688855e+001 -4.894278e+001 -1.740774e+002 -5.049303e+001 -1.794649e+002 -1.886947e+000 1.653191e+002
23945768750 -6.749397e+000 1.582241e+001 -4.947441e+001 -1.728581e+002 -5.054261e+001 -1.779154e+002 -1.887799e+000 1.647754e+002
23964512500 -6.776176e+000 1.473269e+001 -4.940704e+001 -1.732833e+002 -5.077201e+001 -1.758571e+002 -1.880883e+000 1.642483e+002
23983256250 -6.809397e+000 1.365706e+001 -4.922185e+001 -1.728761e+002 -5.105100e+001 -1.734259e+002 -1.880986e+000 1.637281e+002
24002000000 -6.836805e+000 1.251712e+001 -4.900544e+001 -1.783635e+002 -5.112603e+001 -1.719302e+002 -1.878600e+000 1.631511e+002
24020743750 -6.859290e+000 1.140288e+001 -4.883907e+001 -1.781998e+002 -5.115567e+001 -1.696166e+002 -1.877168e+000 1.626241e+002
24039487500 -6.887864e+000 1.036100e+001 -4.890184e+001 1.797071e+002 -5.095903e+001 -1.708630e+002 -1.878985e+000 1.621089e+002
24058231250 -6.917597e+000 9.322000e+000 -4.917439e+001 1.774878e+002 -5.093873e+001 -1.722112e+002 -1.880543e+000 1.615491e+002
24076975000 -6.947315e+000 8.257815e+000 -4.935152e+001 1.744239e+002 -5.065217e+001 -1.737243e+002 -1.876988e+000 1.610231e+002
24095718750 -6.972227e+000 7.113247e+000 -5.053825e+001 1.652976e+002 -5.045528e+001 -1.732690e+002 -1.882432e+000 1.604931e+002
24114462500 -7.002035e+000 5.994875e+000 -5.079327e+001 1.495042e+002 -5.077132e+001 -1.742701e+002 -1.883234e+000 1.599694e+002
24133206250 -7.022631e+000 4.879620e+000 -5.081113e+001 1.334130e+002 -5.120748e+001 -1.763095e+002 -1.881042e+000 1.594490e+002
24151950000 -7.048076e+000 3.787109e+000 -5.079149e+001 1.164578e+002 -5.117218e+001 -1.746095e+002 -1.889101e+000 1.589364e+002
24170693750 -7.081177e+000 2.692019e+000 -5.049527e+001 1.002922e+002 -5.129180e+001 -1.773454e+002 -1.893745e+000 1.583906e+002
24189437500 -7.110540e+000 1.580828e+000 -5.069955e+001 8.731994e+001 -5.122599e+001 -1.738256e+002 -1.893746e+000 1.578998e+002
24208181250 -7.142177e+000 4.488828e-001 -5.071621e+001 6.997697e+001 -5.143608e+001 -1.732344e+002 -1.898365e+000 1.573761e+002
24226925000 -7.169453e+000 -7.177316e-001 -5.088678e+001 5.283688e+001 -5.132836e+001 -1.736628e+002 -1.900203e+000 1.568419e+002
24245668750 -7.192182e+000 -1.858151e+000 -5.069533e+001 3.780833e+001 -5.071214e+001 -1.727573e+002 -1.899878e+000 1.563586e+002
24264412500 -7.216116e+000 -2.975916e+000 -5.088626e+001 2.481461e+001 -5.185567e+001 1.779489e+002 -1.906660e+000 1.558532e+002
24283156250 -7.247151e+000 -4.109015e+000 -5.089451e+001 1.157416e+001 -5.194017e+001 1.758512e+002 -1.910398e+000 1.553355e+002
24301900000 -7.275725e+000 -5.258521e+000 -5.127155e+001 -5.683962e+000 -5.162416e+001 1.716007e+002 -1.913461e+000 1.548506e+002
24320643750 -7.305231e+000 -6.433510e+000 -5.161222e+001 -2.616133e+001 -5.158931e+001 1.721317e+002 -1.924827e+000 1.543307e+002
24339387500 -7.327974e+000 -7.641993e+000 -5.171698e+001 -4.049160e+001 -5.156585e+001 1.694813e+002 -1.926018e+000 1.537867e+002
24358131250 -7.346320e+000 -8.840687e+000 -5.180835e+001 -5.489767e+001 -5.115202e+001 1.734443e+002 -1.929639e+000 1.533219e+002
24376875000 -7.374652e+000 -9.988242e+000 -5.137003e+001 -7.287738e+001 -5.152979e+001 1.747819e+002 -1.936705e+000 1.528089e+002
24395618750 -7.399695e+000 -1.118337e+001 -5.151781e+001 -9.160804e+001 -5.150559e+001 1.725861e+002 -1.937856e+000 1.522581e+002
24414362500 -7.423145e+000 -1.236521e+001 -5.147782e+001 -1.073110e+002 -5.129092e+001 1.709137e+002 -1.940094e+000 1.517788e+002
24433106250 -7.452136e+000 -1.354578e+001 -5.192037e+001 -1.210922e+002 -5.096229e+001 1.688288e+002 -1.945510e+000 1.512684e+002
24451850000 -7.471520e+000 -1.479612e+001 -5.240284e+001 -1.348195e+002 -5.096629e+001 1.682020e+002 -1.943021e+000 1.507305e+002
24470593750 -7.486568e+000 -1.596942e+001 -5.258296e+001 -1.494102e+002 -5.100445e+001 1.696637e+002 -1.940614e+000 1.502574e+002
24489337500 -7.513912e+000 -1.718275e+001 -5.268020e+001 -1.668768e+002 -5.115026e+001 1.691626e+002 -1.946270e+000 1.497465e+002
24508081250 -7.539165e+000 -1.844770e+001 -5.278143e+001 -1.791230e+002 -5.126236e+001 1.698727e+002 -1.947258e+000 1.492385e+002
24526825000 -7.561763e+000 -1.966296e+001 -5.217299e+001 1.785981e+002 -5.139489e+001 1.674550e+002 -1.948929e+000 1.487770e+002
24545568750 -7.585048e+000 -2.093293e+001 -5.214090e+001 1.784136e+002 -5.150003e+001 1.583794e+002 -1.955917e+000 1.482563e+002
24564312500 -7.598947e+000 -2.219152e+001 -5.213271e+001 1.785581e+002 -5.128710e+001 1.556400e+002 -1.951368e+000 1.477317e+002
24583056250 -7.619485e+000 -2.340742e+001 -5.253500e+001 1.792604e+002 -5.123860e+001 1.535323e+002 -1.948129e+000 1.472619e+002
24601800000 -7.635805e+000 -2.462957e+001 -5.288837e+001 -1.792775e+002 -5.109793e+001 1.535392e+002 -1.950366e+000 1.467136e+002
24620543750 -7.655472e+000 -2.588618e+001 -5.280185e+001 1.789346e+002 -5.137457e+001 1.539231e+002 -1.946068e+000 1.462113e+002
24639287500 -7.672664e+000 -2.713480e+001 -5.294027e+001 -1.785163e+002 -5.171666e+001 1.540108e+002 -1.948677e+000 1.457385e+002
24658031250 -7.693461e+000 -2.841848e+001 -5.334920e+001 -1.728419e+002 -5.225498e+001 1.590682e+002 -1.953628e+000 1.451809e+002
24676775000 -7.708209e+000 -2.969147e+001 -5.357119e+001 -1.588141e+002 -5.228851e+001 1.595732e+002 -1.949270e+000 1.446690e+002
24695518750 -7.720966e+000 -3.093487e+001 -5.357116e+001 -1.486607e+002 -5.155536e+001 1.649129e+002 -1.951960e+000 1.441792e+002
24714262500 -7.739716e+000 -3.219850e+001 -5.365267e+001 -1.327708e+002 -5.198937e+001 1.684201e+002 -1.954467e+000 1.436375e+002
24733006250 -7.752532e+000 -3.351726e+001 -5.375512e+001 -1.128611e+002 -5.213643e+001 1.710637e+002 -1.947691e+000 1.431245e+002
24751750000 -7.764268e+000 -3.476965e+001 -5.352942e+001 -9.110908e+001 -5.285402e+001 1.745850e+002 -1.947999e+000 1.426789e+002
24770493750 -7.781406e+000 -3.605069e+001 -5.466745e+001 -8.053673e+001 -5.316354e+001 1.731198e+002 -1.949673e+000 1.421527e+002
24789237500 -7.794209e+000 -3.735338e+001 -5.480276e+001 -6.548093e+001 -5.379189e+001 1.613813e+002 -1.945145e+000 1.416479e+002
24807981250 -7.801839e+000 -3.862949e+001 -5.491906e+001 -4.316761e+001 -5.351352e+001 1.470719e+002 -1.949746e+000 1.411889e+002
24826725000 -7.820659e+000 -3.992938e+001 -5.491255e+001 -2.322375e+001 -5.378853e+001 1.395931e+002 -1.952502e+000 1.406641e+002
24845468750 -7.832925e+000 -4.124381e+001 -5.513033e+001 -9.029712e+000 -5.383202e+001 1.364798e+002 -1.948951e+000 1.402030e+002
24864212500 -7.842573e+000 -4.256549e+001 -5.496538e+001 6.441808e+000 -5.412390e+001 1.345203e+002 -1.955910e+000 1.397096e+002
24882956250 -7.858597e+000 -4.390062e+001 -5.486226e+001 1.928868e+001 -5.434103e+001 1.360027e+002 -1.954978e+000 1.391956e+002
24901700000 -7.867099e+000 -4.519901e+001 -5.466687e+001 3.945831e+001 -5.471801e+001 1.369227e+002 -1.949371e+000 1.387324e+002
24920443750 -7.879779e+000 -4.648053e+001 -5.490186e+001 6.152339e+001 -5.486340e+001 1.425234e+002 -1.950903e+000 1.382458e+002
24939187500 -7.893709e+000 -4.781339e+001 -5.467585e+001 7.754223e+001 -5.492161e+001 1.425692e+002 -1.939887e+000 1.376870e+002
24957931250 -7.904380e+000 -4.915242e+001 -5.466398e+001 9.158637e+001 -5.541339e+001 1.396737e+002 -1.928818e+000 1.371769e+002
24976675000 -7.912569e+000 -5.046217e+001 -5.467152e+001 1.072309e+002 -5.580742e+001 1.441987e+002 -1.928765e+000 1.366783e+002
24995418750 -7.920068e+000 -5.182703e+001 -5.471802e+001 1.230449e+002 -5.578658e+001 1.437404e+002 -1.925889e+000 1.361228e+002
25014162500 -7.917611e+000 -5.313630e+001 -5.441014e+001 1.372845e+002 -5.590993e+001 1.442666e+002 -1.925262e+000 1.355922e+002
25032906250 -7.926106e+000 -5.444805e+001 -5.453005e+001 1.556150e+002 -5.581786e+001 1.507727e+002 -1.925861e+000 1.350678e+002
25051650000 -7.929854e+000 -5.578592e+001 -5.436877e+001 1.704567e+002 -5.572725e+001 1.498440e+002 -1.915539e+000 1.344502e+002
25070393750 -7.933774e+000 -5.713021e+001 -5.447944e+001 -1.729065e+002 -5.531372e+001 1.519973e+002 -1.910847e+000 1.339544e+002
25089137500 -7.942424e+000 -5.847577e+001 -5.456972e+001 -1.681876e+002 -5.542260e+001 1.455294e+002 -1.912964e+000 1.334581e+002
25107881250 -7.943682e+000 -5.983096e+001 -5.441290e+001 -1.642731e+002 -5.567900e+001 1.407879e+002 -1.910161e+000 1.329159e+002
25126625000 -7.941783e+000 -6.114061e+001 -5.438687e+001 -1.603456e+002 -5.560514e+001 1.462539e+002 -1.909906e+000 1.324082e+002
25145368750 -7.943784e+000 -6.247543e+001 -5.449603e+001 -1.546854e+002 -5.521283e+001 1.465199e+002 -1.917768e+000 1.318470e+002
25164112500 -7.947996e+000 -6.381197e+001 -5.431732e+001 -1.434037e+002 -5.508595e+001 1.440856e+002 -1.917518e+000 1.312801e+002
25182856250 -7.947113e+000 -6.515277e+001 -5.436036e+001 -1.290382e+002 -5.436785e+001 1.415832e+002 -1.921165e+000 1.307646e+002
25201600000 -7.948094e+000 -6.651777e+001 -5.382360e+001 -1.163870e+002 -5.429891e+001 1.456902e+002 -1.927736e+000 1.302303e+002
25220343750 -7.942738e+000 -6.784498e+001 -5.356600e+001 -1.156530e+002 -5.367572e+001 1.540739e+002 -1.927541e+000 1.296819e+002
25239087500 -7.941999e+000 -6.915387e+001 -5.395856e+001 -1.223429e+002 -5.386798e+001 1.687366e+002 -1.931044e+000 1.291718e+002
25257831250 -7.939395e+000 -7.049039e+001 -5.388885e+001 -1.231055e+002 -5.341972e+001 1.757978e+002 -1.941150e+000 1.286340e+002
25276575000 -7.939106e+000 -7.181889e+001 -5.385312e+001 -1.249571e+002 -5.404420e+001 -1.787525e+002 -1.935469e+000 1.280853e+002
25295318750 -7.939854e+000 -7.315288e+001 -5.355019e+001 -1.273675e+002 -5.386752e+001 -1.735222e+002 -1.941115e+000 1.276205e+002
25314062500 -7.932645e+000 -7.449931e+001 -5.322518e+001 -1.266070e+002 -5.386470e+001 -1.761225e+002 -1.951436e+000 1.270773e+002
25332806250 -7.924208e+000 -7.583873e+001 -5.320118e+001 -1.319259e+002 -5.346413e+001 -1.766147e+002 -1.956091e+000 1.265541e+002
25351550000 -7.915810e+000 -7.714157e+001 -5.274916e+001 -1.375887e+002 -5.312691e+001 1.788455e+002 -1.971499e+000 1.260903e+002
25370293750 -7.910442e+000 -7.841447e+001 -5.276027e+001 -1.413489e+002 -5.285685e+001 1.772254e+002 -1.987113e+000 1.255562e+002
25389037500 -7.902572e+000 -7.969354e+001 -5.232437e+001 -1.446011e+002 -5.235888e+001 -1.789486e+002 -2.001788e+000 1.250226e+002
25407781250 -7.893276e+000 -8.104164e+001 -5.216023e+001 -1.469373e+002 -5.178022e+001 -1.752964e+002 -2.004703e+000 1.245703e+002
25426525000 -7.881528e+000 -8.232541e+001 -5.211167e+001 -1.493852e+002 -5.177014e+001 -1.739065e+002 -2.027145e+000 1.241174e+002
25445268750 -7.875772e+000 -8.364562e+001 -5.238449e+001 -1.482100e+002 -5.160546e+001 -1.741224e+002 -2.035952e+000 1.236205e+002
25464012500 -7.865432e+000 -8.493278e+001 -5.190898e+001 -1.533171e+002 -5.174150e+001 1.796663e+002 -2.048325e+000 1.232025e+002
25482756250 -7.855843e+000 -8.623721e+001 -5.209633e+001 -1.538220e+002 -5.179316e+001 1.770058e+002 -2.071933e+000 1.228452e+002
25501500000 -7.849729e+000 -8.750494e+001 -5.205283e+001 -1.596393e+002 -5.170334e+001 1.743395e+002 -2.085542e+000 1.223003e+002
25520243750 -7.832322e+000 -8.882173e+001 -5.138993e+001 -1.587577e+002 -5.132383e+001 1.752887e+002 -2.082339e+000 1.218967e+002
25538987500 -7.810612e+000 -9.011636e+001 -5.183890e+001 -1.618306e+002 -5.114714e+001 1.772049e+002 -2.106403e+000 1.214950e+002
25557731250 -7.803875e+000 -9.139412e+001 -5.188816e+001 -1.644794e+002 -5.097941e+001 1.693906e+002 -2.118428e+000 1.209912e+002
25576475000 -7.791372e+000 -9.269083e+001 -5.208797e+001 1.786011e+002 -5.095237e+001 1.624489e+002 -2.117119e+000 1.206114e+002
25595218750 -7.779246e+000 -9.395813e+001 -5.204666e+001 1.605593e+002 -5.091927e+001 1.599207e+002 -2.144729e+000 1.202069e+002
25613962500 -7.775358e+000 -9.524857e+001 -5.200293e+001 1.405125e+002 -5.127881e+001 1.593043e+002 -2.151515e+000 1.196853e+002
25632706250 -7.755567e+000 -9.659474e+001 -5.142029e+001 1.265400e+002 -5.194061e+001 1.574235e+002 -2.154500e+000 1.192936e+002
25651450000 -7.732110e+000 -9.785718e+001 -5.156655e+001 1.224260e+002 -5.216646e+001 1.514830e+002 -2.180635e+000 1.189010e+002
25670193750 -7.720234e+000 -9.912183e+001 -5.187529e+001 1.203860e+002 -5.231289e+001 1.361469e+002 -2.185101e+000 1.183833e+002
25688937500 -7.705238e+000 -1.003932e+002 -5.191848e+001 1.149519e+002 -5.284849e+001 1.311705e+002 -2.187694e+000 1.180279e+002
25707681250 -7.686426e+000 -1.016491e+002 -5.275846e+001 1.125272e+002 -5.235390e+001 1.186546e+002 -2.215315e+000 1.175632e+002
25726425000 -7.673491e+000 -1.029426e+002 -5.302016e+001 1.141616e+002 -5.271404e+001 1.153681e+002 -2.222674e+000 1.170632e+002
25745168750 -7.648605e+000 -1.042266e+002 -5.336047e+001 1.076307e+002 -5.268212e+001 1.150938e+002 -2.230272e+000 1.167057e+002
25763912500 -7.624511e+000 -1.054732e+002 -5.386391e+001 1.064020e+002 -5.286732e+001 1.109981e+002 -2.258991e+000 1.162745e+002
25782656250 -7.605769e+000 -1.067202e+002 -5.398363e+001 1.035645e+002 -5.325632e+001 1.091806e+002 -2.261230e+000 1.158023e+002
25801400000 -7.581774e+000 -1.079449e+002 -5.420710e+001 1.062819e+002 -5.354190e+001 1.064590e+002 -2.273927e+000 1.154764e+002
25820143750 -7.564575e+000 -1.091424e+002 -5.437484e+001 1.013850e+002 -5.339103e+001 1.037747e+002 -2.290365e+000 1.150471e+002
25838887500 -7.550389e+000 -1.103851e+002 -5.487243e+001 1.024546e+002 -5.367923e+001 1.091871e+002 -2.304852e+000 1.145550e+002
25857631250 -7.528590e+000 -1.116502e+002 -5.524702e+001 1.018800e+002 -5.396984e+001 1.201821e+002 -2.308259e+000 1.141537e+002
25876375000 -7.505396e+000 -1.128131e+002 -5.532578e+001 9.126803e+001 -5.408900e+001 1.277958e+002 -2.331985e+000 1.137721e+002
25895118750 -7.484375e+000 -1.140172e+002 -5.599137e+001 8.888051e+001 -5.433999e+001 1.393763e+002 -2.341293e+000 1.133101e+002
25913862500 -7.465976e+000 -1.151712e+002 -5.601284e+001 8.983816e+001 -5.430251e+001 1.538660e+002 -2.350158e+000 1.128555e+002
25932606250 -7.443798e+000 -1.163401e+002 -5.628062e+001 9.384148e+001 -5.436082e+001 1.701157e+002 -2.366577e+000 1.124612e+002
25951350000 -7.425207e+000 -1.175463e+002 -5.684422e+001 1.009075e+002 -5.452959e+001 -1.732957e+002 -2.388669e+000 1.119682e+002
25970093750 -7.406322e+000 -1.187368e+002 -5.679190e+001 1.084850e+002 -5.479926e+001 -1.550271e+002 -2.396199e+000 1.115295e+002
25988837500 -7.376841e+000 -1.199175e+002 -5.672147e+001 1.246876e+002 -5.526334e+001 -1.378155e+002 -2.414910e+000 1.111588e+002
26007581250 -7.351872e+000 -1.210857e+002 -5.667782e+001 1.502297e+002 -5.582780e+001 -1.287358e+002 -2.437780e+000 1.106671e+002
26026325000 -7.325947e+000 -1.222046e+002 -5.685711e+001 1.722465e+002 -5.597163e+001 -1.278090e+002 -2.444227e+000 1.102378e+002
26045068750 -7.294928e+000 -1.233633e+002 -5.698931e+001 -1.594552e+002 -5.630890e+001 -1.284576e+002 -2.466975e+000 1.098316e+002
26063812500 -7.269871e+000 -1.245007e+002 -5.756304e+001 -1.311136e+002 -5.588348e+001 -1.307326e+002 -2.487425e+000 1.093651e+002
26082556250 -7.244883e+000 -1.256727e+002 -5.801423e+001 -1.002775e+002 -5.569099e+001 -1.292399e+002 -2.494310e+000 1.089657e+002
26101300000 -7.214058e+000 -1.267657e+002 -5.749273e+001 -6.451729e+001 -5.541179e+001 -1.227182e+002 -2.520811e+000 1.085961e+002
26120043750 -7.185319e+000 -1.278657e+002 -5.795705e+001 -3.089893e+001 -5.502489e+001 -1.155887e+002 -2.541042e+000 1.081278e+002
26138787500 -7.161923e+000 -1.289610e+002 -5.730497e+001 -3.447218e+000 -5.520484e+001 -1.082152e+002 -2.555650e+000 1.077245e+002
26157531250 -7.136858e+000 -1.300710e+002 -5.734450e+001 2.620553e+001 -5.473196e+001 -1.015154e+002 -2.578525e+000 1.072888e+002
26176275000 -7.118927e+000 -1.311633e+002 -5.742308e+001 5.601807e+001 -5.465734e+001 -9.523662e+001 -2.593451e+000 1.068019e+002
26195018750 -7.087488e+000 -1.322849e+002 -5.712817e+001 7.869978e+001 -5.457718e+001 -8.138650e+001 -2.605891e+000 1.064065e+002
26213762500 -7.058813e+000 -1.334096e+002 -5.732359e+001 1.006913e+002 -5.467567e+001 -7.609856e+001 -2.632807e+000 1.059650e+002
26232506250 -7.031476e+000 -1.345078e+002 -5.733389e+001 1.224505e+002 -5.497754e+001 -7.125727e+001 -2.649083e+000 1.054896e+002
26251250000 -7.003780e+000 -1.356134e+002 -5.765432e+001 1.483912e+002 -5.521207e+001 -6.887731e+001 -2.666993e+000 1.050782e+002
26269993750 -6.977748e+000 -1.366713e+002 -5.738628e+001 1.646631e+002 -5.524374e+001 -7.633626e+001 -2.688369e+000 1.046475e+002
26288737500 -6.949130e+000 -1.377623e+002 -5.726015e+001 -1.732031e+002 -5.568067e+001 -8.915178e+001 -2.704059e+000 1.041679e+002
26307481250 -6.916123e+000 -1.388862e+002 -5.732331e+001 -1.373551e+002 -5.571106e+001 -1.035318e+002 -2.716876e+000 1.037457e+002
26326225000 -6.883102e+000 -1.399597e+002 -5.726876e+001 -1.034799e+002 -5.548831e+001 -1.186996e+002 -2.748493e+000 1.032824e+002
26344968750 -6.848151e+000 -1.410172e+002 -5.769333e+001 -8.079144e+001 -5.545333e+001 -1.315497e+002 -2.770029e+000 1.028017e+002
26363712500 -6.819155e+000 -1.420784e+002 -5.757541e+001 -4.992415e+001 -5.562978e+001 -1.518498e+002 -2.788817e+000 1.023605e+002
26382456250 -6.792862e+000 -1.431181e+002 -5.713708e+001 -2.077081e+001 -5.542859e+001 -1.714853e+002 -2.813918e+000 1.019018e+002
26401200000 -6.759847e+000 -1.441897e+002 -5.694476e+001 7.966908e+000 -5.533995e+001 1.677524e+002 -2.827914e+000 1.013990e+002
26419943750 -6.725214e+000 -1.452506e+002 -5.753109e+001 2.866256e+001 -5.473083e+001 1.446005e+002 -2.850789e+000 1.009778e+002
26438687500 -6.691939e+000 -1.462288e+002 -5.732643e+001 4.331939e+001 -5.424766e+001 1.261801e+002 -2.875519e+000 1.005333e+002
26457431250 -6.663736e+000 -1.472427e+002 -5.748203e+001 5.942949e+001 -5.419498e+001 1.165708e+002 -2.895446e+000 1.000502e+002
26476175000 -6.637179e+000 -1.482468e+002 -5.815541e+001 6.529552e+001 -5.374495e+001 1.068163e+002 -2.920176e+000 9.959219e+001
26494918750 -6.609988e+000 -1.492600e+002 -5.797493e+001 7.801276e+001 -5.367995e+001 9.672488e+001 -2.942674e+000 9.906047e+001
26513662500 -6.584484e+000 -1.502921e+002 -5.777096e+001 8.842142e+001 -5.403809e+001 9.044300e+001 -2.958028e+000 9.851713e+001
26532406250 -6.554229e+000 -1.513447e+002 -5.771212e+001 8.590125e+001 -5.422513e+001 9.100734e+001 -2.976361e+000 9.808138e+001
26551150000 -6.525046e+000 -1.523185e+002 -5.783037e+001 8.360708e+001 -5.473307e+001 9.258588e+001 -3.000434e+000 9.757714e+001
26569893750 -6.496681e+000 -1.532963e+002 -5.792548e+001 8.324324e+001 -5.456977e+001 9.555053e+001 -3.017591e+000 9.708363e+001
26588637500 -6.468605e+000 -1.542606e+002 -5.779440e+001 8.098152e+001 -5.449843e+001 9.486644e+001 -3.039539e+000 9.664303e+001
26607381250 -6.436734e+000 -1.552370e+002 -5.804029e+001 8.067973e+001 -5.441375e+001 1.021005e+002 -3.064903e+000 9.610846e+001
26626125000 -6.411625e+000 -1.562682e+002 -5.800401e+001 7.767134e+001 -5.447210e+001 1.006242e+002 -3.078154e+000 9.558163e+001
26644868750 -6.378798e+000 -1.572278e+002 -5.778375e+001 8.079758e+001 -5.449038e+001 1.101699e+002 -3.096921e+000 9.512186e+001
26663612500 -6.346268e+000 -1.581903e+002 -5.806463e+001 8.627772e+001 -5.418857e+001 1.286123e+002 -3.122882e+000 9.457283e+001
26682356250 -6.320379e+000 -1.591454e+002 -5.786273e+001 1.003661e+002 -5.403136e+001 1.560913e+002 -3.137027e+000 9.410378e+001
26701100000 -6.289790e+000 -1.601163e+002 -5.806856e+001 1.187223e+002 -5.392818e+001 -1.709092e+002 -3.165161e+000 9.360182e+001
26719843750 -6.265954e+000 -1.610880e+002 -5.791887e+001 1.301375e+002 -5.380621e+001 -1.444194e+002 -3.186342e+000 9.304659e+001
26738587500 -6.237476e+000 -1.620567e+002 -5.786596e+001 1.338773e+002 -5.412524e+001 -1.127222e+002 -3.201328e+000 9.253553e+001
26757331250 -6.207899e+000 -1.630043e+002 -5.838652e+001 1.395515e+002 -5.403222e+001 -8.965765e+001 -3.218024e+000 9.205712e+001
26776075000 -6.183366e+000 -1.639169e+002 -5.795547e+001 1.458531e+002 -5.446791e+001 -7.224538e+001 -3.241771e+000 9.152726e+001
26794818750 -6.158297e+000 -1.648726e+002 -5.775444e+001 1.430220e+002 -5.434152e+001 -4.958387e+001 -3.255948e+000 9.102962e+001
26813562500 -6.131622e+000 -1.657860e+002 -5.814609e+001 1.316401e+002 -5.440869e+001 -2.045987e+001 -3.278719e+000 9.053043e+001
26832306250 -6.105644e+000 -1.667144e+002 -5.855724e+001 1.215623e+002 -5.446200e+001 6.537252e+000 -3.295420e+000 8.999065e+001
26851050000 -6.083218e+000 -1.676508e+002 -5.820901e+001 1.190655e+002 -5.516169e+001 3.456098e+001 -3.303187e+000 8.948672e+001
26869793750 -6.051330e+000 -1.685861e+002 -5.832302e+001 1.133804e+002 -5.548886e+001 7.080105e+001 -3.326692e+000 8.900742e+001
26888537500 -6.024734e+000 -1.694457e+002 -5.836546e+001 1.056793e+002 -5.602283e+001 1.137284e+002 -3.343978e+000 8.845586e+001
26907281250 -5.998963e+000 -1.703409e+002 -5.787257e+001 1.068059e+002 -5.575072e+001 1.527562e+002 -3.353423e+000 8.798075e+001
26926025000 -5.975993e+000 -1.711953e+002 -5.758967e+001 9.902301e+001 -5.544993e+001 -1.614505e+002 -3.378439e+000 8.749522e+001
26944768750 -5.949239e+000 -1.720749e+002 -5.766308e+001 9.469888e+001 -5.541858e+001 -1.173812e+002 -3.395451e+000 8.695608e+001
26963512500 -5.914361e+000 -1.729512e+002 -5.748083e+001 9.383049e+001 -5.564637e+001 -8.226826e+001 -3.406144e+000 8.642889e+001
26982256250 -5.880116e+000 -1.738195e+002 -5.748025e+001 1.009062e+002 -5.550390e+001 -4.949929e+001 -3.429409e+000 8.592497e+001
27001000000 -5.850219e+000 -1.746853e+002 -5.725736e+001 1.132898e+002 -5.572897e+001 -1.042421e+001 -3.448869e+000 8.539227e+001
27019743750 -5.823427e+000 -1.755664e+002 -5.755473e+001 1.196027e+002 -5.603434e+001 2.673575e+001 -3.462591e+000 8.486653e+001
27038487500 -5.797630e+000 -1.764372e+002 -5.703027e+001 1.237373e+002 -5.643682e+001 5.463993e+001 -3.482014e+000 8.437542e+001
27057231250 -5.774565e+000 -1.772937e+002 -5.690421e+001 1.344901e+002 -5.655788e+001 7.997137e+001 -3.491161e+000 8.382774e+001
27075975000 -5.740611e+000 -1.781476e+002 -5.690195e+001 1.458064e+002 -5.724716e+001 1.044425e+002 -3.505271e+000 8.335257e+001
27094718750 -5.710924e+000 -1.789696e+002 -5.680020e+001 1.531703e+002 -5.704969e+001 1.162690e+002 -3.524529e+000 8.285811e+001
27113462500 -5.682541e+000 -1.797774e+002 -5.704953e+001 1.534698e+002 -5.729544e+001 1.226122e+002 -3.538697e+000 8.231551e+001
27132206250 -5.660736e+000 1.794072e+002 -5.689683e+001 1.526193e+002 -5.777559e+001 1.279144e+002 -3.554928e+000 8.180380e+001
27150950000 -5.636619e+000 1.786109e+002 -5.692665e+001 1.579106e+002 -5.748487e+001 1.345105e+002 -3.577442e+000 8.125862e+001
27169693750 -5.611051e+000 1.777466e+002 -5.708168e+001 1.649086e+002 -5.728493e+001 1.417391e+002 -3.585793e+000 8.071960e+001
27188437500 -5.580864e+000 1.769329e+002 -5.611082e+001 1.648138e+002 -5.726217e+001 1.562746e+002 -3.599885e+000 8.024825e+001
27207181250 -5.549394e+000 1.761435e+002 -5.595908e+001 1.763608e+002 -5.699924e+001 1.637849e+002 -3.611338e+000 7.971201e+001
27225925000 -5.523211e+000 1.753736e+002 -5.593975e+001 -1.682362e+002 -5.790435e+001 1.730978e+002 -3.624591e+000 7.919415e+001
27244668750 -5.498765e+000 1.745771e+002 -5.545420e+001 -1.519053e+002 -5.806070e+001 1.747656e+002 -3.642979e+000 7.868060e+001
27263412500 -5.477817e+000 1.737788e+002 -5.483847e+001 -1.431525e+002 -5.838806e+001 1.734704e+002 -3.663177e+000 7.813360e+001
27282156250 -5.451175e+000 1.729566e+002 -5.540291e+001 -1.409979e+002 -5.783769e+001 1.735074e+002 -3.669121e+000 7.759384e+001
27300900000 -5.420463e+000 1.721577e+002 -5.548092e+001 -1.357749e+002 -5.734774e+001 1.679330e+002 -3.681256e+000 7.710070e+001
27319643750 -5.391996e+000 1.713629e+002 -5.519852e+001 -1.296171e+002 -5.719044e+001 1.542116e+002 -3.695595e+000 7.660626e+001
27338387500 -5.370847e+000 1.705926e+002 -5.502610e+001 -1.303138e+002 -5.751528e+001 1.364604e+002 -3.704956e+000 7.611212e+001
27357131250 -5.348001e+000 1.697647e+002 -5.514937e+001 -1.236973e+002 -5.780682e+001 1.213612e+002 -3.719286e+000 7.564339e+001
27375875000 -5.326818e+000 1.689634e+002 -5.471106e+001 -1.260460e+002 -5.750600e+001 1.038169e+002 -3.730502e+000 7.509340e+001
27394618750 -5.306315e+000 1.681149e+002 -5.536631e+001 -1.282557e+002 -5.744151e+001 9.260818e+001 -3.737234e+000 7.460843e+001
27413362500 -5.280595e+000 1.673215e+002 -5.503806e+001 -1.279880e+002 -5.800224e+001 8.037836e+001 -3.751339e+000 7.413692e+001
27432106250 -5.258049e+000 1.665949e+002 -5.522963e+001 -1.352594e+002 -5.765824e+001 5.513779e+001 -3.758421e+000 7.360832e+001
27450850000 -5.236965e+000 1.658688e+002 -5.492176e+001 -1.401404e+002 -5.882551e+001 2.809833e+001 -3.765809e+000 7.313683e+001
27469593750 -5.216907e+000 1.650926e+002 -5.511056e+001 -1.361982e+002 -5.835833e+001 3.226051e+000 -3.787419e+000 7.263612e+001
27488337500 -5.197399e+000 1.643111e+002 -5.604930e+001 -1.324794e+002 -5.834417e+001 -1.753702e+001 -3.805042e+000 7.207944e+001
27507081250 -5.178081e+000 1.634966e+002 -5.602560e+001 -1.343141e+002 -5.723158e+001 -3.894751e+001 -3.810583e+000 7.160768e+001
27525825000 -5.150433e+000 1.627559e+002 -5.592012e+001 -1.396537e+002 -5.711228e+001 -5.845189e+001 -3.820735e+000 7.111643e+001
27544568750 -5.129143e+000 1.620253e+002 -5.622900e+001 -1.505799e+002 -5.681528e+001 -7.437800e+001 -3.827906e+000 7.060475e+001
27563312500 -5.111405e+000 1.612902e+002 -5.600568e+001 -1.556158e+002 -5.591188e+001 -9.556307e+001 -3.827378e+000 7.019270e+001
27582056250 -5.089657e+000 1.605201e+002 -5.597789e+001 -1.692515e+002 -5.613295e+001 -1.176528e+002 -3.841158e+000 6.976400e+001
27600800000 -5.074825e+000 1.597818e+002 -5.584055e+001 -1.786275e+002 -5.588157e+001 -1.355487e+002 -3.849138e+000 6.923095e+001
27619543750 -5.050902e+000 1.589928e+002 -5.614577e+001 1.746130e+002 -5.566891e+001 -1.553723e+002 -3.848474e+000 6.877889e+001
27638287500 -5.022374e+000 1.582453e+002 -5.610016e+001 1.610247e+002 -5.556774e+001 -1.636771e+002 -3.861761e+000 6.832917e+001
27657031250 -5.005805e+000 1.575351e+002 -5.667927e+001 1.416218e+002 -5.484271e+001 -1.779262e+002 -3.861864e+000 6.783572e+001
27675775000 -4.987504e+000 1.568046e+002 -5.655470e+001 1.336741e+002 -5.479966e+001 1.718565e+002 -3.859118e+000 6.742715e+001
27694518750 -4.968937e+000 1.560652e+002 -5.695759e+001 1.328041e+002 -5.461937e+001 1.606080e+002 -3.867347e+000 6.696174e+001
27713262500 -4.951618e+000 1.553305e+002 -5.613261e+001 1.282002e+002 -5.465655e+001 1.566624e+002 -3.872727e+000 6.642887e+001
27732006250 -4.932735e+000 1.545742e+002 -5.602631e+001 1.336746e+002 -5.552291e+001 1.463112e+002 -3.868176e+000 6.599802e+001
27750750000 -4.904224e+000 1.538170e+002 -5.595306e+001 1.285787e+002 -5.529599e+001 1.406085e+002 -3.876023e+000 6.550282e+001
27769493750 -4.887753e+000 1.531068e+002 -5.600104e+001 1.262773e+002 -5.522724e+001 1.408003e+002 -3.870283e+000 6.497972e+001
27788237500 -4.868676e+000 1.524319e+002 -5.587719e+001 1.151705e+002 -5.541095e+001 1.315488e+002 -3.867406e+000 6.455880e+001
27806981250 -4.852698e+000 1.517129e+002 -5.646362e+001 1.128843e+002 -5.536557e+001 1.282733e+002 -3.880067e+000 6.407921e+001
27825725000 -4.836498e+000 1.509908e+002 -5.587700e+001 1.099142e+002 -5.502573e+001 1.185849e+002 -3.882586e+000 6.355290e+001
27844468750 -4.811244e+000 1.502592e+002 -5.612058e+001 1.063713e+002 -5.428429e+001 1.062703e+002 -3.884246e+000 6.306883e+001
27863212500 -4.788876e+000 1.495648e+002 -5.619091e+001 1.082453e+002 -5.441022e+001 1.032543e+002 -3.889169e+000 6.256220e+001
27881956250 -4.772336e+000 1.488703e+002 -5.640133e+001 1.141973e+002 -5.324916e+001 9.756590e+001 -3.884260e+000 6.204802e+001
27900700000 -4.757861e+000 1.481736e+002 -5.673784e+001 1.145878e+002 -5.385284e+001 9.080491e+001 -3.877624e+000 6.162254e+001
27919443750 -4.744343e+000 1.475120e+002 -5.597642e+001 1.113988e+002 -5.365831e+001 9.126718e+001 -3.881323e+000 6.116231e+001
27938187500 -4.731218e+000 1.467992e+002 -5.605803e+001 1.068682e+002 -5.416893e+001 8.598949e+001 -3.878148e+000 6.061961e+001
27956931250 -4.711946e+000 1.460686e+002 -5.602901e+001 1.026516e+002 -5.451746e+001 9.117769e+001 -3.881771e+000 6.016924e+001
27975675000 -4.686552e+000 1.453880e+002 -5.578418e+001 1.092387e+002 -5.482169e+001 8.854321e+001 -3.887872e+000 5.963681e+001
27994418750 -4.668179e+000 1.447349e+002 -5.587474e+001 1.083712e+002 -5.512478e+001 8.458688e+001 -3.882471e+000 5.910948e+001
28013162500 -4.654659e+000 1.440516e+002 -5.649903e+001 1.192664e+002 -5.477783e+001 8.660401e+001 -3.886114e+000 5.864767e+001
28031906250 -4.638478e+000 1.433642e+002 -5.638071e+001 1.192703e+002 -5.499137e+001 8.331198e+001 -3.893822e+000 5.816455e+001
28050650000 -4.625660e+000 1.426410e+002 -5.615372e+001 1.159387e+002 -5.535658e+001 8.049740e+001 -3.900383e+000 5.764293e+001
28069393750 -4.610849e+000 1.418964e+002 -5.624051e+001 1.153711e+002 -5.520839e+001 7.551414e+001 -3.910547e+000 5.713810e+001
28088137500 -4.585950e+000 1.412448e+002 -5.584368e+001 1.169576e+002 -5.555077e+001 6.931162e+001 -3.923043e+000 5.657112e+001
28106881250 -4.575322e+000 1.405798e+002 -5.635038e+001 1.095135e+002 -5.540431e+001 6.547189e+001 -3.925822e+000 5.602583e+001
28125625000 -4.561886e+000 1.399025e+002 -5.600932e+001 1.047864e+002 -5.533639e+001 6.249374e+001 -3.936706e+000 5.556108e+001
28144368750 -4.548584e+000 1.392074e+002 -5.612666e+001 1.026688e+002 -5.544744e+001 6.062452e+001 -3.948592e+000 5.502468e+001
28163112500 -4.538906e+000 1.384874e+002 -5.580323e+001 9.287156e+001 -5.541401e+001 7.259647e+001 -3.962879e+000 5.449936e+001
28181856250 -4.518931e+000 1.378090e+002 -5.597356e+001 9.549091e+001 -5.542805e+001 7.419894e+001 -3.979873e+000 5.397641e+001
28200600000 -4.495346e+000 1.372105e+002 -5.585880e+001 9.100027e+001 -5.524790e+001 7.077431e+001 -3.997180e+000 5.342852e+001
28219343750 -4.484258e+000 1.365691e+002 -5.602607e+001 9.588704e+001 -5.510135e+001 7.288908e+001 -4.004902e+000 5.289944e+001
28238087500 -4.470734e+000 1.359109e+002 -5.570116e+001 8.849068e+001 -5.575109e+001 7.692347e+001 -4.015083e+000 5.239619e+001
28256831250 -4.461783e+000 1.352675e+002 -5.606025e+001 8.863740e+001 -5.598089e+001 8.902229e+001 -4.031412e+000 5.186889e+001
28275575000 -4.454137e+000 1.345577e+002 -5.605899e+001 7.785978e+001 -5.573542e+001 1.034870e+002 -4.044187e+000 5.132850e+001
28294318750 -4.431550e+000 1.338763e+002 -5.570934e+001 7.286244e+001 -5.606681e+001 1.104583e+002 -4.063653e+000 5.077580e+001
28313062500 -4.414495e+000 1.332892e+002 -5.533841e+001 6.336614e+001 -5.638853e+001 1.247814e+002 -4.081337e+000 5.018993e+001
28331806250 -4.407421e+000 1.326754e+002 -5.514750e+001 5.539895e+001 -5.604996e+001 1.319273e+002 -4.094348e+000 4.961642e+001
28350550000 -4.393609e+000 1.320216e+002 -5.526762e+001 5.134286e+001 -5.600807e+001 1.279076e+002 -4.116544e+000 4.906527e+001
28369293750 -4.389648e+000 1.314005e+002 -5.570811e+001 5.123598e+001 -5.571173e+001 1.277531e+002 -4.139689e+000 4.849236e+001
28388037500 -4.378765e+000 1.307113e+002 -5.575543e+001 4.911806e+001 -5.582873e+001 1.205180e+002 -4.163509e+000 4.790708e+001
28406781250 -4.360538e+000 1.300528e+002 -5.539233e+001 4.140173e+001 -5.555561e+001 1.116349e+002 -4.194140e+000 4.729860e+001
28425525000 -4.341958e+000 1.294878e+002 -5.556123e+001 3.822719e+001 -5.630694e+001 1.043885e+002 -4.218010e+000 4.665572e+001
28444268750 -4.332303e+000 1.288970e+002 -5.500572e+001 2.994640e+001 -5.623847e+001 1.020948e+002 -4.237455e+000 4.605879e+001
28463012500 -4.325058e+000 1.283103e+002 -5.499506e+001 2.478575e+001 -5.609917e+001 1.012351e+002 -4.260646e+000 4.547898e+001
28481756250 -4.317554e+000 1.277231e+002 -5.497910e+001 2.485781e+001 -5.595938e+001 9.890668e+001 -4.285316e+000 4.487325e+001
28500500000 -4.309811e+000 1.270826e+002 -5.517367e+001 2.245917e+001 -5.587693e+001 9.296579e+001 -4.310730e+000 4.428812e+001
28519243750 -4.293690e+000 1.264711e+002 -5.504361e+001 2.049088e+001 -5.548954e+001 9.203417e+001 -4.341813e+000 4.369405e+001
28537987500 -4.275517e+000 1.259468e+002 -5.487626e+001 2.326381e+001 -5.531331e+001 8.909355e+001 -4.370321e+000 4.304160e+001
28556731250 -4.268078e+000 1.253773e+002 -5.487437e+001 1.995454e+001 -5.486332e+001 9.166328e+001 -4.393291e+000 4.239503e+001
28575475000 -4.258060e+000 1.248169e+002 -5.468643e+001 1.633862e+001 -5.515850e+001 8.850547e+001 -4.425395e+000 4.178271e+001
28594218750 -4.253494e+000 1.242287e+002 -5.495311e+001 1.480610e+001 -5.435825e+001 7.708218e+001 -4.456351e+000 4.113222e+001
28612962500 -4.247510e+000 1.235904e+002 -5.480648e+001 9.811563e+000 -5.430824e+001 7.181710e+001 -4.485458e+000 4.050175e+001
28631706250 -4.228496e+000 1.230080e+002 -5.473098e+001 8.123196e+000 -5.436211e+001 7.075821e+001 -4.520709e+000 3.982591e+001
28650450000 -4.219144e+000 1.224456e+002 -5.509261e+001 3.160682e+000 -5.403858e+001 6.764413e+001 -4.554663e+000 3.911059e+001
28669193750 -4.211554e+000 1.218950e+002 -5.504419e+001 5.312658e+000 -5.345727e+001 5.706293e+001 -4.587544e+000 3.848058e+001
28687937500 -4.200393e+000 1.213547e+002 -5.487854e+001 2.874770e+000 -5.323691e+001 4.115748e+001 -4.624078e+000 3.780843e+001
28706681250 -4.197915e+000 1.207858e+002 -5.454357e+001 6.010573e+000 -5.339219e+001 2.284662e+001 -4.661110e+000 3.717161e+001
28725425000 -4.186799e+000 1.201712e+002 -5.441370e+001 4.556216e+000 -5.304062e+001 8.943371e+000 -4.704163e+000 3.650157e+001
28744168750 -4.167430e+000 1.195976e+002 -5.442929e+001 1.899100e+000 -5.260735e+001 -7.459121e+000 -4.749191e+000 3.582465e+001
28762912500 -4.154946e+000 1.190840e+002 -5.406996e+001 1.675022e+000 -5.280268e+001 -1.709706e+001 -4.788188e+000 3.511482e+001
28781656250 -4.142917e+000 1.185324e+002 -5.402814e+001 1.930887e-001 -5.300686e+001 -2.070615e+001 -4.820391e+000 3.443885e+001
28800400000 -4.130118e+000 1.179856e+002 -5.366729e+001 -3.093358e+000 -5.297981e+001 -2.564269e+001 -4.862826e+000 3.378590e+001
28819143750 -4.126283e+000 1.174019e+002 -5.355266e+001 -4.724436e+000 -5.283187e+001 -3.047845e+001 -4.905946e+000 3.310475e+001
28837887500 -4.117994e+000 1.167932e+002 -5.348940e+001 -5.664819e+000 -5.298318e+001 -3.050636e+001 -4.948785e+000 3.243299e+001
28856631250 -4.106511e+000 1.162089e+002 -5.314294e+001 -9.476014e+000 -5.207346e+001 -2.786592e+001 -5.001436e+000 3.169389e+001
28875375000 -4.100224e+000 1.156748e+002 -5.306910e+001 -1.335795e+001 -5.195619e+001 -2.693014e+001 -5.043314e+000 3.093422e+001
28894118750 -4.087989e+000 1.151079e+002 -5.267365e+001 -1.304210e+001 -5.192891e+001 -2.968366e+001 -5.089753e+000 3.018737e+001
28912862500 -4.081691e+000 1.145626e+002 -5.280563e+001 -1.797767e+001 -5.178603e+001 -3.135856e+001 -5.138076e+000 2.947013e+001
28931606250 -4.070260e+000 1.139852e+002 -5.247756e+001 -1.945289e+001 -5.190524e+001 -3.168852e+001 -5.186806e+000 2.872913e+001
28950350000 -4.053948e+000 1.133896e+002 -5.231828e+001 -2.343943e+001 -5.165529e+001 -3.269716e+001 -5.239151e+000 2.797959e+001
28969093750 -4.039613e+000 1.128409e+002 -5.264758e+001 -2.686227e+001 -5.169656e+001 -3.622205e+001 -5.294399e+000 2.720949e+001
28987837500 -4.028031e+000 1.123055e+002 -5.292523e+001 -3.004397e+001 -5.175503e+001 -3.866637e+001 -5.345918e+000 2.643997e+001
29006581250 -4.019796e+000 1.117556e+002 -5.314740e+001 -3.258206e+001 -5.145070e+001 -4.102327e+001 -5.398520e+000 2.569213e+001
29025325000 -4.010334e+000 1.112333e+002 -5.314770e+001 -3.412956e+001 -5.151313e+001 -4.199485e+001 -5.452567e+000 2.489934e+001
29044068750 -4.001714e+000 1.106353e+002 -5.301406e+001 -3.831621e+001 -5.120760e+001 -4.225222e+001 -5.507592e+000 2.410244e+001
29062812500 -3.989466e+000 1.099853e+002 -5.279054e+001 -3.849977e+001 -5.088033e+001 -4.233427e+001 -5.569697e+000 2.332030e+001
29081556250 -3.974963e+000 1.094331e+002 -5.238018e+001 -3.965169e+001 -5.091945e+001 -4.416030e+001 -5.629951e+000 2.248101e+001
29100300000 -3.963401e+000 1.088635e+002 -5.246311e+001 -4.311008e+001 -5.104379e+001 -4.331739e+001 -5.683764e+000 2.165394e+001
29119043750 -3.958405e+000 1.083136e+002 -5.217084e+001 -4.524165e+001 -5.097823e+001 -4.573902e+001 -5.739904e+000 2.086435e+001
29137787500 -3.952633e+000 1.077437e+002 -5.178848e+001 -4.861784e+001 -5.087956e+001 -4.775566e+001 -5.801699e+000 2.004710e+001
29156531250 -3.951751e+000 1.071129e+002 -5.186149e+001 -5.239337e+001 -5.075032e+001 -4.803045e+001 -5.861133e+000 1.925941e+001
29175275000 -3.940214e+000 1.064759e+002 -5.186058e+001 -5.354458e+001 -5.049767e+001 -4.825754e+001 -5.928876e+000 1.840674e+001
29194018750 -3.927719e+000 1.058824e+002 -5.175596e+001 -5.500947e+001 -5.003514e+001 -4.836757e+001 -5.996320e+000 1.751892e+001
29212762500 -3.920808e+000 1.053025e+002 -5.132874e+001 -5.537864e+001 -4.991034e+001 -4.677565e+001 -6.061122e+000 1.661930e+001
29231506250 -3.912012e+000 1.047433e+002 -5.085423e+001 -5.746412e+001 -4.992707e+001 -4.756408e+001 -6.125482e+000 1.575002e+001
29250250000 -3.912348e+000 1.041681e+002 -5.051513e+001 -5.825092e+001 -4.973999e+001 -4.924053e+001 -6.190457e+000 1.487786e+001
29268993750 -3.908959e+000 1.035220e+002 -5.018946e+001 -5.802826e+001 -4.982396e+001 -4.941611e+001 -6.260519e+000 1.402382e+001
29287737500 -3.899806e+000 1.028843e+002 -5.013716e+001 -5.851200e+001 -4.990637e+001 -5.040395e+001 -6.335537e+000 1.318961e+001
29306481250 -3.893940e+000 1.023069e+002 -4.988155e+001 -5.844618e+001 -4.977079e+001 -5.535026e+001 -6.412050e+000 1.229885e+001
29325225000 -3.891014e+000 1.017203e+002 -4.990936e+001 -5.966135e+001 -4.981876e+001 -5.629165e+001 -6.486532e+000 1.143084e+001
29343968750 -3.893572e+000 1.011617e+002 -4.962660e+001 -5.926029e+001 -4.958897e+001 -5.656398e+001 -6.564279e+000 1.052935e+001
29362712500 -3.904835e+000 1.005712e+002 -4.948689e+001 -6.188517e+001 -4.936187e+001 -5.802837e+001 -6.638113e+000 9.647987e+000
29381456250 -3.910173e+000 9.989335e+001 -4.927690e+001 -6.146214e+001 -4.919111e+001 -6.007906e+001 -6.715794e+000 8.781876e+000
29400200000 -3.909738e+000 9.925611e+001 -4.859038e+001 -6.240498e+001 -4.898661e+001 -6.082302e+001 -6.804887e+000 7.901539e+000
29418943750 -3.914858e+000 9.863940e+001 -4.811280e+001 -6.304273e+001 -4.908500e+001 -6.275008e+001 -6.889870e+000 7.002098e+000
29437687500 -3.918286e+000 9.804602e+001 -4.783511e+001 -6.414159e+001 -4.871393e+001 -6.421790e+001 -6.974073e+000 6.143613e+000
29456431250 -3.927583e+000 9.748942e+001 -4.730083e+001 -6.680528e+001 -4.852190e+001 -6.532187e+001 -7.066891e+000 5.283022e+000
29475175000 -3.947617e+000 9.690632e+001 -4.710194e+001 -6.758490e+001 -4.843406e+001 -6.728623e+001 -7.163729e+000 4.446803e+000
29493918750 -3.960446e+000 9.628192e+001 -4.705229e+001 -6.978024e+001 -4.849488e+001 -6.928657e+001 -7.261211e+000 3.587015e+000
29512662500 -3.967596e+000 9.570699e+001 -4.646302e+001 -7.220055e+001 -4.814978e+001 -6.992458e+001 -7.366570e+000 2.699605e+000
29531406250 -3.982549e+000 9.514943e+001 -4.603027e+001 -7.368246e+001 -4.770636e+001 -7.188555e+001 -7.472221e+000 1.819552e+000
29550150000 -3.992927e+000 9.459484e+001 -4.574551e+001 -7.435138e+001 -4.742682e+001 -7.188572e+001 -7.579173e+000 9.779658e-001
29568893750 -4.016642e+000 9.408623e+001 -4.551253e+001 -7.542597e+001 -4.717672e+001 -7.350280e+001 -7.691656e+000 1.603864e-001
29587637500 -4.040421e+000 9.351389e+001 -4.508706e+001 -7.453864e+001 -4.688000e+001 -7.582968e+001 -7.805158e+000 -6.343367e-001
29606381250 -4.057454e+000 9.294569e+001 -4.486251e+001 -7.761592e+001 -4.667284e+001 -7.869310e+001 -7.923950e+000 -1.383743e+000
29625125000 -4.074736e+000 9.243467e+001 -4.458168e+001 -8.027858e+001 -4.639088e+001 -8.071108e+001 -8.053596e+000 -2.152896e+000
29643868750 -4.097425e+000 9.193198e+001 -4.422142e+001 -8.398962e+001 -4.601029e+001 -8.554511e+001 -8.181705e+000 -2.889526e+000
29662612500 -4.119977e+000 9.145460e+001 -4.406046e+001 -8.542354e+001 -4.559677e+001 -8.684315e+001 -8.311755e+000 -3.610266e+000
29681356250 -4.152008e+000 9.101418e+001 -4.391552e+001 -8.774150e+001 -4.523104e+001 -8.798103e+001 -8.447539e+000 -4.285081e+000
29700100000 -4.187700e+000 9.052783e+001 -4.382315e+001 -9.138701e+001 -4.472948e+001 -9.137769e+001 -8.585999e+000 -4.903269e+000
29718843750 -4.213605e+000 9.006484e+001 -4.354903e+001 -9.423271e+001 -4.426203e+001 -9.381411e+001 -8.725658e+000 -5.446944e+000
29737587500 -4.236429e+000 8.964478e+001 -4.332766e+001 -9.669962e+001 -4.393943e+001 -9.588041e+001 -8.872326e+000 -5.975461e+000
29756331250 -4.265924e+000 8.923441e+001 -4.312603e+001 -1.008367e+002 -4.362072e+001 -9.915004e+001 -9.022058e+000 -6.465600e+000
29775075000 -4.289947e+000 8.888165e+001 -4.294430e+001 -1.042493e+002 -4.344585e+001 -1.028214e+002 -9.171566e+000 -6.909027e+000
29793818750 -4.321592e+000 8.853922e+001 -4.283144e+001 -1.073557e+002 -4.322433e+001 -1.047129e+002 -9.325284e+000 -7.281220e+000
29812562500 -4.366669e+000 8.822935e+001 -4.272016e+001 -1.099224e+002 -4.314516e+001 -1.071123e+002 -9.475489e+000 -7.585929e+000
29831306250 -4.407323e+000 8.785725e+001 -4.255828e+001 -1.123347e+002 -4.304264e+001 -1.100211e+002 -9.616536e+000 -7.838878e+000
29850050000 -4.441000e+000 8.754947e+001 -4.240870e+001 -1.151782e+002 -4.271079e+001 -1.124570e+002 -9.762231e+000 -8.072593e+000
29868793750 -4.477500e+000 8.724221e+001 -4.219471e+001 -1.175359e+002 -4.265427e+001 -1.147345e+002 -9.902231e+000 -8.330566e+000
29887537500 -4.502964e+000 8.694102e+001 -4.218739e+001 -1.197576e+002 -4.254251e+001 -1.176784e+002 -1.002699e+001 -8.543164e+000
29906281250 -4.530246e+000 8.676884e+001 -4.209489e+001 -1.228344e+002 -4.243289e+001 -1.204797e+002 -1.014261e+001 -8.710151e+000
29925025000 -4.569048e+000 8.658782e+001 -4.196703e+001 -1.247207e+002 -4.226394e+001 -1.225427e+002 -1.025523e+001 -8.793380e+000
29943768750 -4.602021e+000 8.634396e+001 -4.196844e+001 -1.272655e+002 -4.230062e+001 -1.252977e+002 -1.036398e+001 -8.805654e+000
29962512500 -4.629106e+000 8.615542e+001 -4.180688e+001 -1.289230e+002 -4.227069e+001 -1.275525e+002 -1.047480e+001 -8.844374e+000
29981256250 -4.656261e+000 8.593671e+001 -4.178248e+001 -1.310586e+002 -4.223442e+001 -1.291167e+002 -1.057729e+001 -8.917567e+000
30000000000 -4.666989e+000 8.578358e+001 -4.183575e+001 -1.327746e+002 -4.212602e+001 -1.308020e+002 -1.066164e+001 -8.968251e+000
