!Agilent Technologies,E8364B,MY43040894,A.07.50.67
!Agilent E8364B: A.07.50.67
!Date: Tuesday, May 12, 2020 09:47:32
!Correction: S11(Full 2 Port(1,2)) 
!S21(Full 2 Port(1,2)) 
!S12(Full 2 Port(1,2)) 
!S22(Full 2 Port(1,2)) 
!S2P File: Measurements: S11, S21, S12, S22:
# Hz S  dB   R 50
10000000 -4.927752e-001 -6.841192e+000 -4.972507e+001 7.397883e+001 -5.041509e+001 3.262378e+001 -1.198642e-003 -1.803873e+000
28743750 -5.082570e-001 -7.840289e+000 -5.009726e+001 6.437675e+001 -5.072169e+001 2.762779e+001 -6.001181e-003 -2.181866e+000
47487500 -5.244320e-001 -8.938212e+000 -5.086847e+001 5.463680e+001 -5.109702e+001 2.520273e+001 -1.138087e-002 -2.594925e+000
66231250 -5.391106e-001 -1.010402e+001 -5.138500e+001 4.553361e+001 -5.146301e+001 2.128802e+001 -1.612149e-002 -3.020570e+000
84975000 -5.583890e-001 -1.135303e+001 -5.183867e+001 3.823646e+001 -5.210608e+001 1.696715e+001 -2.053202e-002 -3.484279e+000
103718750 -5.801369e-001 -1.268644e+001 -5.240531e+001 2.950497e+001 -5.334769e+001 1.107463e+001 -2.410752e-002 -3.972774e+000
122462500 -6.023265e-001 -1.408695e+001 -5.288369e+001 1.916598e+001 -5.358840e+001 7.748949e+000 -2.703227e-002 -4.480842e+000
141206250 -6.258066e-001 -1.556930e+001 -5.346936e+001 1.154301e+001 -5.392366e+001 3.013505e+000 -3.179589e-002 -5.016481e+000
159950000 -6.506792e-001 -1.713098e+001 -5.382008e+001 2.930529e+000 -5.472165e+001 -1.904281e+000 -3.518360e-002 -5.576113e+000
178693750 -6.743414e-001 -1.877142e+001 -5.476178e+001 -1.036509e+001 -5.544097e+001 -5.971539e+000 -3.872262e-002 -6.163476e+000
197437500 -6.980026e-001 -2.047607e+001 -5.561283e+001 -3.117992e+001 -5.585258e+001 -1.154034e+001 -4.166771e-002 -6.782929e+000
216181250 -7.259759e-001 -2.225385e+001 -5.607192e+001 -5.153774e+001 -5.691678e+001 -2.109984e+001 -4.355446e-002 -7.423171e+000
234925000 -7.522037e-001 -2.412451e+001 -5.675440e+001 -7.563830e+001 -5.769500e+001 -2.582207e+001 -4.511361e-002 -8.103382e+000
253668750 -7.785410e-001 -2.595823e+001 -5.721488e+001 -9.434761e+001 -5.846851e+001 -2.128470e+001 -4.281815e-002 -8.719449e+000
272412500 -8.064551e-001 -2.776291e+001 -5.733913e+001 -1.197983e+002 -5.918745e+001 -2.327709e+001 -3.800821e-002 -9.347907e+000
291156250 -8.346874e-001 -2.959040e+001 -5.784871e+001 -1.387951e+002 -5.950259e+001 -2.264366e+001 -3.521878e-002 -9.951059e+000
309900000 -8.613183e-001 -3.139673e+001 -5.827409e+001 -1.601294e+002 -6.001369e+001 -1.834485e+001 -3.122873e-002 -1.057825e+001
328643750 -8.865896e-001 -3.317471e+001 -5.838604e+001 -1.678160e+002 -6.016679e+001 -1.610482e+001 -2.807228e-002 -1.118814e+001
347387500 -9.125111e-001 -3.496455e+001 -5.872989e+001 -1.678891e+002 -6.016093e+001 -1.997108e+001 -2.400479e-002 -1.182022e+001
366131250 -9.367465e-001 -3.673809e+001 -5.827397e+001 -1.797514e+002 -6.028325e+001 -1.437405e+001 -1.986019e-002 -1.245322e+001
384875000 -9.670222e-001 -3.849978e+001 -5.783945e+001 1.698719e+002 -6.056925e+001 -1.108403e+001 -1.745756e-002 -1.307616e+001
403618750 -9.971370e-001 -4.027136e+001 -5.810398e+001 1.533972e+002 -6.134196e+001 -6.162788e+000 -1.594802e-002 -1.370516e+001
422362500 -1.022852e+000 -4.202084e+001 -5.842106e+001 1.393102e+002 -6.124704e+001 -4.205753e+000 -1.090984e-002 -1.432451e+001
441106250 -1.050481e+000 -4.375508e+001 -5.859790e+001 1.227995e+002 -6.133534e+001 -4.540511e+000 -8.076805e-003 -1.494283e+001
459850000 -1.078746e+000 -4.550356e+001 -5.887521e+001 1.101464e+002 -6.162588e+001 -3.212754e+000 -3.812025e-003 -1.556895e+001
478593750 -1.106903e+000 -4.722250e+001 -5.942374e+001 9.969135e+001 -6.176944e+001 -4.208874e+000 2.304853e-004 -1.617611e+001
497337500 -1.136210e+000 -4.895328e+001 -5.950272e+001 8.603650e+001 -6.207726e+001 -2.176543e+000 3.849666e-003 -1.680305e+001
516081250 -1.164332e+000 -5.065450e+001 -5.989619e+001 7.104137e+001 -6.197289e+001 1.338043e+000 6.557448e-003 -1.741807e+001
534825000 -1.190482e+000 -5.236315e+001 -6.030047e+001 5.792826e+001 -6.112403e+001 4.717799e+000 8.897452e-003 -1.803774e+001
553568750 -1.217325e+000 -5.406579e+001 -6.045922e+001 4.518358e+001 -6.136537e+001 4.659105e+000 1.145716e-002 -1.867106e+001
572312500 -1.243283e+000 -5.576920e+001 -6.073625e+001 3.009758e+001 -6.148829e+001 7.207911e+000 1.393173e-002 -1.930392e+001
591056250 -1.271071e+000 -5.746321e+001 -6.109391e+001 1.540625e+001 -6.111057e+001 1.007962e+001 1.396344e-002 -1.993723e+001
609800000 -1.300226e+000 -5.913897e+001 -6.084685e+001 5.800660e+000 -6.096424e+001 1.145304e+001 1.354061e-002 -2.057644e+001
628543750 -1.330596e+000 -6.081601e+001 -6.067089e+001 4.842301e+000 -6.105528e+001 1.423039e+001 1.491187e-002 -2.120993e+001
647287500 -1.358813e+000 -6.249770e+001 -6.078186e+001 1.905764e+000 -6.044664e+001 2.027752e+001 1.366191e-002 -2.184806e+001
666031250 -1.387712e+000 -6.415897e+001 -6.068505e+001 2.698002e+000 -6.005349e+001 2.345211e+001 1.155111e-002 -2.247844e+001
684775000 -1.419137e+000 -6.580036e+001 -6.047857e+001 1.913716e+000 -5.965073e+001 2.206009e+001 8.580402e-003 -2.311566e+001
703518750 -1.446367e+000 -6.746666e+001 -6.057962e+001 4.940423e+000 -5.956179e+001 2.035493e+001 3.932213e-003 -2.375320e+001
722262500 -1.474679e+000 -6.909338e+001 -6.055489e+001 7.713496e+000 -5.925099e+001 2.221047e+001 1.304649e-003 -2.439191e+001
741006250 -1.505167e+000 -7.072930e+001 -6.009067e+001 1.518859e+001 -5.890228e+001 2.444762e+001 -4.502955e-004 -2.502439e+001
759750000 -1.536287e+000 -7.235758e+001 -6.004753e+001 1.624436e+001 -5.872916e+001 2.590416e+001 -2.651422e-003 -2.566024e+001
778493750 -1.563254e+000 -7.396804e+001 -5.985482e+001 1.592767e+001 -5.876931e+001 2.690614e+001 -5.580683e-003 -2.629716e+001
797237500 -1.593590e+000 -7.557300e+001 -5.962158e+001 2.317442e+001 -5.842574e+001 2.662290e+001 -9.632218e-003 -2.693309e+001
815981250 -1.622415e+000 -7.717611e+001 -5.940277e+001 2.265742e+001 -5.831958e+001 2.654364e+001 -1.457896e-002 -2.758730e+001
834725000 -1.648304e+000 -7.876785e+001 -5.923196e+001 2.275946e+001 -5.747603e+001 2.204257e+001 -1.793990e-002 -2.822451e+001
853468750 -1.679580e+000 -8.035854e+001 -5.878521e+001 2.286363e+001 -5.749419e+001 2.232311e+001 -2.321522e-002 -2.886441e+001
872212500 -1.709807e+000 -8.194790e+001 -5.862519e+001 2.439173e+001 -5.740742e+001 2.186765e+001 -2.965735e-002 -2.951455e+001
890956250 -1.738052e+000 -8.353410e+001 -5.858363e+001 2.366219e+001 -5.724703e+001 2.317428e+001 -3.595415e-002 -3.015209e+001
909700000 -1.766376e+000 -8.511040e+001 -5.773630e+001 2.074701e+001 -5.702958e+001 2.325405e+001 -4.218622e-002 -3.080789e+001
928443750 -1.796237e+000 -8.667973e+001 -5.763537e+001 2.029776e+001 -5.659036e+001 2.198597e+001 -4.984009e-002 -3.146009e+001
947187500 -1.824739e+000 -8.824825e+001 -5.718631e+001 1.800221e+001 -5.642625e+001 1.959996e+001 -5.682432e-002 -3.210887e+001
965931250 -1.854114e+000 -8.980751e+001 -5.670684e+001 1.618796e+001 -5.641568e+001 1.798207e+001 -6.563642e-002 -3.275847e+001
984675000 -1.884279e+000 -9.135109e+001 -5.655517e+001 1.562754e+001 -5.620120e+001 1.833920e+001 -7.637835e-002 -3.340523e+001
1003418750 -1.915032e+000 -9.287817e+001 -5.608121e+001 1.487390e+001 -5.600105e+001 1.741924e+001 -8.412577e-002 -3.405156e+001
1022162500 -1.943417e+000 -9.440329e+001 -5.586497e+001 1.492762e+001 -5.577644e+001 1.596045e+001 -9.070222e-002 -3.470128e+001
1040906250 -1.973192e+000 -9.593022e+001 -5.576941e+001 1.462070e+001 -5.548995e+001 1.532140e+001 -9.676705e-002 -3.535059e+001
1059650000 -2.003187e+000 -9.746275e+001 -5.550745e+001 1.294928e+001 -5.517606e+001 1.483346e+001 -1.067867e-001 -3.599505e+001
1078393750 -2.032227e+000 -9.897656e+001 -5.536988e+001 1.217801e+001 -5.494662e+001 1.580825e+001 -1.158128e-001 -3.664358e+001
1097137500 -2.066018e+000 -1.004815e+002 -5.511961e+001 1.171714e+001 -5.482427e+001 1.408239e+001 -1.242606e-001 -3.728551e+001
1115881250 -2.095158e+000 -1.019759e+002 -5.503559e+001 1.136842e+001 -5.457282e+001 1.263524e+001 -1.323470e-001 -3.792256e+001
1134625000 -2.126090e+000 -1.034643e+002 -5.476511e+001 1.063526e+001 -5.438847e+001 1.195936e+001 -1.370577e-001 -3.856877e+001
1153368750 -2.155504e+000 -1.049571e+002 -5.462931e+001 9.424573e+000 -5.434307e+001 1.090100e+001 -1.429685e-001 -3.922706e+001
1172112500 -2.186281e+000 -1.064167e+002 -5.459354e+001 8.833491e+000 -5.438806e+001 8.576881e+000 -1.511952e-001 -3.987704e+001
1190856250 -2.216650e+000 -1.078906e+002 -5.444681e+001 8.853414e+000 -5.422660e+001 7.434649e+000 -1.597253e-001 -4.053962e+001
1209600000 -2.246758e+000 -1.093537e+002 -5.441145e+001 7.031915e+000 -5.414487e+001 6.899321e+000 -1.690283e-001 -4.118312e+001
1228343750 -2.276680e+000 -1.108196e+002 -5.434797e+001 4.985176e+000 -5.417167e+001 5.073653e+000 -1.763112e-001 -4.182310e+001
1247087500 -2.306030e+000 -1.122822e+002 -5.434506e+001 3.870611e+000 -5.411801e+001 2.787479e+000 -1.807849e-001 -4.246533e+001
1265831250 -2.336619e+000 -1.137238e+002 -5.434700e+001 3.806041e+000 -5.427333e+001 2.147265e+000 -1.838659e-001 -4.310339e+001
1284575000 -2.365508e+000 -1.151508e+002 -5.435416e+001 2.336712e+000 -5.426333e+001 1.766725e+000 -1.899507e-001 -4.375656e+001
1303318750 -2.396472e+000 -1.165722e+002 -5.442556e+001 1.078770e+000 -5.419677e+001 1.159494e+000 -1.949832e-001 -4.439005e+001
1322062500 -2.426117e+000 -1.179883e+002 -5.428720e+001 -8.546392e-001 -5.415774e+001 -7.523731e-001 -1.988364e-001 -4.503475e+001
1340806250 -2.455794e+000 -1.194013e+002 -5.418634e+001 -1.698920e+000 -5.419345e+001 -1.458786e+000 -2.058343e-001 -4.567413e+001
1359550000 -2.485718e+000 -1.208134e+002 -5.406136e+001 -2.901230e+000 -5.425943e+001 -2.481419e+000 -2.094791e-001 -4.630720e+001
1378293750 -2.516434e+000 -1.222438e+002 -5.418696e+001 -2.869147e+000 -5.422553e+001 -3.606920e+000 -2.127843e-001 -4.694033e+001
1397037500 -2.548053e+000 -1.236403e+002 -5.402273e+001 -3.474141e+000 -5.404830e+001 -3.826132e+000 -2.128153e-001 -4.757369e+001
1415781250 -2.578700e+000 -1.250377e+002 -5.389821e+001 -4.611339e+000 -5.407442e+001 -4.632772e+000 -2.113076e-001 -4.821454e+001
1434525000 -2.607410e+000 -1.264088e+002 -5.393269e+001 -5.119982e+000 -5.397718e+001 -6.138502e+000 -2.122558e-001 -4.885423e+001
1453268750 -2.636116e+000 -1.277809e+002 -5.389784e+001 -6.590499e+000 -5.411996e+001 -6.669236e+000 -2.162375e-001 -4.948564e+001
1472012500 -2.663495e+000 -1.291486e+002 -5.364484e+001 -7.816340e+000 -5.405799e+001 -7.100631e+000 -2.195871e-001 -5.011400e+001
1490756250 -2.691590e+000 -1.305137e+002 -5.368600e+001 -8.726755e+000 -5.401791e+001 -7.614847e+000 -2.213819e-001 -5.073387e+001
1509500000 -2.721454e+000 -1.318796e+002 -5.359917e+001 -8.784142e+000 -5.404782e+001 -9.188368e+000 -2.216456e-001 -5.136655e+001
1528243750 -2.750306e+000 -1.332234e+002 -5.363153e+001 -9.543273e+000 -5.400734e+001 -9.846632e+000 -2.181585e-001 -5.200780e+001
1546987500 -2.778512e+000 -1.345726e+002 -5.355819e+001 -1.061151e+001 -5.405895e+001 -1.072209e+001 -2.165690e-001 -5.265940e+001
1565731250 -2.806393e+000 -1.359040e+002 -5.350440e+001 -1.073614e+001 -5.396830e+001 -1.204110e+001 -2.199227e-001 -5.330313e+001
1584475000 -2.832059e+000 -1.372358e+002 -5.329086e+001 -1.165547e+001 -5.380685e+001 -1.249764e+001 -2.218001e-001 -5.391449e+001
1603218750 -2.857362e+000 -1.385814e+002 -5.318897e+001 -1.281094e+001 -5.372824e+001 -1.217002e+001 -2.219926e-001 -5.453090e+001
1621962500 -2.884971e+000 -1.399130e+002 -5.311252e+001 -1.412911e+001 -5.353006e+001 -1.295055e+001 -2.197694e-001 -5.515303e+001
1640706250 -2.914070e+000 -1.412479e+002 -5.313002e+001 -1.314589e+001 -5.334489e+001 -1.453467e+001 -2.164696e-001 -5.578296e+001
1659450000 -2.942027e+000 -1.425599e+002 -5.307272e+001 -1.412543e+001 -5.321595e+001 -1.548417e+001 -2.150392e-001 -5.643465e+001
1678193750 -2.967121e+000 -1.438530e+002 -5.314449e+001 -1.448208e+001 -5.322332e+001 -1.504382e+001 -2.150853e-001 -5.706965e+001
1696937500 -2.990977e+000 -1.451412e+002 -5.299863e+001 -1.695995e+001 -5.296177e+001 -1.575764e+001 -2.182917e-001 -5.770126e+001
1715681250 -3.016032e+000 -1.464563e+002 -5.281792e+001 -1.780326e+001 -5.281037e+001 -1.698248e+001 -2.191920e-001 -5.830610e+001
1734425000 -3.040726e+000 -1.477705e+002 -5.271902e+001 -1.863582e+001 -5.273980e+001 -1.816065e+001 -2.184908e-001 -5.891272e+001
1753168750 -3.067282e+000 -1.490610e+002 -5.253802e+001 -1.864613e+001 -5.252919e+001 -1.899957e+001 -2.203981e-001 -5.953133e+001
1771912500 -3.095711e+000 -1.503488e+002 -5.243802e+001 -1.910678e+001 -5.235187e+001 -1.976339e+001 -2.168085e-001 -6.016380e+001
1790656250 -3.123528e+000 -1.516175e+002 -5.238884e+001 -2.002004e+001 -5.224082e+001 -2.055312e+001 -2.166024e-001 -6.080143e+001
1809400000 -3.146553e+000 -1.528783e+002 -5.210374e+001 -2.096107e+001 -5.200259e+001 -2.109966e+001 -2.171401e-001 -6.143944e+001
1828143750 -3.167500e+000 -1.541455e+002 -5.214057e+001 -2.198483e+001 -5.199744e+001 -2.178478e+001 -2.202038e-001 -6.205788e+001
1846887500 -3.189875e+000 -1.554203e+002 -5.212025e+001 -2.193216e+001 -5.185225e+001 -2.274632e+001 -2.228240e-001 -6.265688e+001
1865631250 -3.216015e+000 -1.567194e+002 -5.198141e+001 -2.271827e+001 -5.204159e+001 -2.287444e+001 -2.228490e-001 -6.327903e+001
1884375000 -3.242386e+000 -1.579990e+002 -5.185859e+001 -2.280167e+001 -5.186544e+001 -2.295148e+001 -2.219347e-001 -6.390231e+001
1903118750 -3.268203e+000 -1.592621e+002 -5.176687e+001 -2.244048e+001 -5.183146e+001 -2.428627e+001 -2.219338e-001 -6.453322e+001
1921862500 -3.292626e+000 -1.604960e+002 -5.174601e+001 -2.347010e+001 -5.212303e+001 -2.612386e+001 -2.231713e-001 -6.518391e+001
1940606250 -3.314555e+000 -1.617353e+002 -5.171947e+001 -2.488310e+001 -5.224787e+001 -2.730380e+001 -2.248185e-001 -6.580560e+001
1959350000 -3.334308e+000 -1.629880e+002 -5.165194e+001 -2.510435e+001 -5.214173e+001 -2.871212e+001 -2.315205e-001 -6.641437e+001
1978093750 -3.356691e+000 -1.642498e+002 -5.154375e+001 -2.572360e+001 -5.208221e+001 -3.056961e+001 -2.358786e-001 -6.702267e+001
1996837500 -3.381318e+000 -1.655013e+002 -5.142552e+001 -2.666036e+001 -5.194777e+001 -3.169678e+001 -2.357163e-001 -6.764376e+001
2015581250 -3.406878e+000 -1.667405e+002 -5.140708e+001 -2.850530e+001 -5.187754e+001 -3.353351e+001 -2.384607e-001 -6.828441e+001
2034325000 -3.429084e+000 -1.679705e+002 -5.136338e+001 -2.952800e+001 -5.194267e+001 -3.527148e+001 -2.441655e-001 -6.893337e+001
2053068750 -3.448196e+000 -1.691987e+002 -5.150053e+001 -2.905124e+001 -5.203831e+001 -3.665563e+001 -2.514892e-001 -6.955939e+001
2071812500 -3.466500e+000 -1.704199e+002 -5.129985e+001 -3.012202e+001 -5.202715e+001 -3.640959e+001 -2.602232e-001 -7.018224e+001
2090556250 -3.485921e+000 -1.716567e+002 -5.129372e+001 -3.102944e+001 -5.192382e+001 -3.732982e+001 -2.664450e-001 -7.078506e+001
2109300000 -3.508428e+000 -1.728962e+002 -5.114875e+001 -3.170278e+001 -5.166486e+001 -3.807341e+001 -2.720315e-001 -7.141084e+001
2128043750 -3.533266e+000 -1.741376e+002 -5.107449e+001 -3.178316e+001 -5.164711e+001 -4.007843e+001 -2.763529e-001 -7.204763e+001
2146787500 -3.557665e+000 -1.753423e+002 -5.115694e+001 -3.207725e+001 -5.162481e+001 -4.127508e+001 -2.823907e-001 -7.269673e+001
2165531250 -3.577102e+000 -1.765497e+002 -5.124617e+001 -3.262867e+001 -5.152297e+001 -4.197007e+001 -2.902381e-001 -7.333772e+001
2184275000 -3.595987e+000 -1.777743e+002 -5.131772e+001 -3.309487e+001 -5.150344e+001 -4.280944e+001 -2.974992e-001 -7.397513e+001
2203018750 -3.612784e+000 -1.789922e+002 -5.146111e+001 -3.354956e+001 -5.157343e+001 -4.368599e+001 -3.060709e-001 -7.458553e+001
2221762500 -3.630697e+000 1.797929e+002 -5.143929e+001 -3.381966e+001 -5.144643e+001 -4.414092e+001 -3.131132e-001 -7.520081e+001
2240506250 -3.652017e+000 1.785942e+002 -5.153036e+001 -3.463020e+001 -5.157009e+001 -4.508764e+001 -3.185860e-001 -7.581864e+001
2259250000 -3.675325e+000 1.773853e+002 -5.140184e+001 -3.504464e+001 -5.159714e+001 -4.594906e+001 -3.255666e-001 -7.646404e+001
2277993750 -3.695372e+000 1.761810e+002 -5.142535e+001 -3.605804e+001 -5.161979e+001 -4.742694e+001 -3.345007e-001 -7.710977e+001
2296737500 -3.712482e+000 1.749982e+002 -5.142878e+001 -3.732810e+001 -5.133471e+001 -4.814546e+001 -3.447677e-001 -7.772709e+001
2315481250 -3.728984e+000 1.738074e+002 -5.137845e+001 -3.877078e+001 -5.144976e+001 -4.894615e+001 -3.528924e-001 -7.834892e+001
2334225000 -3.746580e+000 1.726065e+002 -5.148878e+001 -4.075700e+001 -5.161033e+001 -4.974577e+001 -3.605089e-001 -7.896728e+001
2352968750 -3.766296e+000 1.714024e+002 -5.138401e+001 -4.247461e+001 -5.127413e+001 -5.001112e+001 -3.656642e-001 -7.957882e+001
2371712500 -3.784770e+000 1.702028e+002 -5.133852e+001 -4.335091e+001 -5.114389e+001 -5.040258e+001 -3.725130e-001 -8.021235e+001
2390456250 -3.802797e+000 1.690142e+002 -5.129745e+001 -4.518022e+001 -5.123631e+001 -5.040494e+001 -3.787105e-001 -8.085756e+001
2409200000 -3.820205e+000 1.678404e+002 -5.134763e+001 -4.531702e+001 -5.106762e+001 -5.126093e+001 -3.872475e-001 -8.149622e+001
2427943750 -3.835790e+000 1.666506e+002 -5.149917e+001 -4.679825e+001 -5.111378e+001 -5.172691e+001 -3.983648e-001 -8.212463e+001
2446687500 -3.852206e+000 1.654660e+002 -5.150954e+001 -4.724010e+001 -5.113060e+001 -5.272984e+001 -4.051764e-001 -8.275466e+001
2465431250 -3.869702e+000 1.642795e+002 -5.153198e+001 -4.797663e+001 -5.103849e+001 -5.294027e+001 -4.081279e-001 -8.336094e+001
2484175000 -3.889045e+000 1.630896e+002 -5.140990e+001 -5.026456e+001 -5.112667e+001 -5.297223e+001 -4.132437e-001 -8.400122e+001
2502918750 -3.907519e+000 1.619053e+002 -5.147131e+001 -5.150412e+001 -5.122417e+001 -5.552274e+001 -4.193360e-001 -8.463554e+001
2521662500 -3.925885e+000 1.607445e+002 -5.142118e+001 -5.178085e+001 -5.132398e+001 -5.598727e+001 -4.268486e-001 -8.525914e+001
2540406250 -3.940493e+000 1.595680e+002 -5.140884e+001 -5.292162e+001 -5.141484e+001 -5.742066e+001 -4.355874e-001 -8.588705e+001
2559150000 -3.954855e+000 1.583941e+002 -5.139550e+001 -5.473534e+001 -5.148573e+001 -5.688611e+001 -4.439007e-001 -8.649569e+001
2577893750 -3.968336e+000 1.572042e+002 -5.146091e+001 -5.630606e+001 -5.154345e+001 -5.758882e+001 -4.491791e-001 -8.710231e+001
2596637500 -3.985626e+000 1.560227e+002 -5.129836e+001 -5.761826e+001 -5.150160e+001 -5.881248e+001 -4.531438e-001 -8.773284e+001
2615381250 -4.002628e+000 1.548547e+002 -5.136781e+001 -5.937330e+001 -5.153201e+001 -6.003288e+001 -4.587863e-001 -8.835149e+001
2634125000 -4.019135e+000 1.536805e+002 -5.132273e+001 -6.100812e+001 -5.138747e+001 -6.087366e+001 -4.644279e-001 -8.897770e+001
2652868750 -4.033090e+000 1.525097e+002 -5.139836e+001 -6.261503e+001 -5.154784e+001 -6.136371e+001 -4.715191e-001 -8.961310e+001
2671612500 -4.046337e+000 1.513377e+002 -5.147042e+001 -6.347199e+001 -5.150590e+001 -6.293235e+001 -4.805362e-001 -9.024074e+001
2690356250 -4.058986e+000 1.501606e+002 -5.152993e+001 -6.460957e+001 -5.148820e+001 -6.313146e+001 -4.864831e-001 -9.085558e+001
2709100000 -4.072503e+000 1.489837e+002 -5.141022e+001 -6.564125e+001 -5.158825e+001 -6.345403e+001 -4.914608e-001 -9.147092e+001
2727843750 -4.086436e+000 1.478034e+002 -5.144363e+001 -6.616100e+001 -5.172295e+001 -6.401545e+001 -4.971612e-001 -9.209322e+001
2746587500 -4.101143e+000 1.466417e+002 -5.139839e+001 -6.671905e+001 -5.170349e+001 -6.495046e+001 -5.041935e-001 -9.273283e+001
2765331250 -4.115139e+000 1.454765e+002 -5.131113e+001 -6.795105e+001 -5.162845e+001 -6.597034e+001 -5.127725e-001 -9.335442e+001
2784075000 -4.125826e+000 1.443027e+002 -5.123978e+001 -6.780895e+001 -5.170663e+001 -6.704413e+001 -5.217149e-001 -9.399947e+001
2802818750 -4.138544e+000 1.431262e+002 -5.129298e+001 -6.823792e+001 -5.156134e+001 -6.851488e+001 -5.296332e-001 -9.461693e+001
2821562500 -4.149968e+000 1.419528e+002 -5.135843e+001 -6.850232e+001 -5.162842e+001 -6.995062e+001 -5.366942e-001 -9.523374e+001
2840306250 -4.160140e+000 1.407880e+002 -5.142257e+001 -7.044702e+001 -5.163644e+001 -7.026633e+001 -5.413426e-001 -9.584460e+001
2859050000 -4.171144e+000 1.396139e+002 -5.138332e+001 -7.120531e+001 -5.167324e+001 -7.080913e+001 -5.475343e-001 -9.645846e+001
2877793750 -4.180264e+000 1.384181e+002 -5.140242e+001 -7.229474e+001 -5.172093e+001 -7.149537e+001 -5.565333e-001 -9.707537e+001
2896537500 -4.191518e+000 1.372604e+002 -5.142822e+001 -7.305975e+001 -5.172510e+001 -7.221420e+001 -5.640945e-001 -9.772572e+001
2915281250 -4.203796e+000 1.360932e+002 -5.140484e+001 -7.390720e+001 -5.156160e+001 -7.352307e+001 -5.714746e-001 -9.832964e+001
2934025000 -4.212235e+000 1.349210e+002 -5.138346e+001 -7.458104e+001 -5.141648e+001 -7.366150e+001 -5.795570e-001 -9.895806e+001
2952768750 -4.222961e+000 1.337548e+002 -5.135073e+001 -7.593224e+001 -5.144703e+001 -7.432491e+001 -5.857304e-001 -9.958266e+001
2971512500 -4.236554e+000 1.325705e+002 -5.138667e+001 -7.669138e+001 -5.134572e+001 -7.554916e+001 -5.938539e-001 -1.002008e+002
2990256250 -4.243921e+000 1.314178e+002 -5.139726e+001 -7.691985e+001 -5.134367e+001 -7.610787e+001 -6.026897e-001 -1.008466e+002
3009000000 -4.255550e+000 1.302650e+002 -5.135245e+001 -7.785209e+001 -5.127459e+001 -7.707748e+001 -6.092193e-001 -1.014795e+002
3027743750 -4.264770e+000 1.290850e+002 -5.136880e+001 -7.828873e+001 -5.139478e+001 -7.664856e+001 -6.220876e-001 -1.020961e+002
3046487500 -4.270156e+000 1.279356e+002 -5.126630e+001 -7.898373e+001 -5.139557e+001 -7.710037e+001 -6.313323e-001 -1.027238e+002
3065231250 -4.281548e+000 1.267688e+002 -5.117466e+001 -7.935314e+001 -5.145816e+001 -7.820765e+001 -6.367696e-001 -1.033424e+002
3083975000 -4.289396e+000 1.255510e+002 -5.110898e+001 -8.027129e+001 -5.156542e+001 -8.012237e+001 -6.487085e-001 -1.039516e+002
3102718750 -4.294589e+000 1.243981e+002 -5.104839e+001 -8.028667e+001 -5.157447e+001 -7.915808e+001 -6.573094e-001 -1.045764e+002
3121462500 -4.306142e+000 1.232366e+002 -5.117241e+001 -8.174377e+001 -5.149361e+001 -8.042384e+001 -6.615359e-001 -1.051944e+002
3140206250 -4.312716e+000 1.220312e+002 -5.127489e+001 -8.335040e+001 -5.138197e+001 -8.234431e+001 -6.744653e-001 -1.058215e+002
3158950000 -4.315476e+000 1.208944e+002 -5.118698e+001 -8.426795e+001 -5.129023e+001 -8.371405e+001 -6.828121e-001 -1.064642e+002
3177693750 -4.328026e+000 1.197241e+002 -5.122442e+001 -8.449712e+001 -5.125558e+001 -8.506489e+001 -6.884858e-001 -1.070658e+002
3196437500 -4.333025e+000 1.185002e+002 -5.132595e+001 -8.511990e+001 -5.106598e+001 -8.560183e+001 -6.984502e-001 -1.076802e+002
3215181250 -4.335422e+000 1.173617e+002 -5.140901e+001 -8.653897e+001 -5.109603e+001 -8.584727e+001 -7.102129e-001 -1.083023e+002
3233925000 -4.347356e+000 1.161931e+002 -5.141792e+001 -8.783911e+001 -5.115887e+001 -8.640488e+001 -7.163202e-001 -1.089260e+002
3252668750 -4.351565e+000 1.149650e+002 -5.153127e+001 -8.931504e+001 -5.112915e+001 -8.703347e+001 -7.272065e-001 -1.095415e+002
3271412500 -4.353387e+000 1.138029e+002 -5.144624e+001 -9.012914e+001 -5.114524e+001 -8.818776e+001 -7.364174e-001 -1.101805e+002
3290156250 -4.365201e+000 1.126114e+002 -5.140623e+001 -9.118375e+001 -5.119527e+001 -8.967786e+001 -7.422720e-001 -1.107998e+002
3308900000 -4.367602e+000 1.114199e+002 -5.147598e+001 -9.157500e+001 -5.123073e+001 -9.045076e+001 -7.502282e-001 -1.114053e+002
3327643750 -4.370040e+000 1.102539e+002 -5.152335e+001 -9.291506e+001 -5.123964e+001 -9.252570e+001 -7.598385e-001 -1.120175e+002
3346387500 -4.377042e+000 1.090714e+002 -5.161506e+001 -9.346043e+001 -5.118897e+001 -9.373731e+001 -7.683654e-001 -1.126501e+002
3365131250 -4.380760e+000 1.078651e+002 -5.169341e+001 -9.495689e+001 -5.138033e+001 -9.510157e+001 -7.777039e-001 -1.132445e+002
3383875000 -4.380706e+000 1.066840e+002 -5.181209e+001 -9.588251e+001 -5.131954e+001 -9.561488e+001 -7.889302e-001 -1.138770e+002
3402618750 -4.387084e+000 1.054992e+002 -5.181292e+001 -9.745787e+001 -5.150034e+001 -9.633500e+001 -7.981102e-001 -1.144917e+002
3421362500 -4.388247e+000 1.042759e+002 -5.185198e+001 -9.855638e+001 -5.158149e+001 -9.789447e+001 -8.057538e-001 -1.150988e+002
3440106250 -4.388529e+000 1.031006e+002 -5.203980e+001 -9.862931e+001 -5.174997e+001 -9.834509e+001 -8.152525e-001 -1.157252e+002
3458850000 -4.392951e+000 1.018981e+002 -5.226964e+001 -1.002277e+002 -5.176929e+001 -1.002966e+002 -8.232476e-001 -1.163550e+002
3477593750 -4.392475e+000 1.006716e+002 -5.256337e+001 -1.016025e+002 -5.179489e+001 -1.013171e+002 -8.314999e-001 -1.169789e+002
3496337500 -4.388311e+000 9.950800e+001 -5.277115e+001 -1.027033e+002 -5.185997e+001 -1.025136e+002 -8.449120e-001 -1.175979e+002
3515081250 -4.393588e+000 9.832515e+001 -5.285576e+001 -1.033250e+002 -5.179351e+001 -1.027965e+002 -8.535168e-001 -1.182164e+002
3533825000 -4.391219e+000 9.712481e+001 -5.286803e+001 -1.055224e+002 -5.181214e+001 -1.051503e+002 -8.606564e-001 -1.188492e+002
3552568750 -4.392168e+000 9.595232e+001 -5.279269e+001 -1.061330e+002 -5.211502e+001 -1.059626e+002 -8.752624e-001 -1.194678e+002
3571312500 -4.394732e+000 9.474477e+001 -5.280489e+001 -1.064648e+002 -5.217189e+001 -1.055758e+002 -8.830227e-001 -1.201048e+002
3590056250 -4.397826e+000 9.351291e+001 -5.307587e+001 -1.082914e+002 -5.229125e+001 -1.062441e+002 -8.933652e-001 -1.207136e+002
3608800000 -4.389196e+000 9.228930e+001 -5.321366e+001 -1.112509e+002 -5.237426e+001 -1.071836e+002 -9.051846e-001 -1.213524e+002
3627543750 -4.389692e+000 9.113276e+001 -5.326270e+001 -1.115392e+002 -5.258504e+001 -1.072885e+002 -9.110445e-001 -1.219784e+002
3646287500 -4.391530e+000 8.988318e+001 -5.328272e+001 -1.124056e+002 -5.258661e+001 -1.083255e+002 -9.159552e-001 -1.225908e+002
3665031250 -4.382459e+000 8.867398e+001 -5.327993e+001 -1.127652e+002 -5.262910e+001 -1.094254e+002 -9.276890e-001 -1.232127e+002
3683775000 -4.380016e+000 8.754623e+001 -5.320462e+001 -1.134302e+002 -5.264208e+001 -1.112119e+002 -9.353501e-001 -1.238396e+002
3702518750 -4.385299e+000 8.629421e+001 -5.333925e+001 -1.143825e+002 -5.284624e+001 -1.136784e+002 -9.438311e-001 -1.244347e+002
3721262500 -4.371276e+000 8.507399e+001 -5.343374e+001 -1.153100e+002 -5.295527e+001 -1.147663e+002 -9.560531e-001 -1.250742e+002
3740006250 -4.372329e+000 8.392958e+001 -5.346115e+001 -1.167862e+002 -5.294022e+001 -1.150946e+002 -9.620813e-001 -1.256881e+002
3758750000 -4.373826e+000 8.266412e+001 -5.346657e+001 -1.181038e+002 -5.293565e+001 -1.153131e+002 -9.707617e-001 -1.263065e+002
3777493750 -4.361054e+000 8.144779e+001 -5.364194e+001 -1.189004e+002 -5.314198e+001 -1.160139e+002 -9.824051e-001 -1.269376e+002
3796237500 -4.361307e+000 8.029082e+001 -5.365553e+001 -1.200387e+002 -5.304622e+001 -1.165103e+002 -9.868013e-001 -1.275817e+002
3814981250 -4.360563e+000 7.899625e+001 -5.372858e+001 -1.209328e+002 -5.312978e+001 -1.172458e+002 -9.951452e-001 -1.281927e+002
3833725000 -4.344892e+000 7.778998e+001 -5.378988e+001 -1.204677e+002 -5.320634e+001 -1.176512e+002 -1.002392e+000 -1.288284e+002
3852468750 -4.347431e+000 7.660596e+001 -5.392445e+001 -1.221764e+002 -5.329247e+001 -1.186843e+002 -1.007882e+000 -1.294493e+002
3871212500 -4.340789e+000 7.531073e+001 -5.386496e+001 -1.233307e+002 -5.336853e+001 -1.203163e+002 -1.016235e+000 -1.300529e+002
3889956250 -4.327486e+000 7.410877e+001 -5.393275e+001 -1.229116e+002 -5.354531e+001 -1.214223e+002 -1.026063e+000 -1.306904e+002
3908700000 -4.329735e+000 7.290793e+001 -5.368536e+001 -1.229536e+002 -5.364390e+001 -1.209064e+002 -1.031999e+000 -1.313104e+002
3927443750 -4.325402e+000 7.159000e+001 -5.374505e+001 -1.245594e+002 -5.373881e+001 -1.210583e+002 -1.040727e+000 -1.319250e+002
3946187500 -4.309106e+000 7.038286e+001 -5.391867e+001 -1.262321e+002 -5.384163e+001 -1.216794e+002 -1.049703e+000 -1.325737e+002
3964931250 -4.313240e+000 6.914321e+001 -5.399755e+001 -1.268876e+002 -5.404784e+001 -1.216311e+002 -1.056177e+000 -1.331944e+002
3983675000 -4.299178e+000 6.782794e+001 -5.391424e+001 -1.273043e+002 -5.392449e+001 -1.224453e+002 -1.065106e+000 -1.338067e+002
4002418750 -4.281388e+000 6.665098e+001 -5.400264e+001 -1.271240e+002 -5.414281e+001 -1.229684e+002 -1.074909e+000 -1.344428e+002
4021162500 -4.277378e+000 6.542931e+001 -5.385262e+001 -1.276591e+002 -5.429242e+001 -1.233748e+002 -1.080236e+000 -1.350636e+002
4039906250 -4.267375e+000 6.414265e+001 -5.379033e+001 -1.269234e+002 -5.417614e+001 -1.241437e+002 -1.090380e+000 -1.356650e+002
4058650000 -4.251730e+000 6.292202e+001 -5.383720e+001 -1.278280e+002 -5.436814e+001 -1.267914e+002 -1.103898e+000 -1.363284e+002
4077393750 -4.247904e+000 6.170994e+001 -5.391046e+001 -1.287538e+002 -5.464631e+001 -1.278675e+002 -1.111219e+000 -1.369498e+002
4096137500 -4.236607e+000 6.041566e+001 -5.405486e+001 -1.301626e+002 -5.481554e+001 -1.286052e+002 -1.121225e+000 -1.375705e+002
4114881250 -4.224534e+000 5.916341e+001 -5.421173e+001 -1.314906e+002 -5.491888e+001 -1.285097e+002 -1.132661e+000 -1.382143e+002
4133625000 -4.213543e+000 5.793204e+001 -5.417992e+001 -1.328649e+002 -5.498619e+001 -1.263391e+002 -1.141081e+000 -1.388541e+002
4152368750 -4.204858e+000 5.665002e+001 -5.432199e+001 -1.335474e+002 -5.511470e+001 -1.266720e+002 -1.154321e+000 -1.394682e+002
4171112500 -4.190054e+000 5.538817e+001 -5.440500e+001 -1.334539e+002 -5.521451e+001 -1.275937e+002 -1.166228e+000 -1.401593e+002
4189856250 -4.178338e+000 5.414196e+001 -5.485993e+001 -1.331176e+002 -5.554736e+001 -1.276945e+002 -1.175455e+000 -1.407820e+002
4208600000 -4.165134e+000 5.285485e+001 -5.472490e+001 -1.352666e+002 -5.558569e+001 -1.290113e+002 -1.188061e+000 -1.413961e+002
4227343750 -4.148405e+000 5.159872e+001 -5.478450e+001 -1.362771e+002 -5.580155e+001 -1.307429e+002 -1.199959e+000 -1.420324e+002
4246087500 -4.135108e+000 5.036932e+001 -5.476133e+001 -1.366193e+002 -5.607495e+001 -1.333669e+002 -1.208804e+000 -1.426549e+002
4264831250 -4.119850e+000 4.905052e+001 -5.490359e+001 -1.385023e+002 -5.613778e+001 -1.336348e+002 -1.224611e+000 -1.432944e+002
4283575000 -4.101130e+000 4.779993e+001 -5.499864e+001 -1.389698e+002 -5.606875e+001 -1.333665e+002 -1.236828e+000 -1.439471e+002
4302318750 -4.086756e+000 4.656255e+001 -5.504876e+001 -1.404629e+002 -5.605404e+001 -1.341522e+002 -1.250788e+000 -1.445943e+002
4321062500 -4.074585e+000 4.527643e+001 -5.498640e+001 -1.423923e+002 -5.600616e+001 -1.343965e+002 -1.259155e+000 -1.452158e+002
4339806250 -4.053570e+000 4.397935e+001 -5.541301e+001 -1.435244e+002 -5.608534e+001 -1.365701e+002 -1.273313e+000 -1.458528e+002
4358550000 -4.036700e+000 4.274113e+001 -5.540690e+001 -1.444579e+002 -5.612142e+001 -1.372787e+002 -1.284717e+000 -1.465262e+002
4377293750 -4.023402e+000 4.144646e+001 -5.559336e+001 -1.441647e+002 -5.603144e+001 -1.379505e+002 -1.297904e+000 -1.471679e+002
4396037500 -3.999739e+000 4.017133e+001 -5.574102e+001 -1.439805e+002 -5.586869e+001 -1.406096e+002 -1.309698e+000 -1.478148e+002
4414781250 -3.987586e+000 3.889985e+001 -5.626233e+001 -1.451811e+002 -5.628205e+001 -1.459859e+002 -1.320759e+000 -1.484590e+002
4433525000 -3.972582e+000 3.757016e+001 -5.673100e+001 -1.471024e+002 -5.613297e+001 -1.476529e+002 -1.334938e+000 -1.491050e+002
4452268750 -3.950705e+000 3.627921e+001 -5.695978e+001 -1.477513e+002 -5.625300e+001 -1.481772e+002 -1.348257e+000 -1.497817e+002
4471012500 -3.937180e+000 3.498655e+001 -5.714444e+001 -1.497297e+002 -5.644791e+001 -1.511134e+002 -1.359257e+000 -1.504226e+002
4489756250 -3.919620e+000 3.365628e+001 -5.750310e+001 -1.506069e+002 -5.635670e+001 -1.500197e+002 -1.373458e+000 -1.510688e+002
4508500000 -3.896398e+000 3.233650e+001 -5.775613e+001 -1.504039e+002 -5.635850e+001 -1.510873e+002 -1.384945e+000 -1.517166e+002
4527243750 -3.883507e+000 3.103102e+001 -5.780744e+001 -1.510621e+002 -5.635477e+001 -1.517137e+002 -1.397819e+000 -1.523451e+002
4545987500 -3.862141e+000 2.968487e+001 -5.782858e+001 -1.512618e+002 -5.659707e+001 -1.546644e+002 -1.412517e+000 -1.529877e+002
4564731250 -3.842258e+000 2.837155e+001 -5.791882e+001 -1.520022e+002 -5.675001e+001 -1.574830e+002 -1.423517e+000 -1.536529e+002
4583475000 -3.827294e+000 2.705471e+001 -5.804863e+001 -1.538216e+002 -5.675308e+001 -1.579776e+002 -1.436520e+000 -1.542792e+002
4602218750 -3.808975e+000 2.568863e+001 -5.811455e+001 -1.554040e+002 -5.710960e+001 -1.595012e+002 -1.448844e+000 -1.549101e+002
4620962500 -3.784602e+000 2.437289e+001 -5.769515e+001 -1.571798e+002 -5.703920e+001 -1.615728e+002 -1.463223e+000 -1.555691e+002
4639706250 -3.767874e+000 2.306889e+001 -5.791664e+001 -1.576156e+002 -5.717131e+001 -1.621538e+002 -1.471167e+000 -1.562357e+002
4658450000 -3.747975e+000 2.169049e+001 -5.807439e+001 -1.564761e+002 -5.758109e+001 -1.639403e+002 -1.486328e+000 -1.568801e+002
4677193750 -3.726076e+000 2.036615e+001 -5.821580e+001 -1.578823e+002 -5.748661e+001 -1.643359e+002 -1.497523e+000 -1.575832e+002
4695937500 -3.713375e+000 1.906320e+001 -5.836916e+001 -1.600000e+002 -5.754760e+001 -1.653928e+002 -1.509182e+000 -1.582075e+002
4714681250 -3.690735e+000 1.767462e+001 -5.865545e+001 -1.596635e+002 -5.783340e+001 -1.675429e+002 -1.526316e+000 -1.588686e+002
4733425000 -3.672746e+000 1.633105e+001 -5.894331e+001 -1.604137e+002 -5.796996e+001 -1.675159e+002 -1.535745e+000 -1.595639e+002
4752168750 -3.652857e+000 1.497698e+001 -5.898034e+001 -1.600154e+002 -5.812701e+001 -1.691969e+002 -1.551250e+000 -1.601926e+002
4770912500 -3.632260e+000 1.362117e+001 -5.924161e+001 -1.596852e+002 -5.804200e+001 -1.688880e+002 -1.565093e+000 -1.608730e+002
4789656250 -3.614253e+000 1.226831e+001 -5.932703e+001 -1.605463e+002 -5.816130e+001 -1.696461e+002 -1.574058e+000 -1.615530e+002
4808400000 -3.595086e+000 1.091190e+001 -5.914919e+001 -1.604402e+002 -5.854198e+001 -1.708986e+002 -1.586367e+000 -1.621609e+002
4827143750 -3.574690e+000 9.526579e+000 -5.924191e+001 -1.615777e+002 -5.887392e+001 -1.715134e+002 -1.604503e+000 -1.628452e+002
4845887500 -3.550254e+000 8.198233e+000 -5.961306e+001 -1.608705e+002 -5.863860e+001 -1.678356e+002 -1.615328e+000 -1.635504e+002
4864631250 -3.534237e+000 6.857464e+000 -5.956021e+001 -1.639474e+002 -5.891761e+001 -1.691884e+002 -1.625973e+000 -1.641622e+002
4883375000 -3.513203e+000 5.454249e+000 -5.990365e+001 -1.637371e+002 -5.898378e+001 -1.719511e+002 -1.643737e+000 -1.648429e+002
4902118750 -3.490929e+000 4.120513e+000 -6.030542e+001 -1.643253e+002 -5.914509e+001 -1.719360e+002 -1.653362e+000 -1.655526e+002
4920862500 -3.474921e+000 2.734163e+000 -6.027966e+001 -1.658967e+002 -5.968732e+001 -1.746976e+002 -1.665844e+000 -1.661759e+002
4939606250 -3.453953e+000 1.324606e+000 -6.080275e+001 -1.638252e+002 -5.983350e+001 -1.718967e+002 -1.681808e+000 -1.668924e+002
4958350000 -3.428655e+000 -1.979752e-002 -6.106607e+001 -1.643268e+002 -6.051046e+001 -1.717117e+002 -1.690001e+000 -1.675942e+002
4977093750 -3.413806e+000 -1.409854e+000 -6.155307e+001 -1.668487e+002 -6.036850e+001 -1.696983e+002 -1.702746e+000 -1.682242e+002
4995837500 -3.390176e+000 -2.830828e+000 -6.178905e+001 -1.685319e+002 -6.050862e+001 -1.701822e+002 -1.721684e+000 -1.689303e+002
5014581250 -3.365066e+000 -4.180382e+000 -6.175375e+001 -1.677826e+002 -6.074831e+001 -1.720717e+002 -1.728432e+000 -1.696100e+002
5033325000 -3.344300e+000 -5.579148e+000 -6.221790e+001 -1.681360e+002 -6.071539e+001 -1.725605e+002 -1.749234e+000 -1.702674e+002
5052068750 -3.323155e+000 -7.000560e+000 -6.255177e+001 -1.692458e+002 -6.073742e+001 -1.738569e+002 -1.764160e+000 -1.709820e+002
5070812500 -3.301463e+000 -8.402480e+000 -6.278629e+001 -1.679677e+002 -6.075599e+001 -1.746620e+002 -1.775908e+000 -1.716430e+002
5089556250 -3.281315e+000 -9.817704e+000 -6.334482e+001 -1.669620e+002 -6.030758e+001 -1.721064e+002 -1.794465e+000 -1.723209e+002
5108300000 -3.259417e+000 -1.125006e+001 -6.369180e+001 -1.617202e+002 -6.062568e+001 -1.728149e+002 -1.811374e+000 -1.730036e+002
5127043750 -3.234424e+000 -1.265414e+001 -6.440862e+001 -1.513163e+002 -6.076282e+001 1.776531e+002 -1.821528e+000 -1.736785e+002
5145787500 -3.216395e+000 -1.408810e+001 -6.425170e+001 -1.507961e+002 -6.076640e+001 1.697411e+002 -1.838737e+000 -1.743446e+002
5164531250 -3.193069e+000 -1.552328e+001 -6.420299e+001 -1.518250e+002 -6.101886e+001 1.680244e+002 -1.854671e+000 -1.750415e+002
5183275000 -3.169447e+000 -1.694546e+001 -6.465637e+001 -1.541238e+002 -6.126621e+001 1.726940e+002 -1.868319e+000 -1.757251e+002
5202018750 -3.152841e+000 -1.839627e+001 -6.442284e+001 -1.558131e+002 -6.164198e+001 1.711289e+002 -1.887349e+000 -1.764061e+002
5220762500 -3.126259e+000 -1.983732e+001 -6.487698e+001 -1.520351e+002 -6.186361e+001 1.680101e+002 -1.903530e+000 -1.771091e+002
5239506250 -3.105682e+000 -2.127541e+001 -6.561058e+001 -1.528209e+002 -6.198351e+001 1.658079e+002 -1.916832e+000 -1.778104e+002
5258250000 -3.088377e+000 -2.273885e+001 -6.623318e+001 -1.601091e+002 -6.249575e+001 1.629713e+002 -1.934796e+000 -1.784976e+002
5276993750 -3.065917e+000 -2.420329e+001 -6.591940e+001 -1.658873e+002 -6.258858e+001 1.606765e+002 -1.948889e+000 -1.792144e+002
5295737500 -3.046189e+000 -2.566360e+001 -6.624854e+001 -1.636088e+002 -6.302579e+001 1.556473e+002 -1.963750e+000 -1.798962e+002
5314481250 -3.027042e+000 -2.714715e+001 -6.604364e+001 -1.690086e+002 -6.331775e+001 1.559271e+002 -1.981346e+000 1.794221e+002
5333225000 -3.003216e+000 -2.861333e+001 -6.620142e+001 -1.693282e+002 -6.344453e+001 1.527029e+002 -1.997899e+000 1.787081e+002
5351968750 -2.984653e+000 -3.008280e+001 -6.626859e+001 -1.697649e+002 -6.331471e+001 1.490117e+002 -2.014163e+000 1.780238e+002
5370712500 -2.967338e+000 -3.157715e+001 -6.613239e+001 -1.735956e+002 -6.367171e+001 1.377336e+002 -2.034378e+000 1.773269e+002
5389456250 -2.944580e+000 -3.305478e+001 -6.615243e+001 -1.731962e+002 -6.353893e+001 1.261778e+002 -2.051502e+000 1.766048e+002
5408200000 -2.929343e+000 -3.454512e+001 -6.678069e+001 -1.664636e+002 -6.413844e+001 1.147846e+002 -2.068596e+000 1.759088e+002
5426943750 -2.913272e+000 -3.605281e+001 -6.725423e+001 -1.616107e+002 -6.393456e+001 1.085054e+002 -2.087219e+000 1.752029e+002
5445687500 -2.895049e+000 -3.754466e+001 -6.772084e+001 -1.592957e+002 -6.411596e+001 1.091587e+002 -2.102864e+000 1.744678e+002
5464431250 -2.883761e+000 -3.906575e+001 -6.757866e+001 -1.566017e+002 -6.440342e+001 1.129769e+002 -2.117730e+000 1.737758e+002
5483175000 -2.868624e+000 -4.060289e+001 -6.804863e+001 -1.543842e+002 -6.453912e+001 1.163374e+002 -2.136740e+000 1.730520e+002
5501918750 -2.851198e+000 -4.211818e+001 -6.794951e+001 -1.542122e+002 -6.461060e+001 1.220756e+002 -2.152739e+000 1.723132e+002
5520662500 -2.844409e+000 -4.366195e+001 -6.796926e+001 -1.477277e+002 -6.497783e+001 1.238417e+002 -2.169535e+000 1.716272e+002
5539406250 -2.829872e+000 -4.522807e+001 -6.818917e+001 -1.390169e+002 -6.505234e+001 1.275348e+002 -2.189914e+000 1.709017e+002
5558150000 -2.814255e+000 -4.675158e+001 -6.783007e+001 -1.415007e+002 -6.534154e+001 1.346314e+002 -2.206074e+000 1.701584e+002
5576893750 -2.808950e+000 -4.829685e+001 -6.782452e+001 -1.349888e+002 -6.547394e+001 1.421112e+002 -2.222307e+000 1.694487e+002
5595637500 -2.798911e+000 -4.988551e+001 -6.839257e+001 -1.289342e+002 -6.587541e+001 1.353945e+002 -2.243480e+000 1.687178e+002
5614381250 -2.785786e+000 -5.143299e+001 -6.827064e+001 -1.223988e+002 -6.579609e+001 1.225233e+002 -2.259541e+000 1.679633e+002
5633125000 -2.781993e+000 -5.301589e+001 -6.901217e+001 -1.150641e+002 -6.657291e+001 1.197154e+002 -2.276145e+000 1.672484e+002
5651868750 -2.774266e+000 -5.462173e+001 -6.874608e+001 -1.125368e+002 -6.651469e+001 1.237863e+002 -2.300565e+000 1.665174e+002
5670612500 -2.764874e+000 -5.619436e+001 -6.893491e+001 -1.004063e+002 -6.622531e+001 1.242665e+002 -2.316969e+000 1.657787e+002
5689356250 -2.763326e+000 -5.778776e+001 -6.867012e+001 -8.862014e+001 -6.580261e+001 1.291973e+002 -2.337407e+000 1.650486e+002
5708100000 -2.756933e+000 -5.941325e+001 -6.865800e+001 -7.878603e+001 -6.602499e+001 1.330522e+002 -2.361085e+000 1.643075e+002
5726843750 -2.749963e+000 -6.100946e+001 -6.832964e+001 -7.615314e+001 -6.589964e+001 1.388266e+002 -2.379126e+000 1.635361e+002
5745587500 -2.752484e+000 -6.262574e+001 -6.855722e+001 -6.279332e+001 -6.562184e+001 1.445469e+002 -2.397861e+000 1.628034e+002
5764331250 -2.750675e+000 -6.427804e+001 -6.804892e+001 -5.650468e+001 -6.640279e+001 1.590314e+002 -2.421271e+000 1.620452e+002
5783075000 -2.748017e+000 -6.589554e+001 -6.805039e+001 -5.179060e+001 -6.613259e+001 1.669284e+002 -2.437736e+000 1.612889e+002
5801818750 -2.745563e+000 -6.753069e+001 -6.783643e+001 -4.755139e+001 -6.598707e+001 1.763983e+002 -2.458245e+000 1.605516e+002
5820562500 -2.752784e+000 -6.919711e+001 -6.834766e+001 -5.118935e+001 -6.612263e+001 -1.671688e+002 -2.484101e+000 1.597969e+002
5839306250 -2.754029e+000 -7.086568e+001 -6.845274e+001 -6.463158e+001 -6.550344e+001 -1.516575e+002 -2.503201e+000 1.589834e+002
5858050000 -2.756774e+000 -7.252964e+001 -6.833759e+001 -8.242451e+001 -6.554164e+001 -1.414449e+002 -2.521922e+000 1.582455e+002
5876793750 -2.768932e+000 -7.420016e+001 -6.815530e+001 -9.977724e+001 -6.539284e+001 -1.436317e+002 -2.552492e+000 1.574904e+002
5895537500 -2.771612e+000 -7.591061e+001 -6.844991e+001 -1.138108e+002 -6.569188e+001 -1.450466e+002 -2.574026e+000 1.566479e+002
5914281250 -2.777059e+000 -7.758319e+001 -6.823942e+001 -1.241878e+002 -6.567100e+001 -1.416572e+002 -2.594199e+000 1.559068e+002
5933025000 -2.795670e+000 -7.929494e+001 -6.843770e+001 -1.400619e+002 -6.559036e+001 -1.435866e+002 -2.625555e+000 1.551157e+002
5951768750 -2.799726e+000 -8.105454e+001 -6.826151e+001 -1.571869e+002 -6.588061e+001 -1.355827e+002 -2.643658e+000 1.542501e+002
5970512500 -2.809631e+000 -8.274397e+001 -6.801177e+001 1.767555e+002 -6.661201e+001 -1.263344e+002 -2.664017e+000 1.535104e+002
5989256250 -2.833953e+000 -8.451440e+001 -6.823477e+001 1.568693e+002 -6.645564e+001 -1.079855e+002 -2.695198e+000 1.526978e+002
6008000000 -2.842471e+000 -8.630567e+001 -6.828999e+001 1.365220e+002 -6.646750e+001 -8.764188e+001 -2.719354e+000 1.518373e+002
6026743750 -2.860382e+000 -8.802952e+001 -6.804398e+001 1.211538e+002 -6.589933e+001 -5.827382e+001 -2.742329e+000 1.510815e+002
6045487500 -2.891481e+000 -8.983656e+001 -6.791213e+001 1.052962e+002 -6.616287e+001 -2.848754e+001 -2.773551e+000 1.502280e+002
6064231250 -2.905482e+000 -9.165428e+001 -6.719740e+001 8.697209e+001 -6.520211e+001 -7.590252e+000 -2.797132e+000 1.493642e+002
6082975000 -2.932050e+000 -9.342713e+001 -6.699873e+001 6.701529e+001 -6.560399e+001 6.310673e+000 -2.817555e+000 1.485966e+002
6101718750 -2.966467e+000 -9.528549e+001 -6.622018e+001 4.373584e+001 -6.564329e+001 2.776368e+001 -2.850987e+000 1.477164e+002
6120462500 -2.987658e+000 -9.715506e+001 -6.596101e+001 2.612921e+001 -6.565039e+001 4.457981e+001 -2.875733e+000 1.468533e+002
6139206250 -3.024000e+000 -9.895766e+001 -6.620341e+001 5.967233e+000 -6.533917e+001 6.254911e+001 -2.901946e+000 1.460417e+002
6157950000 -3.066606e+000 -1.008856e+002 -6.618246e+001 -9.044540e+000 -6.510046e+001 8.372733e+001 -2.935603e+000 1.451433e+002
6176693750 -3.094422e+000 -1.027799e+002 -6.586297e+001 -3.154097e+001 -6.538230e+001 9.716501e+001 -2.963526e+000 1.442536e+002
6195437500 -3.138498e+000 -1.046720e+002 -6.595084e+001 -4.941630e+001 -6.438630e+001 1.051072e+002 -2.994570e+000 1.434081e+002
6214181250 -3.182042e+000 -1.066154e+002 -6.617062e+001 -6.886719e+001 -6.453063e+001 1.202327e+002 -3.025786e+000 1.424783e+002
6232925000 -3.229359e+000 -1.085374e+002 -6.605244e+001 -8.501363e+001 -6.487543e+001 1.411600e+002 -3.055863e+000 1.415931e+002
6251668750 -3.278722e+000 -1.104891e+002 -6.532532e+001 -9.668521e+001 -6.426719e+001 1.537082e+002 -3.087966e+000 1.406908e+002
6270412500 -3.332894e+000 -1.125091e+002 -6.411922e+001 -1.012439e+002 -6.424773e+001 1.658628e+002 -3.121340e+000 1.397855e+002
6289156250 -3.385604e+000 -1.144722e+002 -6.366040e+001 -9.704752e+001 -6.430019e+001 1.769757e+002 -3.155899e+000 1.388654e+002
6307900000 -3.446376e+000 -1.164779e+002 -6.367715e+001 -9.319477e+001 -6.400089e+001 -1.625285e+002 -3.184580e+000 1.379107e+002
6326643750 -3.510352e+000 -1.185080e+002 -6.324278e+001 -9.470965e+001 -6.326645e+001 -1.478850e+002 -3.219684e+000 1.370161e+002
6345387500 -3.582140e+000 -1.205273e+002 -6.288878e+001 -9.787575e+001 -6.336416e+001 -1.329933e+002 -3.259478e+000 1.360496e+002
6364131250 -3.654130e+000 -1.225747e+002 -6.271871e+001 -9.622504e+001 -6.330608e+001 -1.192936e+002 -3.292535e+000 1.350971e+002
6382875000 -3.731251e+000 -1.246455e+002 -6.260217e+001 -1.024569e+002 -6.246706e+001 -1.122622e+002 -3.332941e+000 1.341595e+002
6401618750 -3.815656e+000 -1.267250e+002 -6.219644e+001 -1.050315e+002 -6.147340e+001 -1.078346e+002 -3.376183e+000 1.331642e+002
6420362500 -3.902096e+000 -1.288411e+002 -6.171121e+001 -1.052437e+002 -6.116736e+001 -1.089155e+002 -3.411268e+000 1.321754e+002
6439106250 -3.994828e+000 -1.309696e+002 -6.150187e+001 -1.060391e+002 -6.092923e+001 -1.124354e+002 -3.449222e+000 1.312113e+002
6457850000 -4.092779e+000 -1.331074e+002 -6.110527e+001 -1.090200e+002 -6.090896e+001 -1.183098e+002 -3.495793e+000 1.301880e+002
6476593750 -4.192928e+000 -1.352905e+002 -6.101611e+001 -1.115038e+002 -6.052827e+001 -1.222380e+002 -3.534762e+000 1.291801e+002
6495337500 -4.301044e+000 -1.374781e+002 -6.087827e+001 -1.149146e+002 -6.044526e+001 -1.217590e+002 -3.575816e+000 1.281725e+002
6514081250 -4.415568e+000 -1.396935e+002 -6.083028e+001 -1.149406e+002 -5.977045e+001 -1.189215e+002 -3.625771e+000 1.271107e+002
6532825000 -4.533374e+000 -1.419369e+002 -6.057872e+001 -1.182961e+002 -5.970856e+001 -1.218258e+002 -3.668983e+000 1.260584e+002
6551568750 -4.658663e+000 -1.441908e+002 -6.030793e+001 -1.204171e+002 -5.957209e+001 -1.221153e+002 -3.713933e+000 1.250127e+002
6570312500 -4.794361e+000 -1.464980e+002 -5.997405e+001 -1.195207e+002 -5.952064e+001 -1.251554e+002 -3.766898e+000 1.239198e+002
6589056250 -4.931301e+000 -1.488209e+002 -5.960789e+001 -1.209989e+002 -5.930438e+001 -1.274241e+002 -3.812222e+000 1.228288e+002
6607800000 -5.082729e+000 -1.511655e+002 -5.930745e+001 -1.204645e+002 -5.880184e+001 -1.277919e+002 -3.860863e+000 1.217543e+002
6626543750 -5.239686e+000 -1.535418e+002 -5.907826e+001 -1.210760e+002 -5.855234e+001 -1.283793e+002 -3.914189e+000 1.206323e+002
6645287500 -5.407166e+000 -1.559680e+002 -5.844252e+001 -1.191401e+002 -5.813161e+001 -1.298664e+002 -3.968072e+000 1.194920e+002
6664031250 -5.580881e+000 -1.584079e+002 -5.803301e+001 -1.208453e+002 -5.716459e+001 -1.343096e+002 -4.024175e+000 1.183555e+002
6682775000 -5.766772e+000 -1.608882e+002 -5.772360e+001 -1.194660e+002 -5.688637e+001 -1.348727e+002 -4.084704e+000 1.171802e+002
6701518750 -5.961956e+000 -1.633677e+002 -5.741891e+001 -1.208253e+002 -5.646913e+001 -1.349236e+002 -4.142662e+000 1.159919e+002
6720262500 -6.171756e+000 -1.659580e+002 -5.694376e+001 -1.240285e+002 -5.596407e+001 -1.314865e+002 -4.204320e+000 1.148032e+002
6739006250 -6.385313e+000 -1.685958e+002 -5.611555e+001 -1.272419e+002 -5.550653e+001 -1.319387e+002 -4.274271e+000 1.135786e+002
6757750000 -6.616273e+000 -1.711921e+002 -5.540409e+001 -1.283767e+002 -5.489223e+001 -1.314041e+002 -4.340117e+000 1.123210e+002
6776493750 -6.859817e+000 -1.739000e+002 -5.473879e+001 -1.300030e+002 -5.407153e+001 -1.339837e+002 -4.410844e+000 1.110802e+002
6795237500 -7.113603e+000 -1.766627e+002 -5.386825e+001 -1.314234e+002 -5.341326e+001 -1.334351e+002 -4.486681e+000 1.097750e+002
6813981250 -7.391201e+000 -1.794135e+002 -5.287618e+001 -1.313397e+002 -5.291851e+001 -1.339756e+002 -4.560638e+000 1.084965e+002
6832725000 -7.686836e+000 1.777013e+002 -5.220208e+001 -1.309165e+002 -5.199643e+001 -1.333151e+002 -4.641188e+000 1.072069e+002
6851468750 -7.988739e+000 1.747843e+002 -5.119199e+001 -1.316366e+002 -5.121947e+001 -1.321696e+002 -4.733860e+000 1.058576e+002
6870212500 -8.321758e+000 1.718644e+002 -5.038382e+001 -1.326455e+002 -5.030635e+001 -1.316896e+002 -4.821995e+000 1.045092e+002
6888956250 -8.676790e+000 1.688200e+002 -4.933725e+001 -1.334579e+002 -4.928611e+001 -1.305485e+002 -4.919992e+000 1.031546e+002
6907700000 -9.050459e+000 1.657508e+002 -4.823040e+001 -1.351684e+002 -4.818615e+001 -1.309075e+002 -5.027052e+000 1.017470e+002
6926443750 -9.459433e+000 1.625978e+002 -4.704848e+001 -1.350031e+002 -4.714764e+001 -1.322862e+002 -5.132474e+000 1.003648e+002
6945187500 -9.887985e+000 1.592904e+002 -4.595324e+001 -1.362023e+002 -4.612059e+001 -1.340453e+002 -5.252961e+000 9.896380e+001
6963931250 -1.034476e+001 1.560114e+002 -4.490180e+001 -1.372886e+002 -4.492778e+001 -1.350593e+002 -5.379567e+000 9.752726e+001
6982675000 -1.085092e+001 1.526316e+002 -4.375966e+001 -1.377170e+002 -4.359126e+001 -1.366670e+002 -5.508850e+000 9.611546e+001
7001418750 -1.138571e+001 1.491529e+002 -4.232581e+001 -1.395777e+002 -4.231477e+001 -1.375686e+002 -5.657794e+000 9.471450e+001
7020162500 -1.196815e+001 1.456415e+002 -4.110375e+001 -1.415779e+002 -4.100682e+001 -1.410653e+002 -5.811965e+000 9.328549e+001
7038906250 -1.260076e+001 1.418489e+002 -3.997997e+001 -1.447376e+002 -3.969812e+001 -1.441298e+002 -5.968092e+000 9.188601e+001
7057650000 -1.325273e+001 1.379608e+002 -3.867870e+001 -1.480471e+002 -3.849626e+001 -1.469052e+002 -6.144235e+000 9.051643e+001
7076393750 -1.395999e+001 1.340486e+002 -3.732803e+001 -1.511951e+002 -3.719617e+001 -1.492115e+002 -6.325310e+000 8.912674e+001
7095137500 -1.473028e+001 1.297686e+002 -3.605980e+001 -1.541158e+002 -3.588074e+001 -1.528737e+002 -6.509229e+000 8.778452e+001
7113881250 -1.554728e+001 1.252347e+002 -3.478817e+001 -1.580466e+002 -3.459197e+001 -1.566089e+002 -6.706986e+000 8.650006e+001
7132625000 -1.641264e+001 1.200355e+002 -3.353110e+001 -1.612397e+002 -3.342138e+001 -1.600442e+002 -6.908578e+000 8.520948e+001
7151368750 -1.724932e+001 1.143353e+002 -3.227660e+001 -1.654249e+002 -3.215334e+001 -1.646145e+002 -7.114876e+000 8.400939e+001
7170112500 -1.808546e+001 1.082405e+002 -3.107308e+001 -1.695266e+002 -3.096399e+001 -1.691499e+002 -7.334707e+000 8.284139e+001
7188856250 -1.889880e+001 1.016174e+002 -2.990424e+001 -1.739259e+002 -2.980329e+001 -1.740901e+002 -7.554260e+000 8.168267e+001
7207600000 -1.965077e+001 9.444180e+001 -2.876457e+001 -1.786320e+002 -2.866669e+001 -1.789369e+002 -7.777176e+000 8.058942e+001
7226343750 -2.032523e+001 8.677304e+001 -2.763927e+001 1.763989e+002 -2.758604e+001 1.757100e+002 -8.013920e+000 7.953903e+001
7245087500 -2.090444e+001 7.893711e+001 -2.656193e+001 1.709359e+002 -2.651338e+001 1.706375e+002 -8.250886e+000 7.848380e+001
7263831250 -2.142786e+001 7.102738e+001 -2.549810e+001 1.652973e+002 -2.547652e+001 1.651853e+002 -8.493139e+000 7.750291e+001
7282575000 -2.189948e+001 6.299337e+001 -2.448871e+001 1.595841e+002 -2.447647e+001 1.593737e+002 -8.746086e+000 7.657304e+001
7301318750 -2.230916e+001 5.478496e+001 -2.352238e+001 1.536378e+002 -2.348929e+001 1.535535e+002 -9.004866e+000 7.565603e+001
7320062500 -2.266210e+001 4.640671e+001 -2.258001e+001 1.476196e+002 -2.253376e+001 1.474795e+002 -9.270554e+000 7.481976e+001
7338806250 -2.293693e+001 3.805365e+001 -2.169791e+001 1.414134e+002 -2.164240e+001 1.412499e+002 -9.541976e+000 7.403389e+001
7357550000 -2.315856e+001 2.979065e+001 -2.085386e+001 1.350891e+002 -2.080246e+001 1.350080e+002 -9.821626e+000 7.330151e+001
7376293750 -2.335048e+001 2.149109e+001 -2.006302e+001 1.287883e+002 -2.000869e+001 1.286466e+002 -1.010452e+001 7.270044e+001
7395037500 -2.349090e+001 1.319895e+001 -1.930678e+001 1.223882e+002 -1.925254e+001 1.223631e+002 -1.039285e+001 7.220348e+001
7413781250 -2.357354e+001 4.910019e+000 -1.859436e+001 1.159936e+002 -1.854500e+001 1.159848e+002 -1.069398e+001 7.174583e+001
7432525000 -2.359576e+001 -3.385139e+000 -1.792696e+001 1.095880e+002 -1.787026e+001 1.094685e+002 -1.098279e+001 7.138213e+001
7451268750 -2.355626e+001 -1.154785e+001 -1.729123e+001 1.031706e+002 -1.723229e+001 1.031203e+002 -1.127553e+001 7.117959e+001
7470012500 -2.346301e+001 -1.945483e+001 -1.670015e+001 9.679774e+001 -1.665249e+001 9.673778e+001 -1.157425e+001 7.108254e+001
7488756250 -2.334686e+001 -2.713825e+001 -1.615306e+001 9.044577e+001 -1.609907e+001 9.038841e+001 -1.185728e+001 7.110914e+001
7507500000 -2.318732e+001 -3.478900e+001 -1.563718e+001 8.414619e+001 -1.558395e+001 8.417104e+001 -1.214148e+001 7.125829e+001
7526243750 -2.294946e+001 -4.207082e+001 -1.515324e+001 7.790870e+001 -1.510730e+001 7.792274e+001 -1.241929e+001 7.148472e+001
7544987500 -2.265310e+001 -4.896429e+001 -1.470774e+001 7.175070e+001 -1.464960e+001 7.177581e+001 -1.267438e+001 7.181192e+001
7563731250 -2.229917e+001 -5.500508e+001 -1.428462e+001 6.568227e+001 -1.423962e+001 6.577316e+001 -1.292434e+001 7.224727e+001
7582475000 -2.196021e+001 -6.031353e+001 -1.389449e+001 5.971310e+001 -1.385161e+001 5.973140e+001 -1.316018e+001 7.271657e+001
7601218750 -2.161615e+001 -6.486749e+001 -1.352571e+001 5.381571e+001 -1.347535e+001 5.390804e+001 -1.337099e+001 7.328833e+001
7619962500 -2.129138e+001 -6.869801e+001 -1.318133e+001 4.802252e+001 -1.314039e+001 4.817810e+001 -1.357745e+001 7.392922e+001
7638706250 -2.099950e+001 -7.175146e+001 -1.286154e+001 4.233189e+001 -1.281385e+001 4.242749e+001 -1.376270e+001 7.453044e+001
7657450000 -2.074885e+001 -7.404321e+001 -1.255684e+001 3.673592e+001 -1.250446e+001 3.690738e+001 -1.392173e+001 7.520006e+001
7676193750 -2.054621e+001 -7.591827e+001 -1.227214e+001 3.124105e+001 -1.223538e+001 3.140702e+001 -1.407674e+001 7.588734e+001
7694937500 -2.035096e+001 -7.740516e+001 -1.200306e+001 2.579370e+001 -1.196463e+001 2.595122e+001 -1.420814e+001 7.653724e+001
7713681250 -2.017232e+001 -7.846243e+001 -1.175037e+001 2.050928e+001 -1.171359e+001 2.070841e+001 -1.431495e+001 7.722614e+001
7732425000 -2.000853e+001 -7.916460e+001 -1.151868e+001 1.527614e+001 -1.148883e+001 1.544448e+001 -1.441653e+001 7.790314e+001
7751168750 -1.984390e+001 -7.955429e+001 -1.129226e+001 1.011812e+001 -1.126130e+001 1.028249e+001 -1.448724e+001 7.847512e+001
7769912500 -1.969753e+001 -7.978188e+001 -1.108766e+001 5.104763e+000 -1.105546e+001 5.289592e+000 -1.454139e+001 7.907460e+001
7788656250 -1.954045e+001 -7.989055e+001 -1.089854e+001 1.280154e-001 -1.086576e+001 2.976061e-001 -1.458738e+001 7.959277e+001
7807400000 -1.935607e+001 -7.975163e+001 -1.070846e+001 -4.726085e+000 -1.067999e+001 -4.573517e+000 -1.460881e+001 7.997299e+001
7826143750 -1.916711e+001 -7.949600e+001 -1.054801e+001 -9.488740e+000 -1.051502e+001 -9.338426e+000 -1.461910e+001 8.028942e+001
7844887500 -1.896809e+001 -7.910799e+001 -1.039143e+001 -1.424991e+001 -1.035894e+001 -1.409028e+001 -1.461391e+001 8.049561e+001
7863631250 -1.876071e+001 -7.862263e+001 -1.023918e+001 -1.885644e+001 -1.020789e+001 -1.871555e+001 -1.459433e+001 8.056599e+001
7882375000 -1.853652e+001 -7.809135e+001 -1.010699e+001 -2.339193e+001 -1.007398e+001 -2.323466e+001 -1.456938e+001 8.051846e+001
7901118750 -1.829216e+001 -7.755076e+001 -9.969611e+000 -2.786762e+001 -9.939231e+000 -2.770078e+001 -1.453450e+001 8.025566e+001
7919862500 -1.801601e+001 -7.707954e+001 -9.845397e+000 -3.222065e+001 -9.813417e+000 -3.205682e+001 -1.449545e+001 7.986539e+001
7938606250 -1.770230e+001 -7.647913e+001 -9.729799e+000 -3.651860e+001 -9.697455e+000 -3.634824e+001 -1.445558e+001 7.934809e+001
7957350000 -1.738946e+001 -7.592209e+001 -9.617628e+000 -4.073882e+001 -9.584794e+000 -4.056291e+001 -1.441966e+001 7.862493e+001
7976093750 -1.704993e+001 -7.548226e+001 -9.514015e+000 -4.486871e+001 -9.480000e+000 -4.469471e+001 -1.438693e+001 7.774368e+001
7994837500 -1.669103e+001 -7.513373e+001 -9.410065e+000 -4.895205e+001 -9.377995e+000 -4.875932e+001 -1.436856e+001 7.673936e+001
8013581250 -1.632434e+001 -7.500866e+001 -9.314187e+000 -5.293005e+001 -9.281000e+000 -5.273755e+001 -1.436073e+001 7.554385e+001
8032325000 -1.592921e+001 -7.514515e+001 -9.226407e+000 -5.685097e+001 -9.191599e+000 -5.667090e+001 -1.436639e+001 7.422160e+001
8051068750 -1.551618e+001 -7.539356e+001 -9.132793e+000 -6.071369e+001 -9.102085e+000 -6.056026e+001 -1.438972e+001 7.271735e+001
8069812500 -1.511017e+001 -7.588146e+001 -9.049025e+000 -6.448605e+001 -9.019115e+000 -6.434094e+001 -1.442206e+001 7.115596e+001
8088556250 -1.470538e+001 -7.656744e+001 -8.969669e+000 -6.824564e+001 -8.940897e+000 -6.810207e+001 -1.447651e+001 6.950203e+001
8107300000 -1.431927e+001 -7.742633e+001 -8.885118e+000 -7.191888e+001 -8.856066e+000 -7.178974e+001 -1.454711e+001 6.776835e+001
8126043750 -1.395178e+001 -7.855581e+001 -8.813089e+000 -7.551128e+001 -8.779343e+000 -7.539346e+001 -1.463418e+001 6.590540e+001
8144787500 -1.358845e+001 -7.986858e+001 -8.738426e+000 -7.912273e+001 -8.704930e+000 -7.901180e+001 -1.474764e+001 6.396265e+001
8163531250 -1.324488e+001 -8.130761e+001 -8.659562e+000 -8.262122e+001 -8.626248e+000 -8.251576e+001 -1.487791e+001 6.187978e+001
8182275000 -1.292226e+001 -8.286471e+001 -8.593721e+000 -8.608896e+001 -8.560713e+000 -8.598264e+001 -1.501744e+001 5.973932e+001
8201018750 -1.262295e+001 -8.448296e+001 -8.520074e+000 -8.955678e+001 -8.489747e+000 -8.946286e+001 -1.517622e+001 5.759105e+001
8219762500 -1.235005e+001 -8.621019e+001 -8.448141e+000 -9.291340e+001 -8.419039e+000 -9.282242e+001 -1.536119e+001 5.532605e+001
8238506250 -1.209737e+001 -8.804340e+001 -8.386370e+000 -9.627682e+001 -8.355233e+000 -9.617657e+001 -1.556035e+001 5.298432e+001
8257250000 -1.185936e+001 -8.987716e+001 -8.311400e+000 -9.962672e+001 -8.284786e+000 -9.952718e+001 -1.578623e+001 5.054559e+001
8275993750 -1.164434e+001 -9.175274e+001 -8.244074e+000 -1.028582e+002 -8.214740e+000 -1.027624e+002 -1.602563e+001 4.795881e+001
8294737500 -1.144384e+001 -9.366830e+001 -8.182905e+000 -1.061357e+002 -8.155434e+000 -1.060173e+002 -1.627239e+001 4.532566e+001
8313481250 -1.126571e+001 -9.557284e+001 -8.110947e+000 -1.093576e+002 -8.083858e+000 -1.092668e+002 -1.654756e+001 4.261164e+001
8332225000 -1.110669e+001 -9.749202e+001 -8.049647e+000 -1.124953e+002 -8.021229e+000 -1.123949e+002 -1.684140e+001 3.977887e+001
8350968750 -1.095928e+001 -9.943157e+001 -7.987799e+000 -1.156964e+002 -7.965298e+000 -1.155779e+002 -1.715744e+001 3.680618e+001
8369712500 -1.083001e+001 -1.013631e+002 -7.916826e+000 -1.188160e+002 -7.896617e+000 -1.187356e+002 -1.749411e+001 3.353848e+001
8388456250 -1.071431e+001 -1.032799e+002 -7.859565e+000 -1.218886e+002 -7.837296e+000 -1.217943e+002 -1.782661e+001 3.012290e+001
8407200000 -1.061337e+001 -1.051763e+002 -7.799442e+000 -1.250119e+002 -7.784686e+000 -1.249303e+002 -1.818682e+001 2.658770e+001
8425943750 -1.053106e+001 -1.070491e+002 -7.733936e+000 -1.280213e+002 -7.715709e+000 -1.279971e+002 -1.855766e+001 2.286179e+001
8444687500 -1.046012e+001 -1.089128e+002 -7.682373e+000 -1.310547e+002 -7.663511e+000 -1.309915e+002 -1.894669e+001 1.893430e+001
8463431250 -1.039629e+001 -1.107821e+002 -7.619733e+000 -1.341221e+002 -7.606457e+000 -1.340419e+002 -1.934438e+001 1.468933e+001
8482175000 -1.034884e+001 -1.126022e+002 -7.560094e+000 -1.370671e+002 -7.541180e+000 -1.370245e+002 -1.971931e+001 1.016670e+001
8500918750 -1.031203e+001 -1.143973e+002 -7.509634e+000 -1.400391e+002 -7.490566e+000 -1.399527e+002 -2.008855e+001 5.447544e+000
8519662500 -1.028311e+001 -1.161517e+002 -7.448427e+000 -1.430237e+002 -7.435424e+000 -1.429659e+002 -2.045351e+001 5.171583e-001
8538406250 -1.026736e+001 -1.178813e+002 -7.393858e+000 -1.459149e+002 -7.375513e+000 -1.458742e+002 -2.080417e+001 -4.702008e+000
8557150000 -1.026066e+001 -1.195821e+002 -7.346385e+000 -1.488619e+002 -7.330462e+000 -1.487825e+002 -2.113602e+001 -1.015681e+001
8575893750 -1.025921e+001 -1.212459e+002 -7.288682e+000 -1.517789e+002 -7.276977e+000 -1.517161e+002 -2.142082e+001 -1.594480e+001
8594637500 -1.027002e+001 -1.228450e+002 -7.241066e+000 -1.546279e+002 -7.224874e+000 -1.545724e+002 -2.166693e+001 -2.176517e+001
8613381250 -1.028860e+001 -1.243883e+002 -7.194077e+000 -1.575336e+002 -7.181785e+000 -1.574551e+002 -2.189325e+001 -2.761126e+001
8632125000 -1.031402e+001 -1.259307e+002 -7.139651e+000 -1.603866e+002 -7.131055e+000 -1.603311e+002 -2.209888e+001 -3.369503e+001
8650868750 -1.034946e+001 -1.274269e+002 -7.096953e+000 -1.631985e+002 -7.081386e+000 -1.631399e+002 -2.227694e+001 -3.983428e+001
8669612500 -1.038617e+001 -1.288644e+002 -7.049135e+000 -1.660605e+002 -7.042955e+000 -1.659771e+002 -2.240608e+001 -4.614342e+001
8688356250 -1.042486e+001 -1.302777e+002 -7.000171e+000 -1.688531e+002 -6.994313e+000 -1.687901e+002 -2.247320e+001 -5.250500e+001
8707100000 -1.047311e+001 -1.316115e+002 -6.962104e+000 -1.716249e+002 -6.954272e+000 -1.715554e+002 -2.251360e+001 -5.868061e+001
8725843750 -1.052827e+001 -1.328826e+002 -6.917641e+000 -1.744305e+002 -6.917222e+000 -1.743606e+002 -2.253469e+001 -6.489629e+001
8744587500 -1.058893e+001 -1.341586e+002 -6.874672e+000 -1.771711e+002 -6.875001e+000 -1.771189e+002 -2.252284e+001 -7.114075e+001
8763331250 -1.065643e+001 -1.353668e+002 -6.840868e+000 -1.799258e+002 -6.839423e+000 -1.798524e+002 -2.248019e+001 -7.736314e+001
8782075000 -1.072050e+001 -1.365288e+002 -6.799319e+000 1.773231e+002 -6.802374e+000 1.773785e+002 -2.238058e+001 -8.359444e+001
8800818750 -1.078678e+001 -1.376628e+002 -6.763666e+000 1.746237e+002 -6.762665e+000 1.746696e+002 -2.223468e+001 -8.952161e+001
8819562500 -1.085662e+001 -1.387055e+002 -6.733145e+000 1.719032e+002 -6.731298e+000 1.719727e+002 -2.207877e+001 -9.526173e+001
8838306250 -1.092994e+001 -1.396893e+002 -6.694234e+000 1.692056e+002 -6.695250e+000 1.692697e+002 -2.188046e+001 -1.009130e+002
8857050000 -1.100510e+001 -1.406566e+002 -6.663132e+000 1.665279e+002 -6.663812e+000 1.666194e+002 -2.166369e+001 -1.064172e+002
8875793750 -1.108313e+001 -1.415525e+002 -6.632907e+000 1.638374e+002 -6.635343e+000 1.639429e+002 -2.140831e+001 -1.117837e+002
8894537500 -1.115844e+001 -1.424385e+002 -6.598454e+000 1.612015e+002 -6.605704e+000 1.612717e+002 -2.111331e+001 -1.168558e+002
8913281250 -1.122755e+001 -1.432778e+002 -6.571562e+000 1.585617e+002 -6.580326e+000 1.586521e+002 -2.081970e+001 -1.215384e+002
8932025000 -1.129999e+001 -1.440372e+002 -6.543141e+000 1.558984e+002 -6.555265e+000 1.560115e+002 -2.052645e+001 -1.260410e+002
8950768750 -1.137563e+001 -1.447771e+002 -6.513056e+000 1.532943e+002 -6.526206e+000 1.534052e+002 -2.021520e+001 -1.302964e+002
8969512500 -1.145118e+001 -1.454604e+002 -6.492843e+000 1.506785e+002 -6.503513e+000 1.508047e+002 -1.991019e+001 -1.342932e+002
8988256250 -1.152430e+001 -1.461212e+002 -6.465474e+000 1.480638e+002 -6.479234e+000 1.482041e+002 -1.960116e+001 -1.380782e+002
9007000000 -1.159352e+001 -1.467797e+002 -6.441968e+000 1.455059e+002 -6.456035e+000 1.456460e+002 -1.930004e+001 -1.414298e+002
9025743750 -1.165396e+001 -1.473761e+002 -6.423418e+000 1.429259e+002 -6.436549e+000 1.430913e+002 -1.902393e+001 -1.446376e+002
9044487500 -1.171416e+001 -1.479404e+002 -6.399472e+000 1.403651e+002 -6.414043e+000 1.405392e+002 -1.875457e+001 -1.477716e+002
9063231250 -1.177467e+001 -1.484752e+002 -6.381438e+000 1.378432e+002 -6.395643e+000 1.380202e+002 -1.849405e+001 -1.506422e+002
9081975000 -1.183308e+001 -1.489599e+002 -6.362819e+000 1.352877e+002 -6.380256e+000 1.354911e+002 -1.823646e+001 -1.534335e+002
9100718750 -1.189140e+001 -1.494834e+002 -6.344172e+000 1.327770e+002 -6.358538e+000 1.329812e+002 -1.799474e+001 -1.560189e+002
9119462500 -1.194207e+001 -1.500206e+002 -6.329997e+000 1.302780e+002 -6.343006e+000 1.304946e+002 -1.778058e+001 -1.583679e+002
9138206250 -1.198295e+001 -1.505039e+002 -6.312502e+000 1.277544e+002 -6.327051e+000 1.279993e+002 -1.758079e+001 -1.607432e+002
9156950000 -1.202854e+001 -1.509760e+002 -6.296124e+000 1.252894e+002 -6.307621e+000 1.255413e+002 -1.738860e+001 -1.629849e+002
9175693750 -1.206689e+001 -1.514173e+002 -6.284796e+000 1.228171e+002 -6.295061e+000 1.230862e+002 -1.720177e+001 -1.650962e+002
9194437500 -1.210403e+001 -1.518620e+002 -6.268714e+000 1.203351e+002 -6.280402e+000 1.206101e+002 -1.702431e+001 -1.671380e+002
9213181250 -1.214730e+001 -1.523428e+002 -6.254865e+000 1.179100e+002 -6.266843e+000 1.181992e+002 -1.686299e+001 -1.690376e+002
9231925000 -1.217332e+001 -1.528212e+002 -6.243546e+000 1.154611e+002 -6.257736e+000 1.157743e+002 -1.672086e+001 -1.708225e+002
9250668750 -1.219307e+001 -1.532709e+002 -6.227924e+000 1.130299e+002 -6.243684e+000 1.133443e+002 -1.658553e+001 -1.726191e+002
9269412500 -1.221877e+001 -1.537231e+002 -6.217220e+000 1.106319e+002 -6.229041e+000 1.109550e+002 -1.646412e+001 -1.742902e+002
9288156250 -1.223934e+001 -1.541584e+002 -6.209489e+000 1.082057e+002 -6.220549e+000 1.085463e+002 -1.634177e+001 -1.758897e+002
9306900000 -1.226199e+001 -1.546522e+002 -6.194877e+000 1.058175e+002 -6.207412e+000 1.061431e+002 -1.622687e+001 -1.774500e+002
9325643750 -1.228605e+001 -1.551531e+002 -6.188043e+000 1.034505e+002 -6.193370e+000 1.038033e+002 -1.612364e+001 -1.788794e+002
9344387500 -1.229895e+001 -1.556875e+002 -6.180547e+000 1.010554e+002 -6.185651e+000 1.014183e+002 -1.603183e+001 1.797284e+002
9363131250 -1.231105e+001 -1.562079e+002 -6.169138e+000 9.870321e+001 -6.171850e+000 9.905293e+001 -1.593982e+001 1.783648e+002
9381875000 -1.232160e+001 -1.567375e+002 -6.164928e+000 9.635461e+001 -6.163271e+000 9.673918e+001 -1.586051e+001 1.770807e+002
9400618750 -1.232934e+001 -1.572510e+002 -6.153411e+000 9.398776e+001 -6.156225e+000 9.437758e+001 -1.577939e+001 1.758512e+002
9419362500 -1.234500e+001 -1.578277e+002 -6.144114e+000 9.167869e+001 -6.145329e+000 9.204922e+001 -1.570550e+001 1.746482e+002
9438106250 -1.235973e+001 -1.584414e+002 -6.139078e+000 8.934165e+001 -6.138506e+000 8.974399e+001 -1.563421e+001 1.735217e+002
9456850000 -1.236490e+001 -1.590833e+002 -6.127716e+000 8.700063e+001 -6.130960e+000 8.739224e+001 -1.556733e+001 1.724404e+002
9475593750 -1.237578e+001 -1.596982e+002 -6.121502e+000 8.471717e+001 -6.117452e+000 8.509527e+001 -1.550785e+001 1.714077e+002
9494337500 -1.238932e+001 -1.603194e+002 -6.118354e+000 8.239505e+001 -6.111420e+000 8.281773e+001 -1.544475e+001 1.704367e+002
9513081250 -1.240127e+001 -1.609638e+002 -6.107499e+000 8.008312e+001 -6.103297e+000 8.049705e+001 -1.538853e+001 1.695131e+002
9531825000 -1.242878e+001 -1.616380e+002 -6.103197e+000 7.781548e+001 -6.092898e+000 7.823203e+001 -1.533879e+001 1.686171e+002
9550568750 -1.245161e+001 -1.623463e+002 -6.100440e+000 7.551064e+001 -6.090252e+000 7.595863e+001 -1.528704e+001 1.677752e+002
9569312500 -1.246954e+001 -1.630716e+002 -6.091202e+000 7.322539e+001 -6.082635e+000 7.362919e+001 -1.523821e+001 1.669808e+002
9588056250 -1.249269e+001 -1.637752e+002 -6.088355e+000 7.097806e+001 -6.074758e+000 7.138138e+001 -1.519102e+001 1.661811e+002
9606800000 -1.251772e+001 -1.645021e+002 -6.085855e+000 6.866386e+001 -6.073004e+000 6.911722e+001 -1.514019e+001 1.654673e+002
9625543750 -1.254869e+001 -1.652053e+002 -6.074996e+000 6.641221e+001 -6.064227e+000 6.682215e+001 -1.509585e+001 1.647921e+002
9644287500 -1.258865e+001 -1.659698e+002 -6.075353e+000 6.415226e+001 -6.055115e+000 6.459160e+001 -1.505304e+001 1.641167e+002
9663031250 -1.263015e+001 -1.667755e+002 -6.071969e+000 6.186423e+001 -6.054347e+000 6.232895e+001 -1.500236e+001 1.634815e+002
9681775000 -1.267217e+001 -1.675809e+002 -6.063692e+000 5.963750e+001 -6.045166e+000 6.005382e+001 -1.495463e+001 1.628830e+002
9700518750 -1.271549e+001 -1.683557e+002 -6.065072e+000 5.739451e+001 -6.041003e+000 5.784776e+001 -1.490338e+001 1.622820e+002
9719262500 -1.276220e+001 -1.691329e+002 -6.059999e+000 5.511950e+001 -6.042135e+000 5.558833e+001 -1.485033e+001 1.617592e+002
9738006250 -1.281432e+001 -1.698576e+002 -6.052488e+000 5.291220e+001 -6.031519e+000 5.334204e+001 -1.480827e+001 1.612853e+002
9756750000 -1.288299e+001 -1.706409e+002 -6.055050e+000 5.065637e+001 -6.032397e+000 5.112506e+001 -1.476284e+001 1.607569e+002
9775493750 -1.295230e+001 -1.714736e+002 -6.046460e+000 4.837243e+001 -6.033872e+000 4.885825e+001 -1.470994e+001 1.602779e+002
9794237500 -1.301717e+001 -1.722557e+002 -6.041239e+000 4.615831e+001 -6.028865e+000 4.662949e+001 -1.466090e+001 1.598354e+002
9812981250 -1.309415e+001 -1.730083e+002 -6.040436e+000 4.391779e+001 -6.027711e+000 4.440282e+001 -1.460755e+001 1.593645e+002
9831725000 -1.317539e+001 -1.737719e+002 -6.036492e+000 4.168967e+001 -6.025645e+000 4.216939e+001 -1.454803e+001 1.589446e+002
9850468750 -1.326349e+001 -1.744521e+002 -6.035802e+000 3.947620e+001 -6.020787e+000 3.995455e+001 -1.449169e+001 1.586374e+002
9869212500 -1.336591e+001 -1.751573e+002 -6.033648e+000 3.724350e+001 -6.024440e+000 3.772112e+001 -1.444369e+001 1.582484e+002
9887956250 -1.347207e+001 -1.758901e+002 -6.032844e+000 3.505203e+001 -6.021009e+000 3.548692e+001 -1.438424e+001 1.578584e+002
9906700000 -1.357365e+001 -1.765981e+002 -6.034914e+000 3.282052e+001 -6.021688e+000 3.331652e+001 -1.432376e+001 1.575030e+002
9925443750 -1.368211e+001 -1.772073e+002 -6.030178e+000 3.059258e+001 -6.026249e+000 3.107990e+001 -1.426218e+001 1.571463e+002
9944187500 -1.379909e+001 -1.778116e+002 -6.032087e+000 2.840228e+001 -6.021965e+000 2.884833e+001 -1.419660e+001 1.568200e+002
9962931250 -1.392026e+001 -1.783214e+002 -6.036094e+000 2.615594e+001 -6.025277e+000 2.666059e+001 -1.413196e+001 1.565330e+002
9981675000 -1.405678e+001 -1.788487e+002 -6.031950e+000 2.393672e+001 -6.031273e+000 2.441701e+001 -1.407189e+001 1.561909e+002
10000418750 -1.419754e+001 -1.793870e+002 -6.036789e+000 2.175455e+001 -6.027327e+000 2.222902e+001 -1.400424e+001 1.558645e+002
10019162500 -1.432962e+001 -1.798528e+002 -6.040256e+000 1.950758e+001 -6.032752e+000 2.003465e+001 -1.393128e+001 1.555547e+002
10037906250 -1.447056e+001 1.797967e+002 -6.037305e+000 1.731577e+001 -6.036903e+000 1.779391e+001 -1.385926e+001 1.552407e+002
10056650000 -1.461186e+001 1.794900e+002 -6.046331e+000 1.512225e+001 -6.036345e+000 1.560843e+001 -1.378384e+001 1.549274e+002
10075393750 -1.476674e+001 1.793444e+002 -6.049376e+000 1.287022e+001 -6.046494e+000 1.341001e+001 -1.370936e+001 1.546791e+002
10094137500 -1.493151e+001 1.791776e+002 -6.050469e+000 1.068665e+001 -6.051960e+000 1.116800e+001 -1.363531e+001 1.543452e+002
10112881250 -1.509571e+001 1.790244e+002 -6.061175e+000 8.480413e+000 -6.052986e+000 8.992545e+000 -1.356427e+001 1.540380e+002
10131625000 -1.524806e+001 1.789910e+002 -6.062914e+000 6.231527e+000 -6.066815e+000 6.790269e+000 -1.348416e+001 1.537352e+002
10150368750 -1.540054e+001 1.790937e+002 -6.066714e+000 4.070657e+000 -6.069772e+000 4.564145e+000 -1.340529e+001 1.533867e+002
10169112500 -1.555823e+001 1.793056e+002 -6.082993e+000 1.838447e+000 -6.075993e+000 2.402330e+000 -1.331548e+001 1.530588e+002
10187856250 -1.571324e+001 1.796454e+002 -6.084539e+000 -3.920014e-001 -6.087266e+000 1.860666e-001 -1.323158e+001 1.527726e+002
10206600000 -1.587084e+001 -1.799733e+002 -6.094034e+000 -2.532385e+000 -6.089064e+000 -2.024213e+000 -1.314688e+001 1.524276e+002
10225343750 -1.602724e+001 -1.795724e+002 -6.110495e+000 -4.740580e+000 -6.095359e+000 -4.186759e+000 -1.306194e+001 1.520856e+002
10244087500 -1.615635e+001 -1.790497e+002 -6.116895e+000 -6.967587e+000 -6.111212e+000 -6.382319e+000 -1.296852e+001 1.517743e+002
10262831250 -1.627573e+001 -1.784225e+002 -6.127981e+000 -9.141761e+000 -6.117805e+000 -8.603481e+000 -1.288072e+001 1.514397e+002
10281575000 -1.639028e+001 -1.776315e+002 -6.142955e+000 -1.138107e+001 -6.128237e+000 -1.076013e+001 -1.278802e+001 1.510609e+002
10300318750 -1.649993e+001 -1.767682e+002 -6.150115e+000 -1.359340e+001 -6.141718e+000 -1.294192e+001 -1.269009e+001 1.507198e+002
10319062500 -1.660440e+001 -1.758750e+002 -6.163608e+000 -1.579380e+001 -6.151268e+000 -1.514759e+001 -1.259982e+001 1.503562e+002
10337806250 -1.669645e+001 -1.749514e+002 -6.178939e+000 -1.801440e+001 -6.165183e+000 -1.734274e+001 -1.250690e+001 1.499622e+002
10356550000 -1.675140e+001 -1.740464e+002 -6.190289e+000 -2.022471e+001 -6.177119e+000 -1.954303e+001 -1.240588e+001 1.495674e+002
10375293750 -1.678573e+001 -1.729847e+002 -6.207502e+000 -2.242764e+001 -6.189550e+000 -2.173776e+001 -1.230749e+001 1.491691e+002
10394037500 -1.680859e+001 -1.718362e+002 -6.222438e+000 -2.464463e+001 -6.205752e+000 -2.392450e+001 -1.220672e+001 1.487403e+002
10412781250 -1.681846e+001 -1.706674e+002 -6.237124e+000 -2.684591e+001 -6.217289e+000 -2.611786e+001 -1.210391e+001 1.483431e+002
10431525000 -1.682088e+001 -1.694758e+002 -6.258470e+000 -2.905711e+001 -6.234566e+000 -2.830687e+001 -1.200497e+001 1.479117e+002
10450268750 -1.680258e+001 -1.683858e+002 -6.277307e+000 -3.127600e+001 -6.252496e+000 -3.049167e+001 -1.190253e+001 1.474619e+002
10469012500 -1.674987e+001 -1.673484e+002 -6.294648e+000 -3.346994e+001 -6.268482e+000 -3.266717e+001 -1.179654e+001 1.469882e+002
10487756250 -1.668012e+001 -1.662113e+002 -6.318516e+000 -3.567920e+001 -6.287955e+000 -3.484201e+001 -1.168918e+001 1.465340e+002
10506500000 -1.658435e+001 -1.651272e+002 -6.339500e+000 -3.786821e+001 -6.306378e+000 -3.703646e+001 -1.158022e+001 1.460187e+002
10525243750 -1.647599e+001 -1.640376e+002 -6.359992e+000 -4.006102e+001 -6.324071e+000 -3.920888e+001 -1.147355e+001 1.455443e+002
10543987500 -1.636161e+001 -1.629543e+002 -6.384553e+000 -4.228989e+001 -6.347569e+000 -4.138572e+001 -1.136381e+001 1.450343e+002
10562731250 -1.623358e+001 -1.620920e+002 -6.407403e+000 -4.448145e+001 -6.367346e+000 -4.358054e+001 -1.125546e+001 1.444921e+002
10581475000 -1.607925e+001 -1.613474e+002 -6.435517e+000 -4.667562e+001 -6.388609e+000 -4.575155e+001 -1.114417e+001 1.439531e+002
10600218750 -1.590430e+001 -1.606099e+002 -6.461264e+000 -4.889449e+001 -6.412005e+000 -4.793894e+001 -1.103532e+001 1.434106e+002
10618962500 -1.571614e+001 -1.599498e+002 -6.488756e+000 -5.107828e+001 -6.436283e+000 -5.012898e+001 -1.092270e+001 1.428321e+002
10637706250 -1.551852e+001 -1.593061e+002 -6.519492e+000 -5.327157e+001 -6.462231e+000 -5.230347e+001 -1.081269e+001 1.422735e+002
10656450000 -1.531948e+001 -1.587625e+002 -6.547266e+000 -5.549556e+001 -6.490549e+000 -5.450008e+001 -1.070079e+001 1.416870e+002
10675193750 -1.511786e+001 -1.584382e+002 -6.578019e+000 -5.766917e+001 -6.514855e+000 -5.668193e+001 -1.058977e+001 1.410715e+002
10693937500 -1.490068e+001 -1.582232e+002 -6.611332e+000 -5.986599e+001 -6.542928e+000 -5.883408e+001 -1.047710e+001 1.404484e+002
10712681250 -1.466770e+001 -1.581228e+002 -6.641148e+000 -6.205287e+001 -6.569663e+000 -6.102618e+001 -1.036302e+001 1.398052e+002
10731425000 -1.443000e+001 -1.581077e+002 -6.678489e+000 -6.422550e+001 -6.597264e+000 -6.323029e+001 -1.025445e+001 1.391444e+002
10750168750 -1.418929e+001 -1.581157e+002 -6.715635e+000 -6.642429e+001 -6.634830e+000 -6.539089e+001 -1.014274e+001 1.385036e+002
10768912500 -1.395919e+001 -1.582579e+002 -6.749067e+000 -6.859958e+001 -6.666887e+000 -6.757561e+001 -1.003147e+001 1.378269e+002
10787656250 -1.373895e+001 -1.585597e+002 -6.788753e+000 -7.076398e+001 -6.696280e+000 -6.972987e+001 -9.923776e+000 1.371180e+002
10806400000 -1.351248e+001 -1.589842e+002 -6.827315e+000 -7.296061e+001 -6.733521e+000 -7.188622e+001 -9.810925e+000 1.364186e+002
10825143750 -1.328464e+001 -1.595396e+002 -6.865158e+000 -7.512329e+001 -6.765738e+000 -7.408582e+001 -9.703979e+000 1.357040e+002
10843887500 -1.305525e+001 -1.601087e+002 -6.908492e+000 -7.728954e+001 -6.798982e+000 -7.624310e+001 -9.593732e+000 1.349538e+002
10862631250 -1.282782e+001 -1.607314e+002 -6.945125e+000 -7.947736e+001 -6.838800e+000 -7.842022e+001 -9.484460e+000 1.342165e+002
10881375000 -1.261954e+001 -1.614186e+002 -6.984101e+000 -8.161762e+001 -6.873982e+000 -8.060028e+001 -9.382823e+000 1.334510e+002
10900118750 -1.241975e+001 -1.622384e+002 -7.030200e+000 -8.378793e+001 -6.909029e+000 -8.275246e+001 -9.278675e+000 1.326614e+002
10918862500 -1.221444e+001 -1.631732e+002 -7.070329e+000 -8.597142e+001 -6.951108e+000 -8.492039e+001 -9.175887e+000 1.318701e+002
10937606250 -1.201755e+001 -1.641651e+002 -7.115158e+000 -8.811173e+001 -6.987256e+000 -8.710560e+001 -9.075637e+000 1.310534e+002
10956350000 -1.182684e+001 -1.651715e+002 -7.165467e+000 -9.027653e+001 -7.024692e+000 -8.924543e+001 -8.974248e+000 1.302304e+002
10975093750 -1.163666e+001 -1.662432e+002 -7.207767e+000 -9.243827e+001 -7.071848e+000 -9.143308e+001 -8.875074e+000 1.294170e+002
10993837500 -1.146417e+001 -1.673322e+002 -7.258541e+000 -9.455541e+001 -7.112981e+000 -9.360532e+001 -8.781398e+000 1.285647e+002
11012581250 -1.130115e+001 -1.685084e+002 -7.305730e+000 -9.672726e+001 -7.153464e+000 -9.572552e+001 -8.684494e+000 1.277048e+002
11031325000 -1.113567e+001 -1.697783e+002 -7.349363e+000 -9.885889e+001 -7.200330e+000 -9.790591e+001 -8.590075e+000 1.268469e+002
11050068750 -1.097770e+001 -1.710753e+002 -7.401747e+000 -1.009838e+002 -7.239850e+000 -1.000735e+002 -8.499455e+000 1.259485e+002
11068812500 -1.082845e+001 -1.723815e+002 -7.451926e+000 -1.031408e+002 -7.284351e+000 -1.021887e+002 -8.404598e+000 1.250549e+002
11087556250 -1.067927e+001 -1.737225e+002 -7.497265e+000 -1.052472e+002 -7.331852e+000 -1.043509e+002 -8.316329e+000 1.241791e+002
11106300000 -1.055035e+001 -1.750854e+002 -7.552524e+000 -1.073794e+002 -7.375891e+000 -1.065056e+002 -8.232164e+000 1.232511e+002
11125043750 -1.042432e+001 -1.765002e+002 -7.603460e+000 -1.095223e+002 -7.426229e+000 -1.086311e+002 -8.144762e+000 1.223124e+002
11143787500 -1.030156e+001 -1.779705e+002 -7.652916e+000 -1.116288e+002 -7.478550e+000 -1.107935e+002 -8.063377e+000 1.214072e+002
11162531250 -1.018821e+001 -1.794408e+002 -7.712455e+000 -1.137623e+002 -7.521497e+000 -1.129240e+002 -7.981897e+000 1.204600e+002
11181275000 -1.007961e+001 1.790556e+002 -7.763367e+000 -1.158880e+002 -7.572629e+000 -1.150459e+002 -7.898323e+000 1.195113e+002
11200018750 -9.972693e+000 1.775646e+002 -7.814958e+000 -1.179746e+002 -7.620412e+000 -1.172213e+002 -7.821124e+000 1.185870e+002
11218762500 -9.879219e+000 1.760505e+002 -7.874094e+000 -1.201174e+002 -7.670154e+000 -1.193549e+002 -7.749511e+000 1.176205e+002
11237506250 -9.790927e+000 1.744762e+002 -7.926799e+000 -1.222366e+002 -7.724650e+000 -1.214762e+002 -7.675876e+000 1.166431e+002
11256250000 -9.699924e+000 1.729156e+002 -7.980264e+000 -1.243080e+002 -7.776432e+000 -1.236350e+002 -7.605569e+000 1.156853e+002
11274993750 -9.621995e+000 1.713373e+002 -8.040527e+000 -1.264370e+002 -7.826091e+000 -1.257393e+002 -7.539176e+000 1.146982e+002
11293737500 -9.546638e+000 1.697293e+002 -8.093689e+000 -1.285214e+002 -7.886245e+000 -1.278386e+002 -7.470273e+000 1.137265e+002
11312481250 -9.473488e+000 1.681380e+002 -8.150670e+000 -1.305914e+002 -7.938581e+000 -1.299917e+002 -7.402612e+000 1.127725e+002
11331225000 -9.417629e+000 1.665424e+002 -8.211746e+000 -1.327124e+002 -7.991323e+000 -1.320903e+002 -7.341607e+000 1.117737e+002
11349968750 -9.364568e+000 1.648793e+002 -8.264852e+000 -1.347663e+002 -8.052136e+000 -1.342126e+002 -7.281703e+000 1.107897e+002
11368712500 -9.308781e+000 1.632388e+002 -8.322296e+000 -1.368258e+002 -8.104065e+000 -1.363369e+002 -7.224036e+000 1.098229e+002
11387456250 -9.265598e+000 1.615849e+002 -8.381474e+000 -1.389538e+002 -8.157016e+000 -1.384294e+002 -7.167715e+000 1.088113e+002
11406200000 -9.224174e+000 1.599134e+002 -8.436428e+000 -1.409993e+002 -8.216097e+000 -1.405498e+002 -7.112771e+000 1.078255e+002
11424943750 -9.188901e+000 1.582769e+002 -8.496069e+000 -1.430649e+002 -8.266682e+000 -1.426643e+002 -7.060533e+000 1.068475e+002
11443687500 -9.163967e+000 1.565987e+002 -8.552861e+000 -1.451656e+002 -8.324151e+000 -1.447368e+002 -7.010663e+000 1.058267e+002
11462431250 -9.140993e+000 1.549047e+002 -8.608633e+000 -1.472135e+002 -8.384683e+000 -1.468501e+002 -6.963340e+000 1.048308e+002
11481175000 -9.122289e+000 1.532375e+002 -8.672543e+000 -1.492855e+002 -8.438925e+000 -1.489607e+002 -6.917707e+000 1.038407e+002
11499918750 -9.112565e+000 1.515135e+002 -8.727541e+000 -1.513974e+002 -8.497918e+000 -1.510425e+002 -6.875369e+000 1.028133e+002
11518662500 -9.103228e+000 1.498013e+002 -8.786363e+000 -1.534413e+002 -8.555628e+000 -1.531555e+002 -6.830631e+000 1.018280e+002
11537406250 -9.102201e+000 1.481178e+002 -8.846745e+000 -1.555063e+002 -8.608562e+000 -1.552679e+002 -6.792011e+000 1.008230e+002
11556150000 -9.115036e+000 1.463742e+002 -8.902483e+000 -1.576181e+002 -8.666924e+000 -1.573434e+002 -6.754934e+000 9.982019e+001
11574893750 -9.122747e+000 1.446356e+002 -8.959935e+000 -1.596516e+002 -8.722830e+000 -1.594783e+002 -6.720143e+000 9.882508e+001
11593637500 -9.135731e+000 1.429344e+002 -9.020469e+000 -1.617308e+002 -8.780141e+000 -1.615639e+002 -6.687899e+000 9.783415e+001
11612381250 -9.157333e+000 1.411982e+002 -9.074036e+000 -1.638210e+002 -8.835807e+000 -1.636441e+002 -6.657838e+000 9.682645e+001
11631125000 -9.178661e+000 1.394627e+002 -9.131295e+000 -1.658665e+002 -8.893787e+000 -1.657709e+002 -6.626783e+000 9.585504e+001
11649868750 -9.214122e+000 1.377909e+002 -9.193916e+000 -1.679430e+002 -8.950951e+000 -1.678843e+002 -6.600459e+000 9.486900e+001
11668612500 -9.254459e+000 1.360434e+002 -9.246120e+000 -1.700192e+002 -9.010914e+000 -1.699856e+002 -6.575922e+000 9.386793e+001
11687356250 -9.294480e+000 1.343165e+002 -9.304539e+000 -1.720716e+002 -9.063464e+000 -1.721161e+002 -6.551388e+000 9.290858e+001
11706100000 -9.342648e+000 1.326181e+002 -9.364502e+000 -1.741863e+002 -9.120548e+000 -1.742331e+002 -6.530736e+000 9.192931e+001
11724843750 -9.395924e+000 1.308880e+002 -9.415956e+000 -1.762947e+002 -9.175001e+000 -1.763509e+002 -6.509402e+000 9.091986e+001
11743587500 -9.452573e+000 1.291903e+002 -9.474339e+000 -1.783787e+002 -9.229654e+000 -1.784752e+002 -6.490879e+000 8.997684e+001
11762331250 -9.520296e+000 1.274983e+002 -9.531695e+000 1.794790e+002 -9.286232e+000 1.794031e+002 -6.474217e+000 8.901813e+001
11781075000 -9.593099e+000 1.257658e+002 -9.583526e+000 1.773629e+002 -9.341407e+000 1.772898e+002 -6.455880e+000 8.804453e+001
11799818750 -9.668966e+000 1.240739e+002 -9.640333e+000 1.752386e+002 -9.400097e+000 1.751637e+002 -6.443442e+000 8.710105e+001
11818562500 -9.747160e+000 1.223978e+002 -9.694118e+000 1.731271e+002 -9.460082e+000 1.729908e+002 -6.432215e+000 8.615618e+001
11837306250 -9.834698e+000 1.207462e+002 -9.750741e+000 1.709755e+002 -9.510333e+000 1.708438e+002 -6.419008e+000 8.522651e+001
11856050000 -9.929218e+000 1.190922e+002 -9.803396e+000 1.688279e+002 -9.568134e+000 1.687012e+002 -6.411816e+000 8.432829e+001
11874793750 -1.002727e+001 1.174711e+002 -9.867588e+000 1.666894e+002 -9.621853e+000 1.664763e+002 -6.406718e+000 8.344689e+001
11893537500 -1.013858e+001 1.158338e+002 -9.922743e+000 1.644737e+002 -9.676914e+000 1.643256e+002 -6.404984e+000 8.255625e+001
11912281250 -1.024742e+001 1.141968e+002 -9.973128e+000 1.623467e+002 -9.741258e+000 1.621319e+002 -6.399375e+000 8.164424e+001
11931025000 -1.036017e+001 1.126744e+002 -1.003875e+001 1.601749e+002 -9.793674e+000 1.598967e+002 -6.396758e+000 8.080141e+001
11949768750 -1.049211e+001 1.111578e+002 -1.009208e+001 1.579259e+002 -9.852616e+000 1.577068e+002 -6.399012e+000 7.992478e+001
11968512500 -1.062054e+001 1.095992e+002 -1.014689e+001 1.557613e+002 -9.919269e+000 1.554758e+002 -6.395137e+000 7.906402e+001
11987256250 -1.075497e+001 1.081515e+002 -1.021182e+001 1.535411e+002 -9.971320e+000 1.532061e+002 -6.396887e+000 7.825546e+001
12006000000 -1.090712e+001 1.066594e+002 -1.026729e+001 1.512621e+002 -1.003310e+001 1.510085e+002 -6.402834e+000 7.742284e+001
12024743750 -1.105034e+001 1.051863e+002 -1.032423e+001 1.490679e+002 -1.010127e+001 1.487104e+002 -6.404164e+000 7.658126e+001
12043487500 -1.120005e+001 1.038801e+002 -1.039146e+001 1.467848e+002 -1.015176e+001 1.464188e+002 -6.406897e+000 7.580398e+001
12062231250 -1.136835e+001 1.025939e+002 -1.044767e+001 1.444629e+002 -1.021707e+001 1.441720e+002 -6.413332e+000 7.499869e+001
12080975000 -1.153485e+001 1.012675e+002 -1.050698e+001 1.422193e+002 -1.028361e+001 1.418366e+002 -6.412399e+000 7.421340e+001
12099718750 -1.170537e+001 1.000950e+002 -1.057639e+001 1.398820e+002 -1.033822e+001 1.395238e+002 -6.416894e+000 7.351550e+001
12118462500 -1.188647e+001 9.889120e+001 -1.063212e+001 1.375148e+002 -1.040789e+001 1.372317e+002 -6.424929e+000 7.274975e+001
12137206250 -1.205707e+001 9.775986e+001 -1.069623e+001 1.352430e+002 -1.047590e+001 1.348564e+002 -6.426793e+000 7.201254e+001
12155950000 -1.223284e+001 9.682259e+001 -1.077109e+001 1.328523e+002 -1.053870e+001 1.324811e+002 -6.433239e+000 7.133833e+001
12174693750 -1.242947e+001 9.590627e+001 -1.083299e+001 1.304648e+002 -1.061370e+001 1.301155e+002 -6.441061e+000 7.061712e+001
12193437500 -1.261695e+001 9.504501e+001 -1.090605e+001 1.281492e+002 -1.068659e+001 1.276684e+002 -6.444246e+000 6.993357e+001
12212181250 -1.280609e+001 9.435945e+001 -1.098438e+001 1.256857e+002 -1.075343e+001 1.252445e+002 -6.451503e+000 6.931137e+001
12230925000 -1.299866e+001 9.363042e+001 -1.105384e+001 1.232551e+002 -1.083088e+001 1.227831e+002 -6.453448e+000 6.862707e+001
12249668750 -1.317183e+001 9.304668e+001 -1.113817e+001 1.208232e+002 -1.090479e+001 1.203035e+002 -6.451707e+000 6.798014e+001
12268412500 -1.335011e+001 9.264664e+001 -1.122146e+001 1.183293e+002 -1.098707e+001 1.178494e+002 -6.452566e+000 6.736793e+001
12287156250 -1.353209e+001 9.229453e+001 -1.130152e+001 1.158534e+002 -1.107337e+001 1.153209e+002 -6.450317e+000 6.670425e+001
12305900000 -1.370452e+001 9.204626e+001 -1.138630e+001 1.133605e+002 -1.115998e+001 1.128207e+002 -6.442189e+000 6.611337e+001
12324643750 -1.386885e+001 9.190055e+001 -1.147608e+001 1.108562e+002 -1.125098e+001 1.102799e+002 -6.436892e+000 6.553596e+001
12343387500 -1.401987e+001 9.177837e+001 -1.156892e+001 1.082990e+002 -1.134108e+001 1.077292e+002 -6.432962e+000 6.492689e+001
12362131250 -1.414353e+001 9.171574e+001 -1.166120e+001 1.057520e+002 -1.143928e+001 1.051719e+002 -6.421100e+000 6.433863e+001
12380875000 -1.425034e+001 9.185368e+001 -1.176345e+001 1.031910e+002 -1.154119e+001 1.025749e+002 -6.407181e+000 6.378249e+001
12399618750 -1.435654e+001 9.206262e+001 -1.186956e+001 1.005957e+002 -1.164213e+001 9.997617e+001 -6.393860e+000 6.320560e+001
12418362500 -1.444428e+001 9.228291e+001 -1.197433e+001 9.801183e+001 -1.175458e+001 9.735446e+001 -6.372169e+000 6.265847e+001
12437106250 -1.451872e+001 9.258965e+001 -1.209240e+001 9.540488e+001 -1.186827e+001 9.469861e+001 -6.353743e+000 6.211274e+001
12455850000 -1.457202e+001 9.283572e+001 -1.221046e+001 9.275536e+001 -1.198075e+001 9.206881e+001 -6.329823e+000 6.151821e+001
12474593750 -1.459350e+001 9.309146e+001 -1.232815e+001 9.012252e+001 -1.211141e+001 8.942652e+001 -6.301764e+000 6.096787e+001
12493337500 -1.459563e+001 9.344537e+001 -1.246176e+001 8.748957e+001 -1.223691e+001 8.673353e+001 -6.274634e+000 6.040828e+001
12512081250 -1.458648e+001 9.378435e+001 -1.259625e+001 8.481715e+001 -1.236912e+001 8.408899e+001 -6.241975e+000 5.981719e+001
12530825000 -1.456041e+001 9.411317e+001 -1.273032e+001 8.217787e+001 -1.251460e+001 8.138722e+001 -6.204746e+000 5.924094e+001
12549568750 -1.452273e+001 9.441988e+001 -1.288256e+001 7.951743e+001 -1.265841e+001 7.868521e+001 -6.171576e+000 5.865445e+001
12568312500 -1.446369e+001 9.456203e+001 -1.302999e+001 7.682330e+001 -1.281065e+001 7.599796e+001 -6.131018e+000 5.802023e+001
12587056250 -1.437947e+001 9.466599e+001 -1.318129e+001 7.417794e+001 -1.296492e+001 7.327740e+001 -6.085767e+000 5.739388e+001
12605800000 -1.426317e+001 9.481181e+001 -1.334750e+001 7.148444e+001 -1.312041e+001 7.055479e+001 -6.040047e+000 5.677914e+001
12624543750 -1.414075e+001 9.490298e+001 -1.350621e+001 6.877893e+001 -1.329242e+001 6.787910e+001 -5.993186e+000 5.614505e+001
12643287500 -1.400970e+001 9.485274e+001 -1.367734e+001 6.615070e+001 -1.346994e+001 6.514737e+001 -5.942079e+000 5.548035e+001
12662031250 -1.386460e+001 9.476801e+001 -1.386142e+001 6.347974e+001 -1.364571e+001 6.246785e+001 -5.893983e+000 5.485649e+001
12680775000 -1.371035e+001 9.451481e+001 -1.404338e+001 6.081546e+001 -1.383783e+001 5.980425e+001 -5.848300e+000 5.413626e+001
12699518750 -1.353847e+001 9.412834e+001 -1.423308e+001 5.820015e+001 -1.403550e+001 5.710735e+001 -5.790327e+000 5.342480e+001
12718262500 -1.334546e+001 9.365813e+001 -1.443584e+001 5.550988e+001 -1.423163e+001 5.444976e+001 -5.741456e+000 5.274553e+001
12737006250 -1.315397e+001 9.311707e+001 -1.463637e+001 5.287979e+001 -1.444006e+001 5.180294e+001 -5.687469e+000 5.195369e+001
12755750000 -1.296505e+001 9.246668e+001 -1.484824e+001 5.025232e+001 -1.465062e+001 4.913238e+001 -5.625110e+000 5.121993e+001
12774493750 -1.277253e+001 9.167846e+001 -1.506571e+001 4.760365e+001 -1.486558e+001 4.649909e+001 -5.578024e+000 5.048196e+001
12793237500 -1.258185e+001 9.079672e+001 -1.528455e+001 4.502369e+001 -1.509230e+001 4.389147e+001 -5.525566e+000 4.962847e+001
12811981250 -1.239265e+001 8.973872e+001 -1.551478e+001 4.244913e+001 -1.532159e+001 4.125023e+001 -5.467493e+000 4.882527e+001
12830725000 -1.218789e+001 8.862112e+001 -1.574483e+001 3.985518e+001 -1.554892e+001 3.867611e+001 -5.420080e+000 4.798758e+001
12849468750 -1.199288e+001 8.746954e+001 -1.598355e+001 3.733352e+001 -1.579406e+001 3.611896e+001 -5.364355e+000 4.708388e+001
12868212500 -1.180511e+001 8.619720e+001 -1.622750e+001 3.479085e+001 -1.604062e+001 3.355853e+001 -5.304939e+000 4.625249e+001
12886956250 -1.162238e+001 8.483537e+001 -1.647236e+001 3.226241e+001 -1.628533e+001 3.105346e+001 -5.264677e+000 4.538803e+001
12905700000 -1.144875e+001 8.340960e+001 -1.672871e+001 2.980392e+001 -1.654512e+001 2.853802e+001 -5.212354e+000 4.443447e+001
12924443750 -1.128172e+001 8.186577e+001 -1.698433e+001 2.732176e+001 -1.680540e+001 2.605858e+001 -5.159920e+000 4.354437e+001
12943187500 -1.110292e+001 8.031829e+001 -1.724073e+001 2.487957e+001 -1.706688e+001 2.360124e+001 -5.122077e+000 4.260568e+001
12961931250 -1.094271e+001 7.874800e+001 -1.751184e+001 2.248216e+001 -1.733932e+001 2.114909e+001 -5.069010e+000 4.163060e+001
12980675000 -1.079003e+001 7.706995e+001 -1.778200e+001 2.007151e+001 -1.760752e+001 1.874983e+001 -5.022755e+000 4.074097e+001
12999418750 -1.063888e+001 7.540898e+001 -1.805544e+001 1.772245e+001 -1.788664e+001 1.639942e+001 -4.991844e+000 3.978316e+001
13018162500 -1.049986e+001 7.371153e+001 -1.834158e+001 1.539022e+001 -1.817941e+001 1.405789e+001 -4.947183e+000 3.880850e+001
13036906250 -1.036980e+001 7.191771e+001 -1.862158e+001 1.306227e+001 -1.846643e+001 1.177704e+001 -4.910593e+000 3.786155e+001
13055650000 -1.023420e+001 7.013685e+001 -1.891665e+001 1.079793e+001 -1.875900e+001 9.510470e+000 -4.878354e+000 3.683607e+001
13074393750 -1.011673e+001 6.837608e+001 -1.921322e+001 8.518370e+000 -1.905540e+001 7.262649e+000 -4.834092e+000 3.586089e+001
13093137500 -1.000470e+001 6.654464e+001 -1.950422e+001 6.296481e+000 -1.935325e+001 5.009578e+000 -4.805707e+000 3.489051e+001
13111881250 -9.895549e+000 6.472144e+001 -1.980622e+001 4.131381e+000 -1.966025e+001 2.808871e+000 -4.777065e+000 3.390429e+001
13130625000 -9.792883e+000 6.289373e+001 -2.011385e+001 1.945581e+000 -1.996877e+001 5.878808e-001 -4.745025e+000 3.287251e+001
13149368750 -9.693019e+000 6.106310e+001 -2.041179e+001 -1.466328e-001 -2.027924e+001 -1.555200e+000 -4.717492e+000 3.186484e+001
13168112500 -9.595736e+000 5.923450e+001 -2.072046e+001 -2.250708e+000 -2.059400e+001 -3.681304e+000 -4.693959e+000 3.083986e+001
13186856250 -9.506934e+000 5.741016e+001 -2.104050e+001 -4.299160e+000 -2.091084e+001 -5.780353e+000 -4.665193e+000 2.981992e+001
13205600000 -9.421399e+000 5.557146e+001 -2.135265e+001 -6.326609e+000 -2.122202e+001 -7.796189e+000 -4.640212e+000 2.884048e+001
13224343750 -9.341130e+000 5.371991e+001 -2.167900e+001 -8.318783e+000 -2.154598e+001 -9.840166e+000 -4.618649e+000 2.784002e+001
13243087500 -9.261428e+000 5.189131e+001 -2.200106e+001 -1.031600e+001 -2.187512e+001 -1.185884e+001 -4.595623e+000 2.682049e+001
13261831250 -9.187949e+000 5.006562e+001 -2.232089e+001 -1.226041e+001 -2.220487e+001 -1.382667e+001 -4.578165e+000 2.584332e+001
13280575000 -9.115722e+000 4.824969e+001 -2.265376e+001 -1.420400e+001 -2.253514e+001 -1.573623e+001 -4.562028e+000 2.483898e+001
13299318750 -9.046364e+000 4.644057e+001 -2.298828e+001 -1.610626e+001 -2.287457e+001 -1.765797e+001 -4.541932e+000 2.383892e+001
13318062500 -8.982533e+000 4.463301e+001 -2.332132e+001 -1.790043e+001 -2.322002e+001 -1.949846e+001 -4.526595e+000 2.288469e+001
13336806250 -8.922531e+000 4.282748e+001 -2.365980e+001 -1.971423e+001 -2.356877e+001 -2.129397e+001 -4.513829e+000 2.189948e+001
13355550000 -8.861662e+000 4.103310e+001 -2.401153e+001 -2.152541e+001 -2.390789e+001 -2.304560e+001 -4.499290e+000 2.091889e+001
13374293750 -8.805129e+000 3.927379e+001 -2.435496e+001 -2.319889e+001 -2.425199e+001 -2.477145e+001 -4.487237e+000 1.997533e+001
13393037500 -8.749249e+000 3.750781e+001 -2.470586e+001 -2.493406e+001 -2.460258e+001 -2.641873e+001 -4.478286e+000 1.898912e+001
13411781250 -8.694585e+000 3.578798e+001 -2.505288e+001 -2.654901e+001 -2.495296e+001 -2.808261e+001 -4.463448e+000 1.802769e+001
13430525000 -8.646114e+000 3.408033e+001 -2.541387e+001 -2.814120e+001 -2.530138e+001 -2.969430e+001 -4.451535e+000 1.709101e+001
13449268750 -8.596851e+000 3.235032e+001 -2.576711e+001 -2.965709e+001 -2.566012e+001 -3.133159e+001 -4.445551e+000 1.611644e+001
13468012500 -8.547745e+000 3.063884e+001 -2.612945e+001 -3.116388e+001 -2.601936e+001 -3.284748e+001 -4.434840e+000 1.515689e+001
13486756250 -8.500704e+000 2.892954e+001 -2.648978e+001 -3.260349e+001 -2.637662e+001 -3.427618e+001 -4.427843e+000 1.422636e+001
13505500000 -8.450631e+000 2.725282e+001 -2.684823e+001 -3.408438e+001 -2.672863e+001 -3.571318e+001 -4.422631e+000 1.327078e+001
13524243750 -8.407009e+000 2.558914e+001 -2.721244e+001 -3.550552e+001 -2.708792e+001 -3.716714e+001 -4.410681e+000 1.234363e+001
13542987500 -8.368525e+000 2.391221e+001 -2.757108e+001 -3.683793e+001 -2.743632e+001 -3.852279e+001 -4.406164e+000 1.142028e+001
13561731250 -8.325376e+000 2.222578e+001 -2.793541e+001 -3.806767e+001 -2.779390e+001 -3.977700e+001 -4.404333e+000 1.047914e+001
13580475000 -8.286354e+000 2.058674e+001 -2.829325e+001 -3.925723e+001 -2.814479e+001 -4.095992e+001 -4.398765e+000 9.578351e+000
13599218750 -8.244195e+000 1.894541e+001 -2.865732e+001 -4.040648e+001 -2.850522e+001 -4.214675e+001 -4.397821e+000 8.672835e+000
13617962500 -8.196568e+000 1.733806e+001 -2.901559e+001 -4.166835e+001 -2.887240e+001 -4.329441e+001 -4.395288e+000 7.735563e+000
13636706250 -8.162360e+000 1.578205e+001 -2.938457e+001 -4.274689e+001 -2.922520e+001 -4.438437e+001 -4.390697e+000 6.862154e+000
13655450000 -8.126960e+000 1.417201e+001 -2.972617e+001 -4.368700e+001 -2.955293e+001 -4.531274e+001 -4.394394e+000 5.991103e+000
13674193750 -8.087977e+000 1.257070e+001 -3.006283e+001 -4.457384e+001 -2.990364e+001 -4.620147e+001 -4.393319e+000 5.077815e+000
13692937500 -8.050829e+000 1.100048e+001 -3.040298e+001 -4.543742e+001 -3.024747e+001 -4.707739e+001 -4.391550e+000 4.207257e+000
13711681250 -8.012424e+000 9.425280e+000 -3.072117e+001 -4.633506e+001 -3.058590e+001 -4.796706e+001 -4.396607e+000 3.321363e+000
13730425000 -7.974663e+000 7.917889e+000 -3.105260e+001 -4.716756e+001 -3.090499e+001 -4.887065e+001 -4.396205e+000 2.417666e+000
13749168750 -7.943078e+000 6.439039e+000 -3.135865e+001 -4.797427e+001 -3.120861e+001 -4.979813e+001 -4.394217e+000 1.564084e+000
13767912500 -7.907657e+000 4.879441e+000 -3.167520e+001 -4.884662e+001 -3.150063e+001 -5.054548e+001 -4.397194e+000 7.090791e-001
13786656250 -7.868361e+000 3.372974e+000 -3.195526e+001 -4.969204e+001 -3.180391e+001 -5.139128e+001 -4.398839e+000 -1.691498e-001
13805400000 -7.839408e+000 1.876415e+000 -3.224344e+001 -5.051173e+001 -3.210567e+001 -5.226910e+001 -4.399065e+000 -1.006087e+000
13824143750 -7.803330e+000 3.671284e-001 -3.253318e+001 -5.133617e+001 -3.239738e+001 -5.305365e+001 -4.406008e+000 -1.866875e+000
13842887500 -7.767653e+000 -1.059344e+000 -3.284997e+001 -5.212969e+001 -3.271034e+001 -5.381062e+001 -4.405703e+000 -2.732570e+000
13861631250 -7.739435e+000 -2.504779e+000 -3.313068e+001 -5.278932e+001 -3.298913e+001 -5.453014e+001 -4.407162e+000 -3.561979e+000
13880375000 -7.705325e+000 -3.978188e+000 -3.340240e+001 -5.358118e+001 -3.326759e+001 -5.525821e+001 -4.408759e+000 -4.399137e+000
13899118750 -7.671233e+000 -5.414915e+000 -3.366320e+001 -5.437835e+001 -3.355522e+001 -5.599577e+001 -4.409013e+000 -5.244832e+000
13917862500 -7.643146e+000 -6.834392e+000 -3.392367e+001 -5.522922e+001 -3.381639e+001 -5.688794e+001 -4.410348e+000 -6.038282e+000
13936606250 -7.605786e+000 -8.250243e+000 -3.419209e+001 -5.593768e+001 -3.409576e+001 -5.754588e+001 -4.416888e+000 -6.883516e+000
13955350000 -7.572582e+000 -9.612820e+000 -3.444994e+001 -5.661450e+001 -3.436618e+001 -5.824258e+001 -4.417854e+000 -7.713797e+000
13974093750 -7.543526e+000 -1.099124e+001 -3.471119e+001 -5.741828e+001 -3.462804e+001 -5.908905e+001 -4.418348e+000 -8.503359e+000
13992837500 -7.509405e+000 -1.238418e+001 -3.498746e+001 -5.809777e+001 -3.489170e+001 -5.987075e+001 -4.422635e+000 -9.316727e+000
14011581250 -7.474029e+000 -1.373867e+001 -3.523534e+001 -5.897639e+001 -3.517481e+001 -6.082719e+001 -4.418756e+000 -1.013238e+001
14030325000 -7.446523e+000 -1.508751e+001 -3.546961e+001 -5.982079e+001 -3.543137e+001 -6.159808e+001 -4.421102e+000 -1.091063e+001
14049068750 -7.409798e+000 -1.644294e+001 -3.570863e+001 -6.056051e+001 -3.570321e+001 -6.249607e+001 -4.425504e+000 -1.173448e+001
14067812500 -7.377429e+000 -1.775174e+001 -3.593391e+001 -6.143835e+001 -3.597501e+001 -6.355828e+001 -4.422618e+000 -1.255128e+001
14086556250 -7.350951e+000 -1.906396e+001 -3.617641e+001 -6.243007e+001 -3.629393e+001 -6.469043e+001 -4.420579e+000 -1.333982e+001
14105300000 -7.317678e+000 -2.038728e+001 -3.646859e+001 -6.352210e+001 -3.656427e+001 -6.578986e+001 -4.424028e+000 -1.414515e+001
14124043750 -7.287393e+000 -2.167746e+001 -3.673545e+001 -6.461953e+001 -3.682492e+001 -6.685279e+001 -4.419287e+000 -1.491605e+001
14142787500 -7.256968e+000 -2.297388e+001 -3.702495e+001 -6.552029e+001 -3.710374e+001 -6.774526e+001 -4.420201e+000 -1.569408e+001
14161531250 -7.219199e+000 -2.427746e+001 -3.727396e+001 -6.665688e+001 -3.738803e+001 -6.861967e+001 -4.423522e+000 -1.649385e+001
14180275000 -7.187880e+000 -2.551405e+001 -3.753148e+001 -6.776611e+001 -3.766829e+001 -6.962743e+001 -4.420125e+000 -1.729415e+001
14199018750 -7.161449e+000 -2.676154e+001 -3.779767e+001 -6.889707e+001 -3.796944e+001 -7.087104e+001 -4.420953e+000 -1.809564e+001
14217762500 -7.127820e+000 -2.803092e+001 -3.813232e+001 -6.982325e+001 -3.827449e+001 -7.156963e+001 -4.419409e+000 -1.889930e+001
14236506250 -7.096651e+000 -2.926298e+001 -3.840486e+001 -7.089934e+001 -3.855942e+001 -7.263848e+001 -4.416571e+000 -1.968420e+001
14255250000 -7.063396e+000 -3.050533e+001 -3.867727e+001 -7.204485e+001 -3.884073e+001 -7.379948e+001 -4.419644e+000 -2.046910e+001
14273993750 -7.024504e+000 -3.174065e+001 -3.895332e+001 -7.276012e+001 -3.914390e+001 -7.483311e+001 -4.419490e+000 -2.128182e+001
14292737500 -6.994495e+000 -3.293029e+001 -3.928423e+001 -7.385680e+001 -3.942896e+001 -7.590018e+001 -4.415666e+000 -2.206101e+001
14311481250 -6.966333e+000 -3.415052e+001 -3.960308e+001 -7.491175e+001 -3.971321e+001 -7.704752e+001 -4.418432e+000 -2.282755e+001
14330225000 -6.932629e+000 -3.536210e+001 -3.991674e+001 -7.578964e+001 -3.997140e+001 -7.830438e+001 -4.420244e+000 -2.362943e+001
14348968750 -6.900589e+000 -3.655882e+001 -4.018624e+001 -7.677494e+001 -4.025977e+001 -7.917244e+001 -4.419495e+000 -2.442739e+001
14367712500 -6.867482e+000 -3.776496e+001 -4.046647e+001 -7.791277e+001 -4.055384e+001 -8.018336e+001 -4.424137e+000 -2.521354e+001
14386456250 -6.830433e+000 -3.894383e+001 -4.077848e+001 -7.907780e+001 -4.086575e+001 -8.129660e+001 -4.424309e+000 -2.602037e+001
14405200000 -6.800726e+000 -4.008644e+001 -4.104811e+001 -7.992691e+001 -4.116145e+001 -8.227259e+001 -4.424647e+000 -2.681761e+001
14423943750 -6.770647e+000 -4.126011e+001 -4.132080e+001 -8.131418e+001 -4.148979e+001 -8.373684e+001 -4.427012e+000 -2.760074e+001
14442687500 -6.739397e+000 -4.242627e+001 -4.162531e+001 -8.257736e+001 -4.179036e+001 -8.478346e+001 -4.428488e+000 -2.839870e+001
14461431250 -6.709323e+000 -4.357861e+001 -4.195236e+001 -8.374060e+001 -4.213305e+001 -8.601968e+001 -4.428749e+000 -2.919355e+001
14480175000 -6.678531e+000 -4.475027e+001 -4.229079e+001 -8.484151e+001 -4.239620e+001 -8.695081e+001 -4.433829e+000 -2.998395e+001
14498918750 -6.642486e+000 -4.587480e+001 -4.265812e+001 -8.614785e+001 -4.269585e+001 -8.789200e+001 -4.435195e+000 -3.079610e+001
14517662500 -6.611093e+000 -4.698653e+001 -4.296742e+001 -8.736350e+001 -4.299047e+001 -8.911099e+001 -4.437228e+000 -3.160069e+001
14536406250 -6.579319e+000 -4.814026e+001 -4.329585e+001 -8.808338e+001 -4.327685e+001 -8.993524e+001 -4.441132e+000 -3.241482e+001
14555150000 -6.547208e+000 -4.925736e+001 -4.355247e+001 -8.953055e+001 -4.357117e+001 -9.081634e+001 -4.444631e+000 -3.324137e+001
14573893750 -6.517538e+000 -5.036662e+001 -4.386509e+001 -9.073575e+001 -4.386937e+001 -9.212853e+001 -4.446958e+000 -3.404818e+001
14592637500 -6.485797e+000 -5.148867e+001 -4.414999e+001 -9.162458e+001 -4.416705e+001 -9.374360e+001 -4.452629e+000 -3.485292e+001
14611381250 -6.455407e+000 -5.257318e+001 -4.452592e+001 -9.278422e+001 -4.439409e+001 -9.507875e+001 -4.455608e+000 -3.566984e+001
14630125000 -6.425686e+000 -5.366854e+001 -4.486501e+001 -9.429998e+001 -4.467347e+001 -9.654469e+001 -4.461293e+000 -3.647569e+001
14648868750 -6.395806e+000 -5.477755e+001 -4.509659e+001 -9.536187e+001 -4.503594e+001 -9.816795e+001 -4.469109e+000 -3.728822e+001
14667612500 -6.365756e+000 -5.585199e+001 -4.546847e+001 -9.659839e+001 -4.535754e+001 -9.921079e+001 -4.473516e+000 -3.812172e+001
14686356250 -6.339892e+000 -5.693027e+001 -4.591941e+001 -9.827547e+001 -4.570937e+001 -1.003540e+002 -4.479730e+000 -3.893300e+001
14705100000 -6.312033e+000 -5.801676e+001 -4.630170e+001 -1.010433e+002 -4.598686e+001 -1.022391e+002 -4.490105e+000 -3.975498e+001
14723843750 -6.284414e+000 -5.906407e+001 -4.655882e+001 -1.026505e+002 -4.641717e+001 -1.038846e+002 -4.495910e+000 -4.060865e+001
14742587500 -6.259415e+000 -6.011838e+001 -4.699662e+001 -1.041303e+002 -4.674413e+001 -1.056027e+002 -4.503136e+000 -4.145440e+001
14761331250 -6.232789e+000 -6.116762e+001 -4.729745e+001 -1.062332e+002 -4.717262e+001 -1.077177e+002 -4.509680e+000 -4.227284e+001
14780075000 -6.207895e+000 -6.219841e+001 -4.778338e+001 -1.088979e+002 -4.755393e+001 -1.102312e+002 -4.517555e+000 -4.310400e+001
14798818750 -6.184213e+000 -6.324572e+001 -4.822459e+001 -1.113738e+002 -4.801515e+001 -1.125968e+002 -4.524408e+000 -4.392541e+001
14817562500 -6.157600e+000 -6.427591e+001 -4.854105e+001 -1.139318e+002 -4.849456e+001 -1.151251e+002 -4.536456e+000 -4.475940e+001
14836306250 -6.134562e+000 -6.528584e+001 -4.898147e+001 -1.164087e+002 -4.874662e+001 -1.177018e+002 -4.544244e+000 -4.560825e+001
14855050000 -6.108051e+000 -6.633176e+001 -4.950283e+001 -1.196093e+002 -4.914211e+001 -1.197003e+002 -4.553633e+000 -4.643460e+001
14873793750 -6.084501e+000 -6.736344e+001 -4.991520e+001 -1.213472e+002 -4.952167e+001 -1.217376e+002 -4.563495e+000 -4.728184e+001
14892537500 -6.059970e+000 -6.836143e+001 -5.037447e+001 -1.229250e+002 -5.007087e+001 -1.234114e+002 -4.572110e+000 -4.812310e+001
14911281250 -6.035800e+000 -6.937225e+001 -5.090382e+001 -1.253850e+002 -5.066064e+001 -1.256653e+002 -4.582440e+000 -4.895769e+001
14930025000 -6.011400e+000 -7.038629e+001 -5.140426e+001 -1.280180e+002 -5.126744e+001 -1.297619e+002 -4.596820e+000 -4.980623e+001
14948768750 -5.992257e+000 -7.136608e+001 -5.212255e+001 -1.311116e+002 -5.203227e+001 -1.340494e+002 -4.608163e+000 -5.065743e+001
14967512500 -5.971426e+000 -7.235658e+001 -5.267203e+001 -1.350275e+002 -5.245749e+001 -1.390765e+002 -4.620101e+000 -5.147900e+001
14986256250 -5.951114e+000 -7.334361e+001 -5.320720e+001 -1.381239e+002 -5.295731e+001 -1.430033e+002 -4.628758e+000 -5.233495e+001
15005000000 -5.928930e+000 -7.434405e+001 -5.353975e+001 -1.414761e+002 -5.358748e+001 -1.463839e+002 -4.639458e+000 -5.316619e+001
15023743750 -5.907866e+000 -7.528951e+001 -5.432881e+001 -1.459660e+002 -5.433814e+001 -1.516304e+002 -4.653140e+000 -5.401271e+001
15042487500 -5.885923e+000 -7.625388e+001 -5.475954e+001 -1.499340e+002 -5.492954e+001 -1.571016e+002 -4.664555e+000 -5.486827e+001
15061231250 -5.865259e+000 -7.721613e+001 -5.531894e+001 -1.543115e+002 -5.578101e+001 -1.636470e+002 -4.676094e+000 -5.571434e+001
15079975000 -5.853196e+000 -7.814416e+001 -5.598137e+001 -1.592861e+002 -5.629762e+001 -1.694544e+002 -4.686628e+000 -5.656944e+001
15098718750 -5.833182e+000 -7.911182e+001 -5.667038e+001 -1.674113e+002 -5.664830e+001 -1.748271e+002 -4.697056e+000 -5.740884e+001
15117462500 -5.809003e+000 -8.004124e+001 -5.682435e+001 -1.732031e+002 -5.697580e+001 1.798359e+002 -4.711419e+000 -5.824244e+001
15136206250 -5.794893e+000 -8.095903e+001 -5.706379e+001 -1.779077e+002 -5.745322e+001 1.734332e+002 -4.723231e+000 -5.908437e+001
15154950000 -5.772449e+000 -8.190332e+001 -5.740136e+001 1.772189e+002 -5.787983e+001 1.676537e+002 -4.736715e+000 -5.990633e+001
15173693750 -5.750436e+000 -8.279230e+001 -5.750377e+001 1.712717e+002 -5.831202e+001 1.608529e+002 -4.754006e+000 -6.076093e+001
15192437500 -5.738564e+000 -8.370259e+001 -5.803239e+001 1.637491e+002 -5.871938e+001 1.544886e+002 -4.766051e+000 -6.162108e+001
15211181250 -5.717207e+000 -8.462979e+001 -5.824325e+001 1.557938e+002 -5.910220e+001 1.500971e+002 -4.776807e+000 -6.245929e+001
15229925000 -5.697873e+000 -8.551305e+001 -5.847167e+001 1.500670e+002 -5.915537e+001 1.446853e+002 -4.793105e+000 -6.330124e+001
15248668750 -5.684062e+000 -8.639841e+001 -5.860446e+001 1.435978e+002 -5.920258e+001 1.377969e+002 -4.802537e+000 -6.415495e+001
15267412500 -5.659655e+000 -8.728666e+001 -5.877449e+001 1.366798e+002 -5.958994e+001 1.312190e+002 -4.820231e+000 -6.497813e+001
15286156250 -5.647722e+000 -8.811861e+001 -5.873109e+001 1.317911e+002 -5.966721e+001 1.237388e+002 -4.836147e+000 -6.583595e+001
15304900000 -5.635059e+000 -8.897249e+001 -5.867295e+001 1.239913e+002 -6.055224e+001 1.168774e+002 -4.846187e+000 -6.668974e+001
15323643750 -5.612480e+000 -8.985457e+001 -5.868397e+001 1.176251e+002 -6.057039e+001 1.109663e+002 -4.860285e+000 -6.750481e+001
15342387500 -5.598989e+000 -9.067139e+001 -5.843520e+001 1.115350e+002 -6.037986e+001 1.043785e+002 -4.875622e+000 -6.834085e+001
15361131250 -5.585490e+000 -9.153419e+001 -5.834853e+001 1.038691e+002 -6.006668e+001 9.886966e+001 -4.883126e+000 -6.918700e+001
15379875000 -5.561687e+000 -9.239084e+001 -5.809796e+001 9.773775e+001 -5.957497e+001 9.341077e+001 -4.898393e+000 -6.999492e+001
15398618750 -5.549632e+000 -9.319127e+001 -5.784982e+001 9.207347e+001 -5.972953e+001 8.759865e+001 -4.913027e+000 -7.085146e+001
15417362500 -5.534853e+000 -9.404307e+001 -5.771759e+001 8.588853e+001 -5.963853e+001 8.248524e+001 -4.924563e+000 -7.168467e+001
15436106250 -5.514687e+000 -9.486442e+001 -5.766534e+001 8.043797e+001 -5.938854e+001 7.667326e+001 -4.941127e+000 -7.250075e+001
15454850000 -5.503440e+000 -9.569501e+001 -5.735662e+001 7.641824e+001 -5.902794e+001 7.445152e+001 -4.955110e+000 -7.333204e+001
15473593750 -5.487849e+000 -9.653280e+001 -5.750043e+001 7.166397e+001 -5.900771e+001 7.217491e+001 -4.965586e+000 -7.415091e+001
15492337500 -5.468038e+000 -9.731614e+001 -5.726098e+001 6.715356e+001 -5.842597e+001 7.071738e+001 -4.983338e+000 -7.495907e+001
15511081250 -5.451965e+000 -9.812270e+001 -5.693045e+001 6.409769e+001 -5.809811e+001 6.696525e+001 -4.996519e+000 -7.579654e+001
15529825000 -5.435428e+000 -9.894401e+001 -5.651419e+001 6.266884e+001 -5.808774e+001 6.355098e+001 -5.005949e+000 -7.661819e+001
15548568750 -5.420724e+000 -9.974673e+001 -5.650777e+001 5.919472e+001 -5.803367e+001 6.018738e+001 -5.019194e+000 -7.741476e+001
15567312500 -5.406160e+000 -1.005350e+002 -5.633362e+001 5.518996e+001 -5.785980e+001 5.885479e+001 -5.030403e+000 -7.825924e+001
15586056250 -5.390597e+000 -1.013381e+002 -5.623929e+001 5.055135e+001 -5.748377e+001 5.531527e+001 -5.041149e+000 -7.907430e+001
15604800000 -5.375325e+000 -1.021373e+002 -5.619046e+001 4.728827e+001 -5.733978e+001 5.309105e+001 -5.053927e+000 -7.987394e+001
15623543750 -5.359830e+000 -1.029147e+002 -5.572667e+001 4.568925e+001 -5.703151e+001 5.225882e+001 -5.064821e+000 -8.070067e+001
15642287500 -5.343745e+000 -1.037031e+002 -5.552234e+001 4.602849e+001 -5.687836e+001 4.871160e+001 -5.073846e+000 -8.151224e+001
15661031250 -5.328292e+000 -1.044809e+002 -5.533580e+001 4.357718e+001 -5.686038e+001 4.463086e+001 -5.086552e+000 -8.231258e+001
15679775000 -5.312599e+000 -1.052632e+002 -5.542236e+001 4.236708e+001 -5.680083e+001 4.286337e+001 -5.099591e+000 -8.313313e+001
15698518750 -5.298127e+000 -1.060520e+002 -5.529010e+001 4.011826e+001 -5.677827e+001 3.980131e+001 -5.108208e+000 -8.392365e+001
15717262500 -5.279719e+000 -1.068121e+002 -5.520991e+001 3.724149e+001 -5.685184e+001 3.959576e+001 -5.120617e+000 -8.471972e+001
15736006250 -5.264117e+000 -1.075809e+002 -5.527742e+001 3.539177e+001 -5.603077e+001 3.904917e+001 -5.132165e+000 -8.553204e+001
15754750000 -5.251076e+000 -1.083448e+002 -5.521688e+001 3.258928e+001 -5.586917e+001 3.595105e+001 -5.143632e+000 -8.631583e+001
15773493750 -5.235018e+000 -1.090996e+002 -5.546268e+001 2.871197e+001 -5.597935e+001 3.283140e+001 -5.157773e+000 -8.711418e+001
15792237500 -5.218934e+000 -1.098212e+002 -5.561381e+001 2.807378e+001 -5.639548e+001 3.183894e+001 -5.171773e+000 -8.790211e+001
15810981250 -5.209382e+000 -1.105719e+002 -5.576853e+001 2.560483e+001 -5.698838e+001 2.878947e+001 -5.180478e+000 -8.869728e+001
15829725000 -5.191566e+000 -1.113092e+002 -5.621392e+001 2.616705e+001 -5.731195e+001 2.344763e+001 -5.189250e+000 -8.946098e+001
15848468750 -5.177566e+000 -1.120246e+002 -5.696512e+001 2.530410e+001 -5.749293e+001 2.245742e+001 -5.202510e+000 -9.024601e+001
15867212500 -5.164111e+000 -1.127819e+002 -5.768204e+001 2.527303e+001 -5.781976e+001 2.306650e+001 -5.207457e+000 -9.104590e+001
15885956250 -5.148787e+000 -1.134759e+002 -5.804443e+001 2.509568e+001 -5.852174e+001 1.574146e+001 -5.217676e+000 -9.180663e+001
15904700000 -5.138227e+000 -1.142166e+002 -5.838441e+001 2.798588e+001 -5.887236e+001 1.518999e+001 -5.232861e+000 -9.258753e+001
15923443750 -5.127718e+000 -1.149584e+002 -5.864041e+001 2.902484e+001 -5.929184e+001 1.671863e+001 -5.237392e+000 -9.338075e+001
15942187500 -5.110813e+000 -1.156348e+002 -5.898231e+001 2.395343e+001 -5.995885e+001 1.802004e+001 -5.251153e+000 -9.411137e+001
15960931250 -5.103302e+000 -1.163536e+002 -5.898616e+001 2.669330e+001 -6.001908e+001 1.803119e+001 -5.267218e+000 -9.490006e+001
15979675000 -5.087750e+000 -1.170924e+002 -5.961367e+001 2.476254e+001 -6.040299e+001 2.140044e+001 -5.270736e+000 -9.569323e+001
15998418750 -5.069736e+000 -1.177725e+002 -6.017163e+001 2.589544e+001 -6.061432e+001 2.286750e+001 -5.282448e+000 -9.640678e+001
16017162500 -5.064720e+000 -1.184895e+002 -6.041225e+001 2.552189e+001 -6.098103e+001 2.770399e+001 -5.295588e+000 -9.716766e+001
16035906250 -5.047825e+000 -1.192033e+002 -6.065471e+001 2.908323e+001 -6.095351e+001 3.038195e+001 -5.300925e+000 -9.792194e+001
16054650000 -5.034439e+000 -1.198721e+002 -6.186779e+001 3.855053e+001 -6.133745e+001 3.368290e+001 -5.315650e+000 -9.864644e+001
16073393750 -5.027613e+000 -1.205864e+002 -6.202239e+001 4.294802e+001 -6.158607e+001 3.577032e+001 -5.329841e+000 -9.940535e+001
16092137500 -5.009977e+000 -1.212962e+002 -6.272110e+001 4.944500e+001 -6.163789e+001 3.925273e+001 -5.332378e+000 -1.001786e+002
16110881250 -4.996142e+000 -1.219570e+002 -6.271508e+001 5.331155e+001 -6.171106e+001 4.346105e+001 -5.344915e+000 -1.008842e+002
16129625000 -4.989559e+000 -1.226792e+002 -6.292424e+001 5.793388e+001 -6.174617e+001 4.925654e+001 -5.354071e+000 -1.016484e+002
16148368750 -4.974113e+000 -1.233816e+002 -6.295663e+001 6.063648e+001 -6.177071e+001 5.189727e+001 -5.360217e+000 -1.023935e+002
16167112500 -4.960703e+000 -1.240326e+002 -6.315208e+001 6.675755e+001 -6.185479e+001 5.396140e+001 -5.374951e+000 -1.031018e+002
16185856250 -4.952757e+000 -1.247530e+002 -6.326227e+001 7.049547e+001 -6.194203e+001 5.802390e+001 -5.385404e+000 -1.038883e+002
16204600000 -4.933365e+000 -1.254395e+002 -6.318936e+001 7.663582e+001 -6.205009e+001 6.283950e+001 -5.388843e+000 -1.046085e+002
16223343750 -4.925039e+000 -1.261097e+002 -6.288405e+001 8.100091e+001 -6.194024e+001 6.681980e+001 -5.400704e+000 -1.053166e+002
16242087500 -4.913373e+000 -1.268147e+002 -6.279563e+001 8.616896e+001 -6.133017e+001 7.385657e+001 -5.411789e+000 -1.060625e+002
16260831250 -4.896518e+000 -1.274905e+002 -6.218353e+001 8.772108e+001 -6.086732e+001 8.301292e+001 -5.423329e+000 -1.067904e+002
16279575000 -4.886453e+000 -1.281779e+002 -6.133226e+001 9.242146e+001 -6.060035e+001 8.697598e+001 -5.436238e+000 -1.075058e+002
16298318750 -4.875185e+000 -1.288541e+002 -6.052997e+001 9.494481e+001 -6.017161e+001 8.834895e+001 -5.449225e+000 -1.082341e+002
16317062500 -4.855492e+000 -1.295400e+002 -5.995239e+001 9.694739e+001 -5.934772e+001 9.688800e+001 -5.458448e+000 -1.089531e+002
16335806250 -4.843147e+000 -1.301996e+002 -5.905623e+001 9.630121e+001 -5.875550e+001 9.892268e+001 -5.467664e+000 -1.096606e+002
16354550000 -4.830298e+000 -1.308781e+002 -5.865211e+001 9.868099e+001 -5.818572e+001 9.822346e+001 -5.481318e+000 -1.103635e+002
16373293750 -4.816581e+000 -1.315814e+002 -5.824374e+001 1.052407e+002 -5.737592e+001 9.975510e+001 -5.492394e+000 -1.110852e+002
16392037500 -4.804772e+000 -1.322474e+002 -5.803816e+001 1.053960e+002 -5.696206e+001 1.020900e+002 -5.503017e+000 -1.117917e+002
16410781250 -4.791870e+000 -1.329231e+002 -5.717205e+001 1.107816e+002 -5.631552e+001 1.006146e+002 -5.516114e+000 -1.125048e+002
16429525000 -4.777164e+000 -1.335995e+002 -5.645238e+001 1.127705e+002 -5.582956e+001 1.005151e+002 -5.528378e+000 -1.132200e+002
16448268750 -4.762400e+000 -1.342458e+002 -5.592862e+001 1.162052e+002 -5.536288e+001 9.917732e+001 -5.538466e+000 -1.139201e+002
16467012500 -4.752059e+000 -1.349106e+002 -5.540127e+001 1.150860e+002 -5.509647e+001 9.977308e+001 -5.551972e+000 -1.146096e+002
16485756250 -4.737862e+000 -1.355751e+002 -5.400422e+001 1.086110e+002 -5.442196e+001 9.804202e+001 -5.565005e+000 -1.153020e+002
16504500000 -4.725430e+000 -1.362392e+002 -5.360239e+001 1.064155e+002 -5.376258e+001 9.812832e+001 -5.576558e+000 -1.160054e+002
16523243750 -4.712489e+000 -1.369049e+002 -5.262251e+001 1.028094e+002 -5.343750e+001 9.847935e+001 -5.590872e+000 -1.166722e+002
16541987500 -4.698787e+000 -1.375659e+002 -5.232852e+001 1.012743e+002 -5.312139e+001 9.807072e+001 -5.604218e+000 -1.173778e+002
16560731250 -4.686530e+000 -1.382124e+002 -5.184083e+001 9.953634e+001 -5.263693e+001 9.662444e+001 -5.615826e+000 -1.180827e+002
16579475000 -4.676931e+000 -1.388635e+002 -5.156261e+001 9.999123e+001 -5.213477e+001 9.626580e+001 -5.628078e+000 -1.187539e+002
16598218750 -4.665940e+000 -1.395378e+002 -5.115678e+001 9.707140e+001 -5.173332e+001 9.547375e+001 -5.641565e+000 -1.194400e+002
16616962500 -4.654365e+000 -1.401970e+002 -5.069896e+001 9.547308e+001 -5.130978e+001 9.443538e+001 -5.652820e+000 -1.201179e+002
16635706250 -4.640949e+000 -1.408695e+002 -5.025557e+001 9.328767e+001 -5.075449e+001 9.343442e+001 -5.668163e+000 -1.208006e+002
16654450000 -4.625803e+000 -1.415337e+002 -4.994628e+001 9.186609e+001 -5.029457e+001 9.183051e+001 -5.681674e+000 -1.214907e+002
16673193750 -4.613922e+000 -1.421856e+002 -4.945897e+001 8.996635e+001 -5.011435e+001 8.935035e+001 -5.694108e+000 -1.221802e+002
16691937500 -4.603129e+000 -1.428565e+002 -4.930438e+001 8.900769e+001 -4.971925e+001 8.837347e+001 -5.706604e+000 -1.228447e+002
16710681250 -4.592353e+000 -1.435213e+002 -4.901622e+001 8.633725e+001 -4.937395e+001 8.643056e+001 -5.719517e+000 -1.235241e+002
16729425000 -4.582536e+000 -1.441829e+002 -4.878146e+001 8.450956e+001 -4.908497e+001 8.521021e+001 -5.733117e+000 -1.241867e+002
16748168750 -4.569675e+000 -1.448541e+002 -4.847023e+001 8.304253e+001 -4.876858e+001 8.399973e+001 -5.747539e+000 -1.248617e+002
16766912500 -4.557203e+000 -1.455046e+002 -4.833861e+001 8.134451e+001 -4.848478e+001 8.242640e+001 -5.762426e+000 -1.255442e+002
16785656250 -4.548165e+000 -1.461764e+002 -4.798851e+001 7.907014e+001 -4.830019e+001 8.181554e+001 -5.776334e+000 -1.262293e+002
16804400000 -4.535230e+000 -1.468458e+002 -4.758159e+001 7.705102e+001 -4.805952e+001 8.062682e+001 -5.789886e+000 -1.268984e+002
16823143750 -4.523776e+000 -1.475131e+002 -4.738336e+001 7.539471e+001 -4.795129e+001 7.869349e+001 -5.803099e+000 -1.275670e+002
16841887500 -4.513014e+000 -1.481903e+002 -4.720478e+001 7.347712e+001 -4.783744e+001 7.715856e+001 -5.817987e+000 -1.282301e+002
16860631250 -4.499027e+000 -1.488581e+002 -4.704230e+001 7.186289e+001 -4.756292e+001 7.598191e+001 -5.833238e+000 -1.288978e+002
16879375000 -4.488109e+000 -1.495215e+002 -4.684612e+001 7.074640e+001 -4.733925e+001 7.348578e+001 -5.848109e+000 -1.296008e+002
16898118750 -4.480014e+000 -1.501814e+002 -4.676207e+001 6.934162e+001 -4.706511e+001 7.171877e+001 -5.861073e+000 -1.302800e+002
16916862500 -4.467912e+000 -1.508667e+002 -4.665668e+001 6.754314e+001 -4.697070e+001 7.045624e+001 -5.874489e+000 -1.309412e+002
16935606250 -4.459461e+000 -1.515313e+002 -4.655872e+001 6.617428e+001 -4.682748e+001 6.861827e+001 -5.886917e+000 -1.316179e+002
16954350000 -4.451054e+000 -1.522103e+002 -4.642141e+001 6.486051e+001 -4.664563e+001 6.671373e+001 -5.900955e+000 -1.322752e+002
16973093750 -4.438753e+000 -1.528700e+002 -4.622356e+001 6.370436e+001 -4.651245e+001 6.457127e+001 -5.915833e+000 -1.329539e+002
16991837500 -4.428023e+000 -1.535139e+002 -4.607053e+001 6.293542e+001 -4.642422e+001 6.294780e+001 -5.928551e+000 -1.336348e+002
17010581250 -4.417675e+000 -1.541755e+002 -4.595553e+001 6.094262e+001 -4.638381e+001 6.105682e+001 -5.938697e+000 -1.342956e+002
17029325000 -4.407534e+000 -1.548441e+002 -4.581798e+001 5.952731e+001 -4.624910e+001 6.001358e+001 -5.949802e+000 -1.349610e+002
17048068750 -4.399945e+000 -1.555032e+002 -4.568549e+001 5.828283e+001 -4.614889e+001 5.798892e+001 -5.960706e+000 -1.356358e+002
17066812500 -4.393155e+000 -1.561809e+002 -4.565549e+001 5.706763e+001 -4.616367e+001 5.647523e+001 -5.970259e+000 -1.362778e+002
17085556250 -4.384037e+000 -1.568322e+002 -4.561783e+001 5.576178e+001 -4.611430e+001 5.545640e+001 -5.983523e+000 -1.369572e+002
17104300000 -4.376364e+000 -1.574659e+002 -4.552522e+001 5.455859e+001 -4.593121e+001 5.417688e+001 -5.993772e+000 -1.376442e+002
17123043750 -4.369639e+000 -1.581221e+002 -4.543885e+001 5.316621e+001 -4.585194e+001 5.243795e+001 -5.999571e+000 -1.383266e+002
17141787500 -4.362963e+000 -1.587590e+002 -4.539933e+001 5.242851e+001 -4.583216e+001 5.099102e+001 -6.008716e+000 -1.390177e+002
17160531250 -4.358788e+000 -1.594209e+002 -4.544119e+001 5.115275e+001 -4.575775e+001 5.036728e+001 -6.015553e+000 -1.397130e+002
17179275000 -4.352646e+000 -1.601180e+002 -4.537167e+001 4.979886e+001 -4.577768e+001 4.887046e+001 -6.020183e+000 -1.403846e+002
17198018750 -4.342968e+000 -1.607552e+002 -4.537180e+001 4.853613e+001 -4.576225e+001 4.803453e+001 -6.030630e+000 -1.410862e+002
17216762500 -4.335200e+000 -1.613881e+002 -4.544919e+001 4.787160e+001 -4.575430e+001 4.671027e+001 -6.033268e+000 -1.417949e+002
17235506250 -4.329277e+000 -1.620425e+002 -4.553414e+001 4.728976e+001 -4.577601e+001 4.604081e+001 -6.035142e+000 -1.424929e+002
17254250000 -4.322687e+000 -1.626842e+002 -4.545682e+001 4.638486e+001 -4.575074e+001 4.537523e+001 -6.040668e+000 -1.432055e+002
17272993750 -4.320580e+000 -1.633374e+002 -4.540297e+001 4.615399e+001 -4.565364e+001 4.481269e+001 -6.041853e+000 -1.439119e+002
17291737500 -4.313294e+000 -1.640254e+002 -4.540826e+001 4.548010e+001 -4.578649e+001 4.420894e+001 -6.042249e+000 -1.446190e+002
17310481250 -4.303143e+000 -1.646697e+002 -4.551471e+001 4.453785e+001 -4.577312e+001 4.421545e+001 -6.047123e+000 -1.453501e+002
17329225000 -4.297878e+000 -1.653267e+002 -4.544522e+001 4.423405e+001 -4.585801e+001 4.368711e+001 -6.043873e+000 -1.460925e+002
17347968750 -4.292066e+000 -1.659727e+002 -4.547010e+001 4.474221e+001 -4.575503e+001 4.336685e+001 -6.042197e+000 -1.468383e+002
17366712500 -4.286771e+000 -1.666181e+002 -4.541177e+001 4.398186e+001 -4.582295e+001 4.329314e+001 -6.043953e+000 -1.475954e+002
17385456250 -4.282939e+000 -1.672874e+002 -4.535550e+001 4.320879e+001 -4.582722e+001 4.338396e+001 -6.039363e+000 -1.483585e+002
17404200000 -4.276765e+000 -1.679752e+002 -4.528415e+001 4.275612e+001 -4.576201e+001 4.333861e+001 -6.036406e+000 -1.491079e+002
17422943750 -4.269160e+000 -1.686186e+002 -4.527770e+001 4.223983e+001 -4.572143e+001 4.252809e+001 -6.037290e+000 -1.498935e+002
17441687500 -4.265047e+000 -1.692685e+002 -4.519337e+001 4.227343e+001 -4.563306e+001 4.260456e+001 -6.033412e+000 -1.506978e+002
17460431250 -4.259990e+000 -1.699044e+002 -4.505351e+001 4.257332e+001 -4.554203e+001 4.214036e+001 -6.029767e+000 -1.514853e+002
17479175000 -4.257329e+000 -1.705464e+002 -4.506484e+001 4.273194e+001 -4.542277e+001 4.250385e+001 -6.028800e+000 -1.523031e+002
17497918750 -4.253870e+000 -1.712171e+002 -4.485593e+001 4.257201e+001 -4.527078e+001 4.291702e+001 -6.023727e+000 -1.531201e+002
17516662500 -4.245779e+000 -1.718884e+002 -4.477165e+001 4.236486e+001 -4.504108e+001 4.273368e+001 -6.019165e+000 -1.539230e+002
17535406250 -4.236743e+000 -1.725409e+002 -4.466792e+001 4.245273e+001 -4.500177e+001 4.288892e+001 -6.019665e+000 -1.547603e+002
17554150000 -4.232431e+000 -1.731912e+002 -4.454347e+001 4.246162e+001 -4.484294e+001 4.276671e+001 -6.014748e+000 -1.556183e+002
17572893750 -4.227078e+000 -1.738359e+002 -4.441632e+001 4.200728e+001 -4.473384e+001 4.252857e+001 -6.012072e+000 -1.564394e+002
17591637500 -4.223846e+000 -1.744886e+002 -4.419515e+001 4.135279e+001 -4.460600e+001 4.209639e+001 -6.009406e+000 -1.572999e+002
17610381250 -4.222390e+000 -1.751565e+002 -4.408665e+001 4.098635e+001 -4.442553e+001 4.220044e+001 -6.002798e+000 -1.581671e+002
17629125000 -4.214530e+000 -1.758268e+002 -4.398722e+001 4.111033e+001 -4.419789e+001 4.141119e+001 -5.997199e+000 -1.590105e+002
17647868750 -4.208945e+000 -1.764662e+002 -4.375964e+001 4.045615e+001 -4.405218e+001 4.128938e+001 -5.996721e+000 -1.598951e+002
17666612500 -4.205752e+000 -1.770941e+002 -4.353299e+001 3.998384e+001 -4.387476e+001 4.080173e+001 -5.991130e+000 -1.607812e+002
17685356250 -4.203350e+000 -1.777133e+002 -4.336440e+001 3.952301e+001 -4.369485e+001 4.051472e+001 -5.989931e+000 -1.616461e+002
17704100000 -4.203932e+000 -1.783601e+002 -4.322233e+001 3.834332e+001 -4.348832e+001 3.989534e+001 -5.985925e+000 -1.625566e+002
17722843750 -4.204545e+000 -1.790294e+002 -4.299664e+001 3.786163e+001 -4.320575e+001 3.937193e+001 -5.980188e+000 -1.634343e+002
17741587500 -4.200212e+000 -1.796733e+002 -4.277002e+001 3.742002e+001 -4.298921e+001 3.829264e+001 -5.976570e+000 -1.643161e+002
17760331250 -4.192781e+000 1.796900e+002 -4.258774e+001 3.637037e+001 -4.279099e+001 3.776771e+001 -5.976102e+000 -1.652418e+002
17779075000 -4.189042e+000 1.790595e+002 -4.234715e+001 3.472687e+001 -4.271763e+001 3.642750e+001 -5.966857e+000 -1.661496e+002
17797818750 -4.185611e+000 1.784520e+002 -4.215738e+001 3.386275e+001 -4.253649e+001 3.558876e+001 -5.965269e+000 -1.670470e+002
17816562500 -4.187624e+000 1.778205e+002 -4.202970e+001 3.275223e+001 -4.236069e+001 3.413149e+001 -5.962413e+000 -1.679828e+002
17835306250 -4.187806e+000 1.771624e+002 -4.185989e+001 3.120728e+001 -4.214753e+001 3.295481e+001 -5.956814e+000 -1.688867e+002
17854050000 -4.182899e+000 1.765015e+002 -4.167725e+001 3.002938e+001 -4.197644e+001 3.243602e+001 -5.956904e+000 -1.697883e+002
17872793750 -4.179195e+000 1.758668e+002 -4.156871e+001 2.897845e+001 -4.176441e+001 3.090515e+001 -5.954831e+000 -1.707327e+002
17891537500 -4.176139e+000 1.752312e+002 -4.142005e+001 2.756099e+001 -4.169699e+001 2.973815e+001 -5.947748e+000 -1.716660e+002
17910281250 -4.172427e+000 1.746181e+002 -4.126970e+001 2.621732e+001 -4.159512e+001 2.810492e+001 -5.947622e+000 -1.725798e+002
17929025000 -4.176423e+000 1.739853e+002 -4.121957e+001 2.492500e+001 -4.146539e+001 2.605533e+001 -5.942340e+000 -1.735521e+002
17947768750 -4.173164e+000 1.733169e+002 -4.110906e+001 2.361756e+001 -4.132142e+001 2.464472e+001 -5.936975e+000 -1.745008e+002
17966512500 -4.169431e+000 1.726595e+002 -4.101003e+001 2.231541e+001 -4.123833e+001 2.340370e+001 -5.936170e+000 -1.754391e+002
17985256250 -4.166198e+000 1.720464e+002 -4.090545e+001 2.066405e+001 -4.117973e+001 2.219495e+001 -5.934087e+000 -1.764171e+002
18004000000 -4.160072e+000 1.714277e+002 -4.080674e+001 1.922463e+001 -4.107734e+001 2.095371e+001 -5.929344e+000 -1.773733e+002
18022743750 -4.156807e+000 1.708186e+002 -4.071059e+001 1.804629e+001 -4.097454e+001 1.963700e+001 -5.930769e+000 -1.783404e+002
18041487500 -4.157913e+000 1.702020e+002 -4.066277e+001 1.662739e+001 -4.080668e+001 1.766822e+001 -5.926621e+000 -1.793445e+002
18060231250 -4.158882e+000 1.695398e+002 -4.052597e+001 1.488525e+001 -4.074579e+001 1.661415e+001 -5.924463e+000 1.796821e+002
18078975000 -4.154298e+000 1.688818e+002 -4.049191e+001 1.310235e+001 -4.064959e+001 1.542462e+001 -5.925085e+000 1.787101e+002
18097718750 -4.150681e+000 1.682613e+002 -4.051118e+001 1.122190e+001 -4.059152e+001 1.360262e+001 -5.921774e+000 1.777033e+002
18116462500 -4.144574e+000 1.676419e+002 -4.047860e+001 9.684341e+000 -4.060013e+001 1.195792e+001 -5.918790e+000 1.767263e+002
18135206250 -4.141953e+000 1.670438e+002 -4.047400e+001 8.203823e+000 -4.058789e+001 1.053679e+001 -5.923517e+000 1.757084e+002
18153950000 -4.142350e+000 1.664362e+002 -4.050716e+001 6.741087e+000 -4.059144e+001 8.980094e+000 -5.921217e+000 1.746672e+002
18172693750 -4.139705e+000 1.657785e+002 -4.049522e+001 5.027129e+000 -4.059320e+001 8.031397e+000 -5.922767e+000 1.736673e+002
18191437500 -4.137533e+000 1.651590e+002 -4.046960e+001 3.612180e+000 -4.058564e+001 6.093585e+000 -5.927339e+000 1.726487e+002
18210181250 -4.132382e+000 1.645548e+002 -4.054225e+001 2.038686e+000 -4.054478e+001 4.629780e+000 -5.928165e+000 1.716032e+002
18228925000 -4.130287e+000 1.639383e+002 -4.058198e+001 9.690663e-001 -4.051686e+001 3.345236e+000 -5.928946e+000 1.706134e+002
18247668750 -4.130001e+000 1.633461e+002 -4.060379e+001 -3.795649e-001 -4.047620e+001 2.324610e+000 -5.934404e+000 1.695714e+002
18266412500 -4.131576e+000 1.627266e+002 -4.067839e+001 -1.472201e+000 -4.049891e+001 1.057464e+000 -5.933289e+000 1.685248e+002
18285156250 -4.130930e+000 1.620898e+002 -4.069521e+001 -2.919062e+000 -4.049229e+001 -3.511872e-001 -5.934626e+000 1.675063e+002
18303900000 -4.128603e+000 1.614516e+002 -4.067750e+001 -4.026733e+000 -4.056688e+001 -1.417467e+000 -5.942099e+000 1.664494e+002
18322643750 -4.125725e+000 1.608487e+002 -4.073556e+001 -5.361727e+000 -4.055755e+001 -2.480453e+000 -5.945139e+000 1.653892e+002
18341387500 -4.123281e+000 1.602289e+002 -4.076012e+001 -6.280434e+000 -4.061852e+001 -3.662091e+000 -5.951970e+000 1.643474e+002
18360131250 -4.123259e+000 1.596321e+002 -4.077789e+001 -7.426730e+000 -4.066432e+001 -4.664513e+000 -5.961899e+000 1.632744e+002
18378875000 -4.128757e+000 1.590083e+002 -4.082215e+001 -8.582160e+000 -4.070269e+001 -5.934324e+000 -5.963271e+000 1.622198e+002
18397618750 -4.127758e+000 1.583539e+002 -4.088634e+001 -9.626289e+000 -4.069059e+001 -6.775996e+000 -5.968104e+000 1.611923e+002
18416362500 -4.123551e+000 1.576994e+002 -4.093868e+001 -1.077235e+001 -4.072452e+001 -7.872353e+000 -5.975591e+000 1.601466e+002
18435106250 -4.123632e+000 1.570761e+002 -4.106672e+001 -1.195272e+001 -4.071889e+001 -8.965010e+000 -5.980557e+000 1.590803e+002
18453850000 -4.125233e+000 1.564617e+002 -4.109655e+001 -1.270355e+001 -4.076425e+001 -9.901162e+000 -5.989102e+000 1.580395e+002
18472593750 -4.127380e+000 1.558548e+002 -4.111108e+001 -1.371381e+001 -4.086010e+001 -1.076465e+001 -6.001853e+000 1.569666e+002
18491337500 -4.130926e+000 1.552229e+002 -4.115477e+001 -1.465958e+001 -4.094412e+001 -1.205569e+001 -6.006548e+000 1.558952e+002
18510081250 -4.129551e+000 1.545673e+002 -4.118890e+001 -1.535377e+001 -4.098201e+001 -1.317245e+001 -6.014959e+000 1.548338e+002
18528825000 -4.126823e+000 1.539190e+002 -4.124945e+001 -1.582388e+001 -4.101531e+001 -1.389810e+001 -6.026291e+000 1.537557e+002
18547568750 -4.124372e+000 1.532878e+002 -4.132533e+001 -1.623624e+001 -4.098771e+001 -1.465789e+001 -6.033833e+000 1.526903e+002
18566312500 -4.123295e+000 1.526598e+002 -4.136719e+001 -1.688317e+001 -4.104994e+001 -1.538951e+001 -6.040910e+000 1.516555e+002
18585056250 -4.126854e+000 1.520495e+002 -4.143416e+001 -1.743345e+001 -4.113093e+001 -1.620556e+001 -6.052140e+000 1.505592e+002
18603800000 -4.131686e+000 1.513865e+002 -4.147768e+001 -1.843702e+001 -4.114488e+001 -1.734610e+001 -6.057100e+000 1.494893e+002
18622543750 -4.131592e+000 1.507034e+002 -4.157999e+001 -1.927098e+001 -4.116018e+001 -1.764017e+001 -6.065866e+000 1.484296e+002
18641287500 -4.131855e+000 1.500345e+002 -4.159682e+001 -1.977607e+001 -4.117118e+001 -1.809774e+001 -6.075458e+000 1.473226e+002
18660031250 -4.129335e+000 1.493837e+002 -4.162483e+001 -2.041754e+001 -4.114912e+001 -1.861320e+001 -6.079338e+000 1.462209e+002
18678775000 -4.127229e+000 1.487453e+002 -4.166818e+001 -2.092765e+001 -4.130004e+001 -1.917627e+001 -6.089838e+000 1.451320e+002
18697518750 -4.130240e+000 1.481315e+002 -4.170505e+001 -2.170240e+001 -4.138724e+001 -1.953164e+001 -6.098323e+000 1.439949e+002
18716262500 -4.135728e+000 1.474725e+002 -4.174321e+001 -2.191069e+001 -4.145257e+001 -2.015166e+001 -6.104182e+000 1.428782e+002
18735006250 -4.135976e+000 1.467846e+002 -4.181446e+001 -2.255240e+001 -4.148704e+001 -2.073144e+001 -6.115320e+000 1.417801e+002
18753750000 -4.133721e+000 1.461241e+002 -4.185006e+001 -2.331134e+001 -4.149697e+001 -2.131450e+001 -6.122536e+000 1.406309e+002
18772493750 -4.132982e+000 1.454804e+002 -4.190244e+001 -2.397243e+001 -4.150020e+001 -2.156473e+001 -6.125605e+000 1.394960e+002
18791237500 -4.131896e+000 1.448504e+002 -4.196129e+001 -2.432696e+001 -4.154165e+001 -2.219666e+001 -6.131373e+000 1.383532e+002
18809981250 -4.135774e+000 1.442317e+002 -4.199355e+001 -2.458585e+001 -4.161423e+001 -2.259020e+001 -6.140113e+000 1.371658e+002
18828725000 -4.143830e+000 1.435711e+002 -4.197923e+001 -2.509675e+001 -4.170240e+001 -2.343232e+001 -6.141643e+000 1.359994e+002
18847468750 -4.146921e+000 1.429060e+002 -4.201169e+001 -2.549798e+001 -4.166676e+001 -2.393788e+001 -6.152568e+000 1.348172e+002
18866212500 -4.147951e+000 1.422495e+002 -4.199944e+001 -2.572883e+001 -4.171595e+001 -2.438058e+001 -6.158202e+000 1.336151e+002
18884956250 -4.145272e+000 1.415987e+002 -4.204079e+001 -2.605472e+001 -4.171811e+001 -2.498359e+001 -6.160198e+000 1.324124e+002
18903700000 -4.146512e+000 1.409811e+002 -4.210503e+001 -2.643005e+001 -4.176400e+001 -2.549950e+001 -6.168593e+000 1.312061e+002
18922443750 -4.151715e+000 1.403691e+002 -4.211450e+001 -2.692008e+001 -4.178873e+001 -2.563584e+001 -6.173884e+000 1.299705e+002
18941187500 -4.161551e+000 1.397079e+002 -4.211947e+001 -2.706013e+001 -4.182562e+001 -2.611422e+001 -6.177086e+000 1.287476e+002
18959931250 -4.166010e+000 1.390438e+002 -4.207648e+001 -2.754360e+001 -4.185216e+001 -2.657662e+001 -6.185528e+000 1.275151e+002
18978675000 -4.169402e+000 1.383837e+002 -4.201190e+001 -2.797028e+001 -4.184000e+001 -2.710022e+001 -6.189453e+000 1.262196e+002
18997418750 -4.170444e+000 1.377222e+002 -4.196062e+001 -2.825044e+001 -4.181653e+001 -2.748068e+001 -6.193605e+000 1.249537e+002
19016162500 -4.170835e+000 1.370941e+002 -4.195978e+001 -2.870891e+001 -4.178666e+001 -2.808944e+001 -6.205054e+000 1.236921e+002
19034906250 -4.179253e+000 1.364838e+002 -4.193845e+001 -2.878580e+001 -4.179989e+001 -2.854229e+001 -6.211774e+000 1.223852e+002
19053650000 -4.189138e+000 1.358146e+002 -4.190207e+001 -2.896134e+001 -4.180762e+001 -2.903541e+001 -6.217716e+000 1.211028e+002
19072393750 -4.193003e+000 1.351405e+002 -4.185254e+001 -2.930376e+001 -4.181067e+001 -2.975455e+001 -6.232257e+000 1.198223e+002
19091137500 -4.198817e+000 1.344784e+002 -4.180943e+001 -2.985434e+001 -4.180560e+001 -3.040969e+001 -6.241494e+000 1.184783e+002
19109881250 -4.201317e+000 1.338080e+002 -4.177128e+001 -3.033207e+001 -4.170182e+001 -3.078963e+001 -6.248658e+000 1.171518e+002
19128625000 -4.204356e+000 1.331793e+002 -4.169926e+001 -3.071173e+001 -4.164240e+001 -3.151148e+001 -6.264424e+000 1.158173e+002
19147368750 -4.216254e+000 1.325343e+002 -4.164680e+001 -3.122946e+001 -4.155859e+001 -3.174362e+001 -6.273873e+000 1.144552e+002
19166112500 -4.225986e+000 1.318557e+002 -4.156582e+001 -3.200436e+001 -4.149728e+001 -3.234079e+001 -6.281681e+000 1.131388e+002
19184856250 -4.231454e+000 1.311801e+002 -4.153195e+001 -3.223462e+001 -4.145021e+001 -3.302112e+001 -6.300979e+000 1.117988e+002
19203600000 -4.237942e+000 1.304877e+002 -4.148726e+001 -3.285258e+001 -4.139469e+001 -3.375995e+001 -6.311476e+000 1.104147e+002
19222343750 -4.242216e+000 1.298064e+002 -4.145026e+001 -3.314822e+001 -4.134694e+001 -3.426112e+001 -6.326621e+000 1.090839e+002
19241087500 -4.245196e+000 1.291680e+002 -4.137673e+001 -3.419396e+001 -4.133286e+001 -3.492719e+001 -6.343542e+000 1.077407e+002
19259831250 -4.256277e+000 1.285207e+002 -4.135612e+001 -3.504445e+001 -4.124227e+001 -3.551950e+001 -6.356312e+000 1.063559e+002
19278575000 -4.264137e+000 1.278214e+002 -4.130479e+001 -3.577329e+001 -4.119386e+001 -3.637516e+001 -6.370915e+000 1.050269e+002
19297318750 -4.268346e+000 1.271285e+002 -4.118828e+001 -3.661463e+001 -4.116676e+001 -3.746705e+001 -6.387608e+000 1.036451e+002
19316062500 -4.277105e+000 1.264329e+002 -4.114974e+001 -3.754637e+001 -4.119086e+001 -3.849812e+001 -6.401116e+000 1.022665e+002
19334806250 -4.277226e+000 1.257367e+002 -4.111807e+001 -3.804213e+001 -4.112509e+001 -3.893324e+001 -6.412821e+000 1.009230e+002
19353550000 -4.282873e+000 1.250980e+002 -4.105559e+001 -3.895098e+001 -4.103817e+001 -3.992500e+001 -6.427481e+000 9.954504e+001
19372293750 -4.295700e+000 1.244261e+002 -4.103136e+001 -3.949761e+001 -4.098151e+001 -4.053971e+001 -6.433417e+000 9.820330e+001
19391037500 -4.302372e+000 1.237306e+002 -4.097930e+001 -4.027793e+001 -4.092916e+001 -4.160466e+001 -6.445167e+000 9.686509e+001
19409781250 -4.310114e+000 1.230332e+002 -4.095037e+001 -4.110015e+001 -4.093685e+001 -4.240643e+001 -6.457620e+000 9.550429e+001
19428525000 -4.317577e+000 1.223458e+002 -4.096695e+001 -4.205311e+001 -4.092045e+001 -4.325835e+001 -6.462612e+000 9.413231e+001
19447268750 -4.320930e+000 1.216633e+002 -4.092869e+001 -4.311436e+001 -4.091541e+001 -4.372408e+001 -6.466992e+000 9.277465e+001
19466012500 -4.327796e+000 1.210229e+002 -4.092367e+001 -4.415184e+001 -4.088811e+001 -4.435497e+001 -6.470240e+000 9.140326e+001
19484756250 -4.339656e+000 1.203369e+002 -4.095105e+001 -4.510213e+001 -4.088119e+001 -4.525150e+001 -6.464322e+000 9.003761e+001
19503500000 -4.347901e+000 1.196507e+002 -4.094716e+001 -4.582751e+001 -4.089427e+001 -4.595257e+001 -6.461467e+000 8.869611e+001
19522243750 -4.353368e+000 1.189657e+002 -4.092826e+001 -4.648174e+001 -4.092950e+001 -4.649777e+001 -6.458171e+000 8.730740e+001
19540987500 -4.362550e+000 1.182774e+002 -4.097425e+001 -4.735018e+001 -4.095600e+001 -4.753238e+001 -6.444108e+000 8.592941e+001
19559731250 -4.363522e+000 1.176030e+002 -4.100365e+001 -4.809644e+001 -4.095574e+001 -4.819808e+001 -6.433198e+000 8.457797e+001
19578475000 -4.372020e+000 1.169731e+002 -4.104753e+001 -4.879967e+001 -4.098260e+001 -4.920087e+001 -6.418363e+000 8.316914e+001
19597218750 -4.384456e+000 1.162891e+002 -4.112602e+001 -4.916198e+001 -4.104293e+001 -4.969537e+001 -6.394771e+000 8.175936e+001
19615962500 -4.393634e+000 1.155796e+002 -4.115898e+001 -4.994130e+001 -4.107357e+001 -5.048804e+001 -6.376092e+000 8.036555e+001
19634706250 -4.403542e+000 1.148955e+002 -4.109753e+001 -5.054844e+001 -4.111247e+001 -5.122435e+001 -6.354599e+000 7.893795e+001
19653450000 -4.409814e+000 1.141925e+002 -4.115380e+001 -5.126374e+001 -4.108941e+001 -5.139874e+001 -6.323699e+000 7.748760e+001
19672193750 -4.413414e+000 1.135156e+002 -4.115945e+001 -5.198463e+001 -4.105293e+001 -5.182638e+001 -6.300101e+000 7.604657e+001
19690937500 -4.424225e+000 1.128740e+002 -4.116369e+001 -5.219453e+001 -4.105752e+001 -5.268298e+001 -6.269411e+000 7.454905e+001
19709681250 -4.439756e+000 1.121722e+002 -4.118087e+001 -5.235808e+001 -4.108265e+001 -5.287437e+001 -6.230789e+000 7.305274e+001
19728425000 -4.447909e+000 1.114753e+002 -4.124231e+001 -5.295468e+001 -4.108591e+001 -5.331184e+001 -6.199542e+000 7.157007e+001
19747168750 -4.458711e+000 1.107761e+002 -4.121466e+001 -5.331704e+001 -4.096844e+001 -5.350478e+001 -6.161868e+000 7.001677e+001
19765912500 -4.469184e+000 1.100754e+002 -4.119359e+001 -5.398186e+001 -4.098156e+001 -5.383017e+001 -6.122438e+000 6.848300e+001
19784656250 -4.471495e+000 1.094066e+002 -4.120492e+001 -5.425803e+001 -4.097995e+001 -5.417758e+001 -6.087207e+000 6.692489e+001
19803400000 -4.476616e+000 1.087614e+002 -4.123565e+001 -5.467493e+001 -4.096180e+001 -5.429770e+001 -6.051568e+000 6.532294e+001
19822143750 -4.495106e+000 1.080509e+002 -4.127807e+001 -5.546339e+001 -4.083300e+001 -5.483945e+001 -6.012643e+000 6.372521e+001
19840887500 -4.504891e+000 1.073252e+002 -4.134233e+001 -5.631746e+001 -4.089757e+001 -5.574141e+001 -5.968366e+000 6.210162e+001
19859631250 -4.512670e+000 1.066302e+002 -4.128865e+001 -5.673392e+001 -4.082087e+001 -5.622638e+001 -5.930279e+000 6.047245e+001
19878375000 -4.517609e+000 1.059115e+002 -4.114764e+001 -5.697666e+001 -4.075669e+001 -5.684652e+001 -5.883335e+000 5.881854e+001
19897118750 -4.525948e+000 1.052243e+002 -4.104491e+001 -5.682732e+001 -4.071763e+001 -5.772804e+001 -5.845832e+000 5.716141e+001
19915862500 -4.536559e+000 1.045383e+002 -4.098984e+001 -5.750579e+001 -4.058321e+001 -5.828780e+001 -5.806224e+000 5.540646e+001
19934606250 -4.551186e+000 1.038333e+002 -4.096120e+001 -5.832329e+001 -4.054243e+001 -5.886472e+001 -5.766109e+000 5.371556e+001
19953350000 -4.569166e+000 1.030945e+002 -4.097509e+001 -5.909419e+001 -4.050393e+001 -6.007423e+001 -5.732477e+000 5.200512e+001
19972093750 -4.576482e+000 1.023241e+002 -4.085788e+001 -5.929562e+001 -4.048755e+001 -6.102500e+001 -5.694761e+000 5.018784e+001
19990837500 -4.582654e+000 1.015867e+002 -4.074925e+001 -6.018673e+001 -4.033950e+001 -6.173824e+001 -5.654047e+000 4.843029e+001
20009581250 -4.591346e+000 1.008814e+002 -4.070542e+001 -6.096941e+001 -4.023280e+001 -6.230153e+001 -5.622642e+000 4.669128e+001
20028325000 -4.599670e+000 1.001705e+002 -4.062626e+001 -6.183049e+001 -4.008125e+001 -6.296545e+001 -5.588531e+000 4.485667e+001
20047068750 -4.609852e+000 9.947107e+001 -4.060655e+001 -6.256665e+001 -4.007330e+001 -6.388942e+001 -5.549170e+000 4.307740e+001
20065812500 -4.620996e+000 9.872496e+001 -4.063169e+001 -6.286537e+001 -3.995995e+001 -6.437495e+001 -5.518049e+000 4.127793e+001
20084556250 -4.628974e+000 9.797230e+001 -4.052135e+001 -6.410531e+001 -3.992595e+001 -6.554996e+001 -5.486951e+000 3.944375e+001
20103300000 -4.635861e+000 9.726444e+001 -4.048944e+001 -6.483390e+001 -4.000172e+001 -6.715194e+001 -5.452585e+000 3.760945e+001
20122043750 -4.647007e+000 9.657946e+001 -4.040448e+001 -6.654208e+001 -3.990177e+001 -6.845904e+001 -5.426499e+000 3.580619e+001
20140787500 -4.658733e+000 9.586252e+001 -4.039273e+001 -6.824119e+001 -3.982283e+001 -7.008863e+001 -5.394513e+000 3.396988e+001
20159531250 -4.675584e+000 9.512881e+001 -4.034338e+001 -6.882510e+001 -3.973195e+001 -7.119180e+001 -5.367441e+000 3.215088e+001
20178275000 -4.690673e+000 9.436732e+001 -4.042532e+001 -7.046889e+001 -3.984069e+001 -7.262715e+001 -5.343672e+000 3.030430e+001
20197018750 -4.698243e+000 9.360474e+001 -4.039100e+001 -7.226134e+001 -3.995776e+001 -7.436250e+001 -5.315706e+000 2.843077e+001
20215762500 -4.702657e+000 9.289785e+001 -4.036058e+001 -7.290453e+001 -3.992952e+001 -7.624432e+001 -5.288142e+000 2.661824e+001
20234506250 -4.719329e+000 9.218197e+001 -4.025397e+001 -7.512009e+001 -3.987654e+001 -7.836021e+001 -5.266286e+000 2.473604e+001
20253250000 -4.725888e+000 9.143665e+001 -4.015858e+001 -7.635498e+001 -3.996399e+001 -7.964166e+001 -5.234666e+000 2.288126e+001
20271993750 -4.735090e+000 9.075069e+001 -4.007214e+001 -7.724197e+001 -3.977988e+001 -8.111404e+001 -5.221135e+000 2.105831e+001
20290737500 -4.751052e+000 8.992906e+001 -4.013483e+001 -7.892014e+001 -3.984454e+001 -8.289240e+001 -5.199654e+000 1.915262e+001
20309481250 -4.761646e+000 8.913431e+001 -4.030092e+001 -8.023422e+001 -3.991402e+001 -8.435831e+001 -5.179323e+000 1.726086e+001
20328225000 -4.763855e+000 8.841897e+001 -4.034007e+001 -8.243745e+001 -3.999164e+001 -8.592152e+001 -5.162020e+000 1.537734e+001
20346968750 -4.777041e+000 8.773999e+001 -4.035175e+001 -8.365866e+001 -4.006385e+001 -8.757188e+001 -5.150513e+000 1.352486e+001
20365712500 -4.790545e+000 8.697025e+001 -4.045360e+001 -8.457966e+001 -4.005472e+001 -8.914658e+001 -5.131564e+000 1.162727e+001
20384456250 -4.802946e+000 8.623590e+001 -4.048373e+001 -8.615202e+001 -4.004103e+001 -8.987940e+001 -5.119747e+000 9.745317e+000
20403200000 -4.820138e+000 8.545322e+001 -4.045357e+001 -8.794160e+001 -4.003505e+001 -9.112946e+001 -5.114302e+000 7.928633e+000
20421943750 -4.829237e+000 8.463762e+001 -4.058295e+001 -8.939059e+001 -4.027488e+001 -9.276009e+001 -5.105438e+000 6.037827e+000
20440687500 -4.831048e+000 8.393127e+001 -4.062026e+001 -9.086627e+001 -4.041980e+001 -9.469979e+001 -5.100451e+000 4.148367e+000
20459431250 -4.847898e+000 8.322909e+001 -4.068235e+001 -9.231040e+001 -4.064030e+001 -9.677150e+001 -5.101628e+000 2.293811e+000
20478175000 -4.861972e+000 8.246359e+001 -4.068290e+001 -9.315904e+001 -4.058912e+001 -9.784402e+001 -5.100724e+000 3.989303e-001
20496918750 -4.881488e+000 8.172178e+001 -4.070356e+001 -9.523192e+001 -4.071152e+001 -9.939978e+001 -5.101828e+000 -1.496281e+000
20515662500 -4.898582e+000 8.090739e+001 -4.098247e+001 -9.567033e+001 -4.084425e+001 -1.019967e+002 -5.105755e+000 -3.390240e+000
20534406250 -4.905458e+000 8.006396e+001 -4.101668e+001 -9.731480e+001 -4.084915e+001 -1.033137e+002 -5.109881e+000 -5.266150e+000
20553150000 -4.909827e+000 7.928097e+001 -4.109690e+001 -9.836529e+001 -4.102760e+001 -1.039575e+002 -5.116655e+000 -7.148244e+000
20571893750 -4.924113e+000 7.853731e+001 -4.125314e+001 -9.912851e+001 -4.125000e+001 -1.047166e+002 -5.132342e+000 -9.013623e+000
20590637500 -4.936011e+000 7.779134e+001 -4.133637e+001 -1.004017e+002 -4.140032e+001 -1.057212e+002 -5.143764e+000 -1.089339e+001
20609381250 -4.948049e+000 7.703484e+001 -4.139772e+001 -1.007376e+002 -4.146809e+001 -1.067324e+002 -5.159289e+000 -1.273991e+001
20628125000 -4.966403e+000 7.618815e+001 -4.145088e+001 -1.013641e+002 -4.154950e+001 -1.084868e+002 -5.178165e+000 -1.460458e+001
20646868750 -4.975925e+000 7.532050e+001 -4.170965e+001 -1.038346e+002 -4.156871e+001 -1.091785e+002 -5.197547e+000 -1.644981e+001
20665612500 -4.984391e+000 7.456413e+001 -4.179963e+001 -1.049054e+002 -4.171597e+001 -1.089312e+002 -5.216812e+000 -1.824341e+001
20684356250 -5.002107e+000 7.377419e+001 -4.190554e+001 -1.057720e+002 -4.190757e+001 -1.105819e+002 -5.248476e+000 -2.005311e+001
20703100000 -5.020982e+000 7.300322e+001 -4.216840e+001 -1.070504e+002 -4.229124e+001 -1.109112e+002 -5.270172e+000 -2.185579e+001
20721843750 -5.044403e+000 7.223024e+001 -4.237680e+001 -1.069165e+002 -4.241846e+001 -1.123597e+002 -5.298636e+000 -2.361500e+001
20740587500 -5.064007e+000 7.138034e+001 -4.237896e+001 -1.083077e+002 -4.249937e+001 -1.139821e+002 -5.332956e+000 -2.534983e+001
20759331250 -5.069090e+000 7.053665e+001 -4.260710e+001 -1.088257e+002 -4.264953e+001 -1.139260e+002 -5.355104e+000 -2.706237e+001
20778075000 -5.077734e+000 6.973273e+001 -4.277213e+001 -1.107487e+002 -4.279789e+001 -1.152470e+002 -5.382199e+000 -2.872472e+001
20796818750 -5.092843e+000 6.894928e+001 -4.297175e+001 -1.122613e+002 -4.321262e+001 -1.159327e+002 -5.412672e+000 -3.039621e+001
20815562500 -5.099975e+000 6.819962e+001 -4.317794e+001 -1.117532e+002 -4.350767e+001 -1.181051e+002 -5.435697e+000 -3.205164e+001
20834306250 -5.117271e+000 6.742271e+001 -4.335855e+001 -1.124819e+002 -4.368369e+001 -1.183164e+002 -5.461759e+000 -3.367975e+001
20853050000 -5.132024e+000 6.657718e+001 -4.358197e+001 -1.144511e+002 -4.379893e+001 -1.197015e+002 -5.486842e+000 -3.530263e+001
20871793750 -5.141107e+000 6.572190e+001 -4.383083e+001 -1.164340e+002 -4.400535e+001 -1.204573e+002 -5.500945e+000 -3.689454e+001
20890537500 -5.153817e+000 6.492612e+001 -4.390326e+001 -1.179116e+002 -4.412610e+001 -1.216631e+002 -5.519244e+000 -3.845099e+001
20909281250 -5.170921e+000 6.411584e+001 -4.412844e+001 -1.186450e+002 -4.437113e+001 -1.226350e+002 -5.536345e+000 -4.002091e+001
20928025000 -5.180484e+000 6.334563e+001 -4.441773e+001 -1.184571e+002 -4.460244e+001 -1.226425e+002 -5.544599e+000 -4.154366e+001
20946768750 -5.201723e+000 6.254050e+001 -4.445563e+001 -1.187355e+002 -4.464501e+001 -1.208901e+002 -5.559319e+000 -4.305658e+001
20965512500 -5.219194e+000 6.168888e+001 -4.458413e+001 -1.192873e+002 -4.531036e+001 -1.220362e+002 -5.565230e+000 -4.460130e+001
20984256250 -5.226130e+000 6.088676e+001 -4.502834e+001 -1.192739e+002 -4.549321e+001 -1.218293e+002 -5.566147e+000 -4.611477e+001
21003000000 -5.237285e+000 6.009084e+001 -4.536018e+001 -1.204753e+002 -4.585546e+001 -1.260081e+002 -5.569841e+000 -4.764949e+001
21021743750 -5.253428e+000 5.926647e+001 -4.564319e+001 -1.215564e+002 -4.615689e+001 -1.256364e+002 -5.564858e+000 -4.921336e+001
21040487500 -5.270680e+000 5.849200e+001 -4.580890e+001 -1.211555e+002 -4.675150e+001 -1.273346e+002 -5.555429e+000 -5.073457e+001
21059231250 -5.288658e+000 5.766281e+001 -4.592962e+001 -1.208811e+002 -4.696398e+001 -1.255272e+002 -5.554882e+000 -5.227388e+001
21077975000 -5.305914e+000 5.679567e+001 -4.599939e+001 -1.206807e+002 -4.744570e+001 -1.231256e+002 -5.548125e+000 -5.386817e+001
21096718750 -5.312968e+000 5.596335e+001 -4.624291e+001 -1.198666e+002 -4.769327e+001 -1.232796e+002 -5.539389e+000 -5.543117e+001
21115462500 -5.325727e+000 5.518228e+001 -4.653353e+001 -1.182270e+002 -4.796256e+001 -1.211795e+002 -5.531231e+000 -5.703071e+001
21134206250 -5.339735e+000 5.436012e+001 -4.685127e+001 -1.163168e+002 -4.808571e+001 -1.206730e+002 -5.522390e+000 -5.866099e+001
21152950000 -5.353752e+000 5.356524e+001 -4.731100e+001 -1.148967e+002 -4.845093e+001 -1.211116e+002 -5.509822e+000 -6.028035e+001
21171693750 -5.373817e+000 5.271199e+001 -4.753885e+001 -1.129861e+002 -4.868866e+001 -1.190722e+002 -5.498533e+000 -6.193279e+001
21190437500 -5.390806e+000 5.183167e+001 -4.762107e+001 -1.125319e+002 -4.876727e+001 -1.204139e+002 -5.489370e+000 -6.363276e+001
21209181250 -5.403800e+000 5.099076e+001 -4.801437e+001 -1.087383e+002 -4.899763e+001 -1.187700e+002 -5.484088e+000 -6.531000e+001
21227925000 -5.411341e+000 5.015572e+001 -4.799293e+001 -1.088163e+002 -4.879712e+001 -1.173777e+002 -5.489156e+000 -6.707800e+001
21246668750 -5.429391e+000 4.931553e+001 -4.806433e+001 -1.095928e+002 -4.870194e+001 -1.149930e+002 -5.486259e+000 -6.884579e+001
21265412500 -5.447198e+000 4.848951e+001 -4.834613e+001 -1.105961e+002 -4.890331e+001 -1.148721e+002 -5.489789e+000 -7.060437e+001
21284156250 -5.470706e+000 4.759682e+001 -4.835534e+001 -1.074907e+002 -4.890315e+001 -1.135213e+002 -5.497256e+000 -7.239878e+001
21302900000 -5.486768e+000 4.671731e+001 -4.834369e+001 -1.056457e+002 -4.906868e+001 -1.125781e+002 -5.507067e+000 -7.418378e+001
21321643750 -5.495043e+000 4.586568e+001 -4.850560e+001 -1.050766e+002 -4.912371e+001 -1.108293e+002 -5.524259e+000 -7.597823e+001
21340387500 -5.512300e+000 4.502090e+001 -4.862637e+001 -1.046771e+002 -4.944407e+001 -1.106916e+002 -5.546373e+000 -7.781984e+001
21359131250 -5.525136e+000 4.416599e+001 -4.871703e+001 -1.045814e+002 -4.953595e+001 -1.094133e+002 -5.570273e+000 -7.964166e+001
21377875000 -5.540936e+000 4.334723e+001 -4.869513e+001 -1.048282e+002 -4.955577e+001 -1.094153e+002 -5.601091e+000 -8.145576e+001
21396618750 -5.560712e+000 4.244981e+001 -4.882836e+001 -1.042231e+002 -4.909624e+001 -1.073349e+002 -5.630908e+000 -8.330239e+001
21415362500 -5.570456e+000 4.153724e+001 -4.872230e+001 -1.031263e+002 -4.908722e+001 -1.084605e+002 -5.668523e+000 -8.509383e+001
21434106250 -5.581374e+000 4.068095e+001 -4.841423e+001 -1.016127e+002 -4.891667e+001 -1.047283e+002 -5.714133e+000 -8.689801e+001
21452850000 -5.591383e+000 3.980877e+001 -4.864093e+001 -9.878351e+001 -4.873800e+001 -1.065510e+002 -5.763035e+000 -8.872054e+001
21471593750 -5.605848e+000 3.895393e+001 -4.877171e+001 -9.924136e+001 -4.821309e+001 -1.049929e+002 -5.819431e+000 -9.048688e+001
21490337500 -5.628278e+000 3.811755e+001 -4.899912e+001 -9.973125e+001 -4.811305e+001 -1.061316e+002 -5.879080e+000 -9.227915e+001
21509081250 -5.645950e+000 3.718832e+001 -4.890718e+001 -9.873065e+001 -4.789634e+001 -1.081701e+002 -5.932137e+000 -9.405452e+001
21527825000 -5.658725e+000 3.628231e+001 -4.895624e+001 -9.994750e+001 -4.789395e+001 -1.091990e+002 -5.994112e+000 -9.580486e+001
21546568750 -5.670362e+000 3.540741e+001 -4.887090e+001 -1.008752e+002 -4.769860e+001 -1.102101e+002 -6.064756e+000 -9.759049e+001
21565312500 -5.680663e+000 3.451695e+001 -4.869429e+001 -1.026960e+002 -4.836678e+001 -1.084135e+002 -6.131236e+000 -9.935885e+001
21584056250 -5.695835e+000 3.369735e+001 -4.862517e+001 -1.068271e+002 -4.808117e+001 -1.072555e+002 -6.207363e+000 -1.011032e+002
21602800000 -5.716790e+000 3.284992e+001 -4.883054e+001 -1.073393e+002 -4.818719e+001 -1.074100e+002 -6.285970e+000 -1.028592e+002
21621543750 -5.732698e+000 3.192536e+001 -4.894675e+001 -1.069395e+002 -4.891497e+001 -1.054116e+002 -6.365596e+000 -1.046227e+002
21640287500 -5.739939e+000 3.101787e+001 -4.868092e+001 -1.090006e+002 -4.873219e+001 -1.069242e+002 -6.450762e+000 -1.063375e+002
21659031250 -5.757532e+000 3.013694e+001 -4.924064e+001 -1.089202e+002 -4.894054e+001 -1.073116e+002 -6.536593e+000 -1.080874e+002
21677775000 -5.765595e+000 2.924606e+001 -4.940858e+001 -1.076009e+002 -4.925506e+001 -1.064685e+002 -6.621759e+000 -1.098484e+002
21696518750 -5.780827e+000 2.839012e+001 -4.924887e+001 -1.055528e+002 -4.911213e+001 -1.067790e+002 -6.716597e+000 -1.115946e+002
21715262500 -5.803229e+000 2.753924e+001 -4.925665e+001 -1.038745e+002 -4.927559e+001 -1.058825e+002 -6.815461e+000 -1.133900e+002
21734006250 -5.813141e+000 2.658673e+001 -4.936763e+001 -1.027541e+002 -4.928605e+001 -1.048882e+002 -6.913226e+000 -1.151636e+002
21752750000 -5.822866e+000 2.566137e+001 -4.946380e+001 -1.014552e+002 -4.956649e+001 -1.051536e+002 -7.023635e+000 -1.169225e+002
21771493750 -5.832687e+000 2.475943e+001 -4.943096e+001 -1.007794e+002 -4.952838e+001 -1.022054e+002 -7.145823e+000 -1.187252e+002
21790237500 -5.844811e+000 2.388463e+001 -4.952391e+001 -9.885130e+001 -4.952666e+001 -1.016339e+002 -7.265051e+000 -1.205424e+002
21808981250 -5.865263e+000 2.301021e+001 -4.977675e+001 -9.598739e+001 -4.976569e+001 -1.001289e+002 -7.391437e+000 -1.223541e+002
21827725000 -5.888931e+000 2.210452e+001 -4.974279e+001 -9.397540e+001 -4.997015e+001 -9.914468e+001 -7.525629e+000 -1.241453e+002
21846468750 -5.907747e+000 2.115146e+001 -4.975153e+001 -9.233647e+001 -4.998805e+001 -9.586147e+001 -7.665922e+000 -1.259572e+002
21865212500 -5.920394e+000 2.021577e+001 -4.998709e+001 -9.151723e+001 -5.021341e+001 -9.468976e+001 -7.822112e+000 -1.278067e+002
21883956250 -5.932615e+000 1.932752e+001 -4.958664e+001 -9.157954e+001 -5.029680e+001 -9.050957e+001 -7.978177e+000 -1.297027e+002
21902700000 -5.943302e+000 1.841873e+001 -4.927193e+001 -8.948314e+001 -5.062137e+001 -8.863468e+001 -8.137735e+000 -1.315697e+002
21921443750 -5.957836e+000 1.752268e+001 -4.917366e+001 -8.712210e+001 -5.055967e+001 -8.584217e+001 -8.307920e+000 -1.333793e+002
21940187500 -5.978960e+000 1.660645e+001 -4.915617e+001 -8.551452e+001 -5.057893e+001 -8.418909e+001 -8.492682e+000 -1.352278e+002
21958931250 -5.991633e+000 1.562498e+001 -4.902751e+001 -8.209627e+001 -5.047229e+001 -8.360271e+001 -8.687717e+000 -1.370316e+002
21977675000 -6.000111e+000 1.469779e+001 -4.892319e+001 -8.020232e+001 -5.044955e+001 -8.172832e+001 -8.901576e+000 -1.389147e+002
21996418750 -6.016159e+000 1.377045e+001 -4.872976e+001 -7.731164e+001 -4.942439e+001 -8.183669e+001 -9.134253e+000 -1.408453e+002
22015162500 -6.025051e+000 1.283844e+001 -4.810729e+001 -7.302827e+001 -4.926765e+001 -7.915775e+001 -9.364225e+000 -1.427160e+002
22033906250 -6.042908e+000 1.193077e+001 -4.775258e+001 -7.196301e+001 -4.910652e+001 -7.839716e+001 -9.617540e+000 -1.445533e+002
22052650000 -6.067060e+000 1.097068e+001 -4.747211e+001 -7.078665e+001 -4.821934e+001 -7.724352e+001 -9.876474e+000 -1.463967e+002
22071393750 -6.081414e+000 1.000341e+001 -4.724939e+001 -6.940859e+001 -4.805877e+001 -7.421510e+001 -1.016029e+001 -1.482542e+002
22090137500 -6.090718e+000 9.072856e+000 -4.647370e+001 -6.639962e+001 -4.781427e+001 -7.297745e+001 -1.046207e+001 -1.501166e+002
22108881250 -6.104776e+000 8.127150e+000 -4.608398e+001 -6.595486e+001 -4.737735e+001 -7.298889e+001 -1.078901e+001 -1.519675e+002
22127625000 -6.117916e+000 7.245483e+000 -4.580662e+001 -6.492850e+001 -4.716779e+001 -7.227911e+001 -1.112507e+001 -1.537754e+002
22146368750 -6.135629e+000 6.307106e+000 -4.556287e+001 -6.640392e+001 -4.691615e+001 -7.132670e+001 -1.149597e+001 -1.555280e+002
22165112500 -6.156974e+000 5.321070e+000 -4.538461e+001 -6.595552e+001 -4.650337e+001 -7.060297e+001 -1.187920e+001 -1.572777e+002
22183856250 -6.171802e+000 4.331997e+000 -4.511928e+001 -6.544277e+001 -4.591863e+001 -6.892772e+001 -1.229940e+001 -1.590541e+002
22202600000 -6.180514e+000 3.363749e+000 -4.483819e+001 -6.462486e+001 -4.540107e+001 -6.955366e+001 -1.273726e+001 -1.607780e+002
22221343750 -6.187898e+000 2.390342e+000 -4.439619e+001 -6.584534e+001 -4.497041e+001 -7.001523e+001 -1.319811e+001 -1.625190e+002
22240087500 -6.195901e+000 1.480438e+000 -4.393097e+001 -6.744350e+001 -4.452254e+001 -7.085269e+001 -1.368485e+001 -1.643098e+002
22258831250 -6.208099e+000 5.512908e-001 -4.366220e+001 -6.859376e+001 -4.404299e+001 -7.174507e+001 -1.423420e+001 -1.658434e+002
22277575000 -6.223686e+000 -4.651722e-001 -4.332414e+001 -7.025679e+001 -4.380594e+001 -7.305475e+001 -1.484102e+001 -1.671845e+002
22296318750 -6.233105e+000 -1.444248e+000 -4.297330e+001 -7.119566e+001 -4.323333e+001 -7.325599e+001 -1.553490e+001 -1.683941e+002
22315062500 -6.243822e+000 -2.423462e+000 -4.285556e+001 -7.236500e+001 -4.290877e+001 -7.513966e+001 -1.631059e+001 -1.696965e+002
22333806250 -6.246859e+000 -3.376411e+000 -4.272854e+001 -7.439169e+001 -4.243942e+001 -7.579493e+001 -1.717583e+001 -1.706007e+002
22352550000 -6.252192e+000 -4.296865e+000 -4.243710e+001 -7.520975e+001 -4.219831e+001 -7.722449e+001 -1.809962e+001 -1.707481e+002
22371293750 -6.270745e+000 -5.232232e+000 -4.217262e+001 -7.610026e+001 -4.197363e+001 -7.866690e+001 -1.910687e+001 -1.687999e+002
22390037500 -6.286126e+000 -6.238557e+000 -4.190704e+001 -7.811523e+001 -4.166718e+001 -7.761548e+001 -2.008491e+001 -1.657726e+002
22408781250 -6.295092e+000 -7.236383e+000 -4.166494e+001 -7.940305e+001 -4.139674e+001 -7.857056e+001 -2.088763e+001 -1.618233e+002
22427525000 -6.297713e+000 -8.229922e+000 -4.145734e+001 -8.144103e+001 -4.131898e+001 -8.026378e+001 -2.154005e+001 -1.571415e+002
22446268750 -6.298686e+000 -9.181978e+000 -4.149706e+001 -8.378248e+001 -4.123828e+001 -8.158411e+001 -2.213858e+001 -1.522290e+002
22465012500 -6.306831e+000 -1.008898e+001 -4.133224e+001 -8.511224e+001 -4.087982e+001 -8.229168e+001 -2.264746e+001 -1.473883e+002
22483756250 -6.319993e+000 -1.103099e+001 -4.122127e+001 -8.660490e+001 -4.073629e+001 -8.388669e+001 -2.304925e+001 -1.424889e+002
22502500000 -6.328758e+000 -1.206611e+001 -4.115450e+001 -8.781261e+001 -4.073022e+001 -8.547598e+001 -2.336806e+001 -1.374485e+002
22521243750 -6.331604e+000 -1.309168e+001 -4.105029e+001 -8.959766e+001 -4.047865e+001 -8.683536e+001 -2.362179e+001 -1.323674e+002
22539987500 -6.335719e+000 -1.411275e+001 -4.086292e+001 -9.109423e+001 -4.040977e+001 -8.880296e+001 -2.380766e+001 -1.271778e+002
22558731250 -6.333999e+000 -1.510490e+001 -4.077262e+001 -9.244135e+001 -4.035069e+001 -8.910246e+001 -2.393833e+001 -1.219814e+002
22577475000 -6.334131e+000 -1.603536e+001 -4.076487e+001 -9.352100e+001 -4.011765e+001 -9.148628e+001 -2.399612e+001 -1.167758e+002
22596218750 -6.350228e+000 -1.697704e+001 -4.050162e+001 -9.534978e+001 -4.004733e+001 -9.322193e+001 -2.400382e+001 -1.116128e+002
22614962500 -6.357567e+000 -1.798775e+001 -4.038804e+001 -9.606985e+001 -4.003315e+001 -9.485582e+001 -2.393249e+001 -1.063450e+002
22633706250 -6.359938e+000 -1.899542e+001 -4.032857e+001 -9.778604e+001 -3.994279e+001 -9.703888e+001 -2.379774e+001 -1.010218e+002
22652450000 -6.366092e+000 -1.997547e+001 -4.024092e+001 -9.843729e+001 -3.987389e+001 -9.885728e+001 -2.362278e+001 -9.564344e+001
22671193750 -6.363670e+000 -2.093445e+001 -4.005949e+001 -9.994109e+001 -3.981351e+001 -1.002085e+002 -2.338567e+001 -9.026940e+001
22689937500 -6.376225e+000 -2.184894e+001 -4.008891e+001 -1.007466e+002 -3.963726e+001 -1.003761e+002 -2.307296e+001 -8.514871e+001
22708681250 -6.384035e+000 -2.280583e+001 -4.007205e+001 -1.018714e+002 -3.943440e+001 -1.015601e+002 -2.265738e+001 -8.022471e+001
22727425000 -6.392523e+000 -2.378138e+001 -3.992911e+001 -1.019163e+002 -3.942651e+001 -1.025787e+002 -2.211088e+001 -7.540035e+001
22746168750 -6.396202e+000 -2.483480e+001 -3.974129e+001 -1.029094e+002 -3.936600e+001 -1.036437e+002 -2.146515e+001 -7.031505e+001
22764912500 -6.394614e+000 -2.584148e+001 -3.964352e+001 -1.033299e+002 -3.931928e+001 -1.048905e+002 -2.071049e+001 -6.570445e+001
22783656250 -6.397746e+000 -2.676228e+001 -3.960310e+001 -1.048455e+002 -3.923541e+001 -1.061769e+002 -1.986747e+001 -6.184393e+001
22802400000 -6.401834e+000 -2.771358e+001 -3.959887e+001 -1.062505e+002 -3.911246e+001 -1.067380e+002 -1.892169e+001 -6.005977e+001
22821143750 -6.403738e+000 -2.864752e+001 -3.961057e+001 -1.070640e+002 -3.909270e+001 -1.080265e+002 -1.796811e+001 -5.942358e+001
22839887500 -6.411234e+000 -2.964083e+001 -3.965453e+001 -1.091340e+002 -3.903655e+001 -1.094217e+002 -1.714750e+001 -5.958076e+001
22858631250 -6.409163e+000 -3.067017e+001 -3.958343e+001 -1.102400e+002 -3.896920e+001 -1.104466e+002 -1.645133e+001 -6.039911e+001
22877375000 -6.403197e+000 -3.165616e+001 -3.943129e+001 -1.106810e+002 -3.886098e+001 -1.123588e+002 -1.579098e+001 -6.147892e+001
22896118750 -6.397634e+000 -3.261053e+001 -3.931295e+001 -1.120079e+002 -3.879691e+001 -1.137658e+002 -1.518774e+001 -6.252569e+001
22914862500 -6.403424e+000 -3.358815e+001 -3.913712e+001 -1.125685e+002 -3.876209e+001 -1.152036e+002 -1.467324e+001 -6.354654e+001
22933606250 -6.411046e+000 -3.452280e+001 -3.903917e+001 -1.139474e+002 -3.860151e+001 -1.168521e+002 -1.419293e+001 -6.476701e+001
22952350000 -6.424256e+000 -3.551168e+001 -3.904792e+001 -1.153093e+002 -3.857159e+001 -1.182438e+002 -1.374377e+001 -6.589996e+001
22971093750 -6.422105e+000 -3.652975e+001 -3.902604e+001 -1.164078e+002 -3.850595e+001 -1.184064e+002 -1.333334e+001 -6.710445e+001
22989837500 -6.410556e+000 -3.749453e+001 -3.908064e+001 -1.175835e+002 -3.841008e+001 -1.191057e+002 -1.294816e+001 -6.835872e+001
23008581250 -6.413326e+000 -3.842072e+001 -3.893904e+001 -1.186067e+002 -3.842760e+001 -1.196417e+002 -1.259221e+001 -6.959408e+001
23027325000 -6.407021e+000 -3.936837e+001 -3.886150e+001 -1.196059e+002 -3.834573e+001 -1.211172e+002 -1.226191e+001 -7.084937e+001
23046068750 -6.402635e+000 -4.028623e+001 -3.873650e+001 -1.208274e+002 -3.819767e+001 -1.223955e+002 -1.194335e+001 -7.215065e+001
23064812500 -6.411438e+000 -4.127547e+001 -3.859713e+001 -1.220400e+002 -3.822775e+001 -1.232573e+002 -1.165282e+001 -7.349641e+001
23083556250 -6.401968e+000 -4.234512e+001 -3.850037e+001 -1.235873e+002 -3.837793e+001 -1.241940e+002 -1.136645e+001 -7.483450e+001
23102300000 -6.392235e+000 -4.330362e+001 -3.846588e+001 -1.249761e+002 -3.832083e+001 -1.250145e+002 -1.110157e+001 -7.608646e+001
23121043750 -6.385210e+000 -4.423684e+001 -3.834676e+001 -1.260234e+002 -3.838129e+001 -1.265512e+002 -1.083942e+001 -7.736056e+001
23139787500 -6.380467e+000 -4.514235e+001 -3.823356e+001 -1.270565e+002 -3.837886e+001 -1.276365e+002 -1.059856e+001 -7.864042e+001
23158531250 -6.377139e+000 -4.609922e+001 -3.811599e+001 -1.284461e+002 -3.827743e+001 -1.282897e+002 -1.037542e+001 -7.985094e+001
23177275000 -6.383149e+000 -4.705502e+001 -3.814567e+001 -1.296287e+002 -3.826450e+001 -1.293674e+002 -1.016298e+001 -8.114671e+001
23196018750 -6.376984e+000 -4.807586e+001 -3.811781e+001 -1.310398e+002 -3.811454e+001 -1.301579e+002 -9.955240e+000 -8.238560e+001
23214762500 -6.363065e+000 -4.905207e+001 -3.802372e+001 -1.320654e+002 -3.801924e+001 -1.309937e+002 -9.752523e+000 -8.363663e+001
23233506250 -6.355912e+000 -4.997819e+001 -3.792708e+001 -1.328921e+002 -3.794280e+001 -1.322353e+002 -9.564943e+000 -8.486343e+001
23252250000 -6.351698e+000 -5.090934e+001 -3.788448e+001 -1.337192e+002 -3.793010e+001 -1.335590e+002 -9.383681e+000 -8.608486e+001
23270993750 -6.351853e+000 -5.182829e+001 -3.784519e+001 -1.344166e+002 -3.791016e+001 -1.346184e+002 -9.210629e+000 -8.726638e+001
23289737500 -6.356310e+000 -5.282160e+001 -3.784209e+001 -1.353445e+002 -3.789832e+001 -1.359548e+002 -9.037880e+000 -8.848750e+001
23308481250 -6.349990e+000 -5.384915e+001 -3.786878e+001 -1.360358e+002 -3.785187e+001 -1.366374e+002 -8.876180e+000 -8.970861e+001
23327225000 -6.337597e+000 -5.478955e+001 -3.784846e+001 -1.372461e+002 -3.796163e+001 -1.376720e+002 -8.718534e+000 -9.087293e+001
23345968750 -6.323594e+000 -5.567264e+001 -3.793284e+001 -1.393025e+002 -3.788428e+001 -1.385303e+002 -8.567036e+000 -9.203884e+001
23364712500 -6.316164e+000 -5.655062e+001 -3.787893e+001 -1.404000e+002 -3.787628e+001 -1.391280e+002 -8.423875e+000 -9.318010e+001
23383456250 -6.313223e+000 -5.745362e+001 -3.774188e+001 -1.414087e+002 -3.783576e+001 -1.400656e+002 -8.284116e+000 -9.436011e+001
23402200000 -6.313023e+000 -5.840629e+001 -3.765178e+001 -1.425919e+002 -3.776913e+001 -1.419758e+002 -8.150602e+000 -9.551321e+001
23420943750 -6.308101e+000 -5.939276e+001 -3.760542e+001 -1.440716e+002 -3.770282e+001 -1.434987e+002 -8.014750e+000 -9.666387e+001
23439687500 -6.294647e+000 -6.031282e+001 -3.762326e+001 -1.454992e+002 -3.763329e+001 -1.446742e+002 -7.882191e+000 -9.783270e+001
23458431250 -6.284474e+000 -6.124918e+001 -3.757079e+001 -1.465418e+002 -3.756665e+001 -1.457489e+002 -7.757791e+000 -9.893629e+001
23477175000 -6.281806e+000 -6.215435e+001 -3.759034e+001 -1.480237e+002 -3.754620e+001 -1.466583e+002 -7.638781e+000 -1.000496e+002
23495918750 -6.275731e+000 -6.302705e+001 -3.754670e+001 -1.491893e+002 -3.749084e+001 -1.473312e+002 -7.522768e+000 -1.011445e+002
23514662500 -6.273384e+000 -6.397810e+001 -3.751548e+001 -1.505156e+002 -3.732311e+001 -1.486968e+002 -7.415631e+000 -1.022459e+002
23533406250 -6.264549e+000 -6.494947e+001 -3.759624e+001 -1.515626e+002 -3.729702e+001 -1.504069e+002 -7.301816e+000 -1.033216e+002
23552150000 -6.252660e+000 -6.589614e+001 -3.751645e+001 -1.529403e+002 -3.721483e+001 -1.521136e+002 -7.197121e+000 -1.043789e+002
23570893750 -6.247655e+000 -6.681819e+001 -3.746680e+001 -1.542728e+002 -3.718877e+001 -1.537898e+002 -7.098259e+000 -1.054361e+002
23589637500 -6.239998e+000 -6.771050e+001 -3.751626e+001 -1.555235e+002 -3.710184e+001 -1.551072e+002 -7.001656e+000 -1.064820e+002
23608381250 -6.234453e+000 -6.862022e+001 -3.742387e+001 -1.564348e+002 -3.710696e+001 -1.565456e+002 -6.908715e+000 -1.075404e+002
23627125000 -6.228622e+000 -6.957774e+001 -3.738448e+001 -1.578323e+002 -3.706379e+001 -1.583843e+002 -6.811228e+000 -1.085905e+002
23645868750 -6.218575e+000 -7.052084e+001 -3.743925e+001 -1.594147e+002 -3.702665e+001 -1.600730e+002 -6.719966e+000 -1.096143e+002
23664612500 -6.206323e+000 -7.142341e+001 -3.746478e+001 -1.607205e+002 -3.701465e+001 -1.615934e+002 -6.622505e+000 -1.106375e+002
23683356250 -6.198619e+000 -7.232887e+001 -3.747484e+001 -1.623003e+002 -3.700428e+001 -1.629280e+002 -6.539077e+000 -1.116549e+002
23702100000 -6.189272e+000 -7.324402e+001 -3.740704e+001 -1.633860e+002 -3.695604e+001 -1.641070e+002 -6.454475e+000 -1.126849e+002
23720843750 -6.186558e+000 -7.410776e+001 -3.738186e+001 -1.650067e+002 -3.694959e+001 -1.650735e+002 -6.375856e+000 -1.136784e+002
23739587500 -6.178623e+000 -7.502839e+001 -3.729216e+001 -1.667145e+002 -3.702674e+001 -1.669155e+002 -6.295079e+000 -1.146660e+002
23758331250 -6.166003e+000 -7.595010e+001 -3.729220e+001 -1.680858e+002 -3.689720e+001 -1.685264e+002 -6.214165e+000 -1.156494e+002
23777075000 -6.155199e+000 -7.686704e+001 -3.725677e+001 -1.688814e+002 -3.689052e+001 -1.694885e+002 -6.136743e+000 -1.166435e+002
23795818750 -6.139976e+000 -7.780058e+001 -3.726371e+001 -1.702532e+002 -3.687934e+001 -1.712181e+002 -6.061561e+000 -1.176449e+002
23814562500 -6.131412e+000 -7.867744e+001 -3.732129e+001 -1.715280e+002 -3.690940e+001 -1.727672e+002 -5.991582e+000 -1.186281e+002
23833306250 -6.124441e+000 -7.956187e+001 -3.734787e+001 -1.727711e+002 -3.692459e+001 -1.736671e+002 -5.916465e+000 -1.196329e+002
23852050000 -6.116037e+000 -8.048380e+001 -3.731549e+001 -1.739966e+002 -3.700771e+001 -1.749373e+002 -5.846091e+000 -1.206293e+002
23870793750 -6.102345e+000 -8.140108e+001 -3.724790e+001 -1.756816e+002 -3.698972e+001 -1.766650e+002 -5.779933e+000 -1.215840e+002
23889537500 -6.090638e+000 -8.226851e+001 -3.730429e+001 -1.769846e+002 -3.702426e+001 -1.775952e+002 -5.710105e+000 -1.225890e+002
23908281250 -6.082682e+000 -8.315558e+001 -3.724765e+001 -1.781419e+002 -3.717837e+001 -1.788067e+002 -5.645408e+000 -1.235498e+002
23927025000 -6.072471e+000 -8.406915e+001 -3.730327e+001 -1.796786e+002 -3.714170e+001 -1.795769e+002 -5.581663e+000 -1.245293e+002
23945768750 -6.066396e+000 -8.493694e+001 -3.728304e+001 1.787594e+002 -3.714760e+001 1.791037e+002 -5.519187e+000 -1.255077e+002
23964512500 -6.055806e+000 -8.586085e+001 -3.724600e+001 1.771713e+002 -3.716307e+001 1.779255e+002 -5.459926e+000 -1.264835e+002
23983256250 -6.037330e+000 -8.676167e+001 -3.728273e+001 1.762458e+002 -3.725908e+001 1.774869e+002 -5.402523e+000 -1.274390e+002
24002000000 -6.021575e+000 -8.764274e+001 -3.735853e+001 1.745876e+002 -3.738242e+001 1.767501e+002 -5.345281e+000 -1.283972e+002
24020743750 -6.011348e+000 -8.852435e+001 -3.734764e+001 1.733189e+002 -3.744448e+001 1.753156e+002 -5.289572e+000 -1.293602e+002
24039487500 -5.999274e+000 -8.937676e+001 -3.738372e+001 1.719063e+002 -3.748798e+001 1.741596e+002 -5.236364e+000 -1.303222e+002
24058231250 -5.997240e+000 -9.023760e+001 -3.744715e+001 1.705767e+002 -3.756885e+001 1.728336e+002 -5.183351e+000 -1.313096e+002
24076975000 -5.984730e+000 -9.115095e+001 -3.738950e+001 1.695860e+002 -3.760120e+001 1.717973e+002 -5.134508e+000 -1.322843e+002
24095718750 -5.967538e+000 -9.201802e+001 -3.739253e+001 1.683526e+002 -3.758660e+001 1.715182e+002 -5.083530e+000 -1.332600e+002
24114462500 -5.954591e+000 -9.289481e+001 -3.734388e+001 1.670286e+002 -3.760566e+001 1.700933e+002 -5.034987e+000 -1.341962e+002
24133206250 -5.939211e+000 -9.373611e+001 -3.733653e+001 1.655351e+002 -3.767319e+001 1.685616e+002 -4.990211e+000 -1.351292e+002
24151950000 -5.926926e+000 -9.461082e+001 -3.734311e+001 1.645795e+002 -3.762416e+001 1.673107e+002 -4.943718e+000 -1.360948e+002
24170693750 -5.918980e+000 -9.548987e+001 -3.735467e+001 1.636256e+002 -3.760714e+001 1.662421e+002 -4.899804e+000 -1.370238e+002
24189437500 -5.907506e+000 -9.640710e+001 -3.736553e+001 1.625710e+002 -3.763861e+001 1.650167e+002 -4.860201e+000 -1.379605e+002
24208181250 -5.892142e+000 -9.728133e+001 -3.732982e+001 1.609570e+002 -3.763796e+001 1.635176e+002 -4.819519e+000 -1.389331e+002
24226925000 -5.877927e+000 -9.813786e+001 -3.729393e+001 1.596919e+002 -3.764922e+001 1.622805e+002 -4.777925e+000 -1.398588e+002
24245668750 -5.862212e+000 -9.897482e+001 -3.730779e+001 1.585569e+002 -3.769747e+001 1.612350e+002 -4.738812e+000 -1.407811e+002
24264412500 -5.852011e+000 -9.982458e+001 -3.737601e+001 1.570901e+002 -3.765406e+001 1.598797e+002 -4.700644e+000 -1.417244e+002
24283156250 -5.841418e+000 -1.006956e+002 -3.740516e+001 1.561475e+002 -3.765400e+001 1.588359e+002 -4.664570e+000 -1.426499e+002
24301900000 -5.824484e+000 -1.015639e+002 -3.743790e+001 1.553605e+002 -3.768739e+001 1.578023e+002 -4.628735e+000 -1.435678e+002
24320643750 -5.806064e+000 -1.024296e+002 -3.741848e+001 1.543366e+002 -3.772271e+001 1.565310e+002 -4.594494e+000 -1.444804e+002
24339387500 -5.785567e+000 -1.032493e+002 -3.741708e+001 1.526073e+002 -3.774593e+001 1.551357e+002 -4.561188e+000 -1.454006e+002
24358131250 -5.772316e+000 -1.040595e+002 -3.739704e+001 1.512238e+002 -3.784474e+001 1.529292e+002 -4.531336e+000 -1.463009e+002
24376875000 -5.764230e+000 -1.048930e+002 -3.749379e+001 1.502533e+002 -3.788895e+001 1.518067e+002 -4.499597e+000 -1.472392e+002
24395618750 -5.750448e+000 -1.057764e+002 -3.752511e+001 1.492460e+002 -3.795026e+001 1.503774e+002 -4.468037e+000 -1.481778e+002
24414362500 -5.738166e+000 -1.066156e+002 -3.757500e+001 1.481031e+002 -3.794287e+001 1.484581e+002 -4.438097e+000 -1.491103e+002
24433106250 -5.724672e+000 -1.074298e+002 -3.758224e+001 1.471131e+002 -3.793214e+001 1.471036e+002 -4.406577e+000 -1.500286e+002
24451850000 -5.706847e+000 -1.082581e+002 -3.757037e+001 1.459025e+002 -3.803615e+001 1.457018e+002 -4.378390e+000 -1.509370e+002
24470593750 -5.693287e+000 -1.090487e+002 -3.762211e+001 1.447793e+002 -3.801857e+001 1.443599e+002 -4.350395e+000 -1.518278e+002
24489337500 -5.680512e+000 -1.098812e+002 -3.762236e+001 1.436919e+002 -3.806587e+001 1.434839e+002 -4.324707e+000 -1.527551e+002
24508081250 -5.666805e+000 -1.107080e+002 -3.769529e+001 1.424484e+002 -3.812693e+001 1.421989e+002 -4.297709e+000 -1.536416e+002
24526825000 -5.649269e+000 -1.115844e+002 -3.771405e+001 1.406528e+002 -3.826384e+001 1.398762e+002 -4.277877e+000 -1.545474e+002
24545568750 -5.631926e+000 -1.124128e+002 -3.775578e+001 1.392181e+002 -3.825513e+001 1.384184e+002 -4.248888e+000 -1.554966e+002
24564312500 -5.613425e+000 -1.132213e+002 -3.790325e+001 1.380921e+002 -3.836392e+001 1.375439e+002 -4.220904e+000 -1.564095e+002
24583056250 -5.600763e+000 -1.140114e+002 -3.789850e+001 1.364180e+002 -3.847445e+001 1.363483e+002 -4.199149e+000 -1.573555e+002
24601800000 -5.590447e+000 -1.148147e+002 -3.795404e+001 1.344876e+002 -3.852374e+001 1.355267e+002 -4.175854e+000 -1.583130e+002
24620543750 -5.574983e+000 -1.156376e+002 -3.807550e+001 1.329375e+002 -3.858634e+001 1.342404e+002 -4.154768e+000 -1.592527e+002
24639287500 -5.556936e+000 -1.164582e+002 -3.820414e+001 1.323233e+002 -3.867479e+001 1.332936e+002 -4.133372e+000 -1.601794e+002
24658031250 -5.540963e+000 -1.172609e+002 -3.832607e+001 1.318347e+002 -3.873539e+001 1.326366e+002 -4.112015e+000 -1.611442e+002
24676775000 -5.523710e+000 -1.180874e+002 -3.837696e+001 1.298207e+002 -3.872126e+001 1.316273e+002 -4.095461e+000 -1.620932e+002
24695518750 -5.509473e+000 -1.188679e+002 -3.844971e+001 1.284591e+002 -3.892204e+001 1.307631e+002 -4.078667e+000 -1.630525e+002
24714262500 -5.497065e+000 -1.196790e+002 -3.844325e+001 1.274703e+002 -3.895263e+001 1.295226e+002 -4.059703e+000 -1.640199e+002
24733006250 -5.481512e+000 -1.205064e+002 -3.853541e+001 1.259120e+002 -3.910699e+001 1.287057e+002 -4.039932e+000 -1.649649e+002
24751750000 -5.470707e+000 -1.213262e+002 -3.864323e+001 1.244052e+002 -3.911858e+001 1.277454e+002 -4.027113e+000 -1.659266e+002
24770493750 -5.458777e+000 -1.221468e+002 -3.873544e+001 1.233477e+002 -3.911778e+001 1.264218e+002 -4.011354e+000 -1.668628e+002
24789237500 -5.443321e+000 -1.229282e+002 -3.881289e+001 1.221961e+002 -3.914209e+001 1.257028e+002 -4.002368e+000 -1.678064e+002
24807981250 -5.426363e+000 -1.236903e+002 -3.895818e+001 1.217644e+002 -3.918201e+001 1.246476e+002 -3.997187e+000 -1.687616e+002
24826725000 -5.413704e+000 -1.244639e+002 -3.902165e+001 1.202526e+002 -3.927395e+001 1.235311e+002 -3.987270e+000 -1.697247e+002
24845468750 -5.399564e+000 -1.252708e+002 -3.908764e+001 1.192229e+002 -3.932786e+001 1.225550e+002 -3.979152e+000 -1.706789e+002
24864212500 -5.378859e+000 -1.260987e+002 -3.908270e+001 1.183725e+002 -3.934894e+001 1.217833e+002 -3.971168e+000 -1.716493e+002
24882956250 -5.360879e+000 -1.268670e+002 -3.915122e+001 1.173885e+002 -3.944753e+001 1.204916e+002 -3.959837e+000 -1.726156e+002
24901700000 -5.344960e+000 -1.276500e+002 -3.922233e+001 1.159791e+002 -3.948467e+001 1.190666e+002 -3.954921e+000 -1.735730e+002
24920443750 -5.330393e+000 -1.284122e+002 -3.928481e+001 1.154279e+002 -3.960373e+001 1.181252e+002 -3.953220e+000 -1.745605e+002
24939187500 -5.316959e+000 -1.292238e+002 -3.937236e+001 1.143107e+002 -3.965315e+001 1.173843e+002 -3.947012e+000 -1.755568e+002
24957931250 -5.305991e+000 -1.300360e+002 -3.950719e+001 1.135213e+002 -3.962905e+001 1.165917e+002 -3.943119e+000 -1.765609e+002
24976675000 -5.287848e+000 -1.308095e+002 -3.967941e+001 1.125908e+002 -3.971853e+001 1.162675e+002 -3.943098e+000 -1.775494e+002
24995418750 -5.269538e+000 -1.315878e+002 -3.961106e+001 1.114594e+002 -3.972066e+001 1.163055e+002 -3.941964e+000 -1.785443e+002
25014162500 -5.250965e+000 -1.323132e+002 -3.982510e+001 1.115877e+002 -3.980545e+001 1.152955e+002 -3.950564e+000 -1.795276e+002
25032906250 -5.236248e+000 -1.330777e+002 -3.993756e+001 1.111282e+002 -3.981023e+001 1.144774e+002 -3.954781e+000 1.794403e+002
25051650000 -5.223260e+000 -1.338255e+002 -3.993191e+001 1.106092e+002 -3.984306e+001 1.134141e+002 -3.954044e+000 1.783955e+002
25070393750 -5.209648e+000 -1.346147e+002 -3.995416e+001 1.094637e+002 -3.983356e+001 1.130956e+002 -3.964602e+000 1.773779e+002
25089137500 -5.195653e+000 -1.353991e+002 -3.998771e+001 1.085478e+002 -3.993111e+001 1.120591e+002 -3.972816e+000 1.763572e+002
25107881250 -5.176632e+000 -1.361118e+002 -3.991489e+001 1.088353e+002 -3.993281e+001 1.112723e+002 -3.980059e+000 1.753643e+002
25126625000 -5.160050e+000 -1.368444e+002 -3.989848e+001 1.085142e+002 -3.986630e+001 1.100752e+002 -3.997911e+000 1.743634e+002
25145368750 -5.149895e+000 -1.375796e+002 -4.003919e+001 1.074807e+002 -3.987336e+001 1.095776e+002 -4.017920e+000 1.733186e+002
25164112500 -5.135221e+000 -1.383230e+002 -4.002645e+001 1.071895e+002 -3.978657e+001 1.085029e+002 -4.038605e+000 1.722675e+002
25182856250 -5.120262e+000 -1.390677e+002 -4.004252e+001 1.061624e+002 -3.980437e+001 1.075972e+002 -4.060971e+000 1.712381e+002
25201600000 -5.100148e+000 -1.398246e+002 -4.000264e+001 1.060826e+002 -3.978120e+001 1.074510e+002 -4.080510e+000 1.701707e+002
25220343750 -5.081870e+000 -1.405478e+002 -3.995695e+001 1.061094e+002 -3.978101e+001 1.067278e+002 -4.103143e+000 1.691445e+002
25239087500 -5.069045e+000 -1.412716e+002 -3.979279e+001 1.051480e+002 -3.978154e+001 1.059331e+002 -4.131885e+000 1.681191e+002
25257831250 -5.056074e+000 -1.420000e+002 -3.973492e+001 1.052179e+002 -3.965165e+001 1.058323e+002 -4.167880e+000 1.670614e+002
25276575000 -5.040680e+000 -1.427268e+002 -3.966382e+001 1.045222e+002 -3.961791e+001 1.057276e+002 -4.199803e+000 1.660139e+002
25295318750 -5.028011e+000 -1.434744e+002 -3.966230e+001 1.037588e+002 -3.958987e+001 1.043353e+002 -4.238190e+000 1.649756e+002
25314062500 -5.010768e+000 -1.442166e+002 -3.962408e+001 1.035912e+002 -3.942121e+001 1.043007e+002 -4.279673e+000 1.639249e+002
25332806250 -4.988482e+000 -1.449304e+002 -3.963593e+001 1.033880e+002 -3.931739e+001 1.039046e+002 -4.319313e+000 1.629093e+002
25351550000 -4.975513e+000 -1.456301e+002 -3.951256e+001 1.023909e+002 -3.913936e+001 1.033171e+002 -4.370477e+000 1.619192e+002
25370293750 -4.965604e+000 -1.463208e+002 -3.940179e+001 1.019729e+002 -3.902595e+001 1.017392e+002 -4.424586e+000 1.608928e+002
25389037500 -4.949383e+000 -1.470115e+002 -3.921785e+001 1.016432e+002 -3.896414e+001 1.016967e+002 -4.477575e+000 1.599011e+002
25407781250 -4.934206e+000 -1.477447e+002 -3.895367e+001 1.011072e+002 -3.888258e+001 1.008533e+002 -4.532915e+000 1.589119e+002
25426525000 -4.918785e+000 -1.484733e+002 -3.885728e+001 1.005658e+002 -3.866608e+001 9.896366e+001 -4.597394e+000 1.578997e+002
25445268750 -4.900884e+000 -1.492127e+002 -3.869809e+001 9.867838e+001 -3.850875e+001 9.813418e+001 -4.653736e+000 1.569426e+002
25464012500 -4.886637e+000 -1.498666e+002 -3.853169e+001 9.796572e+001 -3.836805e+001 9.678166e+001 -4.726017e+000 1.560320e+002
25482756250 -4.877907e+000 -1.506125e+002 -3.839403e+001 9.676987e+001 -3.819220e+001 9.564168e+001 -4.806575e+000 1.550820e+002
25501500000 -4.863883e+000 -1.513189e+002 -3.820518e+001 9.527009e+001 -3.809202e+001 9.368615e+001 -4.872053e+000 1.541145e+002
25520243750 -4.849256e+000 -1.520276e+002 -3.803635e+001 9.364056e+001 -3.792176e+001 9.248756e+001 -4.951746e+000 1.532310e+002
25538987500 -4.832079e+000 -1.527763e+002 -3.801612e+001 9.203413e+001 -3.784611e+001 9.054328e+001 -5.034393e+000 1.522799e+002
25557731250 -4.810753e+000 -1.534665e+002 -3.784620e+001 9.047510e+001 -3.776836e+001 8.928323e+001 -5.115371e+000 1.513835e+002
25576475000 -4.794621e+000 -1.541414e+002 -3.765538e+001 8.897150e+001 -3.772065e+001 8.831314e+001 -5.209359e+000 1.505289e+002
25595218750 -4.784339e+000 -1.548554e+002 -3.758150e+001 8.730850e+001 -3.760849e+001 8.716644e+001 -5.303953e+000 1.496467e+002
25613962500 -4.765814e+000 -1.555621e+002 -3.742619e+001 8.624187e+001 -3.752333e+001 8.605679e+001 -5.393632e+000 1.487501e+002
25632706250 -4.751961e+000 -1.562861e+002 -3.731512e+001 8.416007e+001 -3.742037e+001 8.396975e+001 -5.500657e+000 1.478917e+002
25651450000 -4.730669e+000 -1.570055e+002 -3.724501e+001 8.229790e+001 -3.744461e+001 8.202900e+001 -5.598504e+000 1.470177e+002
25670193750 -4.709651e+000 -1.576796e+002 -3.719233e+001 8.005547e+001 -3.733764e+001 8.071851e+001 -5.700759e+000 1.461966e+002
25688937500 -4.700035e+000 -1.583541e+002 -3.708384e+001 7.841364e+001 -3.732497e+001 7.863532e+001 -5.817376e+000 1.453975e+002
25707681250 -4.687232e+000 -1.590941e+002 -3.705092e+001 7.616214e+001 -3.722791e+001 7.636670e+001 -5.931653e+000 1.445453e+002
25726425000 -4.672581e+000 -1.597669e+002 -3.701941e+001 7.485856e+001 -3.706987e+001 7.504863e+001 -6.055644e+000 1.437463e+002
25745168750 -4.656685e+000 -1.604725e+002 -3.702105e+001 7.172525e+001 -3.701294e+001 7.296092e+001 -6.184033e+000 1.429645e+002
25763912500 -4.638643e+000 -1.611889e+002 -3.687964e+001 6.924305e+001 -3.701503e+001 7.101775e+001 -6.316805e+000 1.421858e+002
25782656250 -4.616128e+000 -1.618319e+002 -3.687565e+001 6.691724e+001 -3.702224e+001 6.842038e+001 -6.451890e+000 1.414910e+002
25801400000 -4.605989e+000 -1.625049e+002 -3.686256e+001 6.520536e+001 -3.704415e+001 6.625128e+001 -6.600553e+000 1.407153e+002
25820143750 -4.594843e+000 -1.631922e+002 -3.685833e+001 6.326873e+001 -3.705914e+001 6.370303e+001 -6.744264e+000 1.399735e+002
25838887500 -4.581191e+000 -1.638682e+002 -3.688868e+001 6.158021e+001 -3.698808e+001 6.185791e+001 -6.900373e+000 1.393156e+002
25857631250 -4.570294e+000 -1.645624e+002 -3.693481e+001 5.897807e+001 -3.709152e+001 5.981547e+001 -7.061717e+000 1.386338e+002
25876375000 -4.551987e+000 -1.652220e+002 -3.690834e+001 5.684210e+001 -3.704317e+001 5.784383e+001 -7.229333e+000 1.380253e+002
25895118750 -4.537952e+000 -1.658827e+002 -3.693484e+001 5.468629e+001 -3.713546e+001 5.629252e+001 -7.404768e+000 1.374383e+002
25913862500 -4.525310e+000 -1.665311e+002 -3.698317e+001 5.281246e+001 -3.723063e+001 5.502641e+001 -7.584346e+000 1.368699e+002
25932606250 -4.509346e+000 -1.672055e+002 -3.707027e+001 5.080601e+001 -3.728693e+001 5.342001e+001 -7.776185e+000 1.363595e+002
25951350000 -4.494369e+000 -1.678603e+002 -3.707867e+001 4.875728e+001 -3.739230e+001 5.135182e+001 -7.969271e+000 1.358698e+002
25970093750 -4.479323e+000 -1.685451e+002 -3.710980e+001 4.681392e+001 -3.747243e+001 5.012269e+001 -8.166763e+000 1.354448e+002
25988837500 -4.463520e+000 -1.692221e+002 -3.720654e+001 4.505714e+001 -3.745595e+001 4.850583e+001 -8.368392e+000 1.351010e+002
26007581250 -4.448280e+000 -1.698803e+002 -3.727891e+001 4.365645e+001 -3.747961e+001 4.556335e+001 -8.590987e+000 1.347566e+002
26026325000 -4.436807e+000 -1.705458e+002 -3.724820e+001 4.185831e+001 -3.756640e+001 4.353562e+001 -8.805676e+000 1.344309e+002
26045068750 -4.421671e+000 -1.712108e+002 -3.728681e+001 4.013160e+001 -3.777058e+001 4.125059e+001 -9.041797e+000 1.342729e+002
26063812500 -4.409097e+000 -1.718599e+002 -3.738025e+001 3.823061e+001 -3.779842e+001 3.932310e+001 -9.276135e+000 1.341963e+002
26082556250 -4.397948e+000 -1.725612e+002 -3.749775e+001 3.586144e+001 -3.776772e+001 3.694180e+001 -9.518337e+000 1.341913e+002
26101300000 -4.382256e+000 -1.732060e+002 -3.756305e+001 3.411330e+001 -3.781511e+001 3.529915e+001 -9.766919e+000 1.342998e+002
26120043750 -4.366494e+000 -1.738263e+002 -3.771401e+001 3.192491e+001 -3.792549e+001 3.315197e+001 -1.001838e+001 1.344793e+002
26138787500 -4.353689e+000 -1.744643e+002 -3.776979e+001 3.039756e+001 -3.813271e+001 3.152367e+001 -1.027035e+001 1.347276e+002
26157531250 -4.340567e+000 -1.751219e+002 -3.779000e+001 2.782952e+001 -3.822995e+001 2.937099e+001 -1.052551e+001 1.351300e+002
26176275000 -4.334543e+000 -1.757579e+002 -3.787706e+001 2.683207e+001 -3.836082e+001 2.729457e+001 -1.078480e+001 1.356435e+002
26195018750 -4.320450e+000 -1.764200e+002 -3.798458e+001 2.531137e+001 -3.845219e+001 2.571142e+001 -1.103712e+001 1.363308e+002
26213762500 -4.305346e+000 -1.770773e+002 -3.807644e+001 2.379575e+001 -3.852135e+001 2.498459e+001 -1.129821e+001 1.370925e+002
26232506250 -4.291513e+000 -1.776998e+002 -3.808766e+001 2.192977e+001 -3.863433e+001 2.415728e+001 -1.156057e+001 1.380242e+002
26251250000 -4.276319e+000 -1.783509e+002 -3.814480e+001 2.031555e+001 -3.870126e+001 2.213675e+001 -1.182603e+001 1.390271e+002
26269993750 -4.265032e+000 -1.789870e+002 -3.831079e+001 1.861730e+001 -3.879906e+001 2.001949e+001 -1.206802e+001 1.400988e+002
26288737500 -4.253021e+000 -1.796176e+002 -3.838793e+001 1.774657e+001 -3.883950e+001 1.773259e+001 -1.228807e+001 1.413901e+002
26307481250 -4.237802e+000 1.797058e+002 -3.841475e+001 1.630211e+001 -3.898518e+001 1.636435e+001 -1.250323e+001 1.428473e+002
26326225000 -4.222107e+000 1.790694e+002 -3.846119e+001 1.461428e+001 -3.910841e+001 1.411648e+001 -1.270704e+001 1.444242e+002
26344968750 -4.207140e+000 1.784593e+002 -3.855539e+001 1.300446e+001 -3.911650e+001 1.201518e+001 -1.289874e+001 1.461578e+002
26363712500 -4.195258e+000 1.778236e+002 -3.863873e+001 1.164362e+001 -3.925071e+001 1.097694e+001 -1.308456e+001 1.478965e+002
26382456250 -4.185145e+000 1.772101e+002 -3.870669e+001 1.056193e+001 -3.932895e+001 9.297553e+000 -1.324263e+001 1.496933e+002
26401200000 -4.175086e+000 1.765840e+002 -3.879589e+001 8.869756e+000 -3.929757e+001 7.530648e+000 -1.337050e+001 1.516129e+002
26419943750 -4.160555e+000 1.759364e+002 -3.890853e+001 6.696581e+000 -3.941866e+001 6.268117e+000 -1.348539e+001 1.535959e+002
26438687500 -4.146866e+000 1.753489e+002 -3.905646e+001 5.156835e+000 -3.957417e+001 4.959202e+000 -1.356332e+001 1.557363e+002
26457431250 -4.140922e+000 1.747272e+002 -3.929297e+001 3.345600e+000 -3.958937e+001 3.216555e+000 -1.363580e+001 1.579242e+002
26476175000 -4.130993e+000 1.740990e+002 -3.937992e+001 1.847772e+000 -3.952312e+001 1.130919e+000 -1.368895e+001 1.600075e+002
26494918750 -4.119802e+000 1.734932e+002 -3.953883e+001 5.182613e-001 -3.964299e+001 -3.607061e-001 -1.371079e+001 1.620016e+002
26513662500 -4.109243e+000 1.728914e+002 -3.963447e+001 -3.760124e-001 -3.972512e+001 -7.118213e-001 -1.370723e+001 1.640779e+002
26532406250 -4.093652e+000 1.722517e+002 -3.966222e+001 -1.191132e+000 -3.982430e+001 -2.950004e+000 -1.367067e+001 1.660983e+002
26551150000 -4.083712e+000 1.716311e+002 -3.969719e+001 -2.515650e+000 -3.991220e+001 -3.800967e+000 -1.360468e+001 1.681044e+002
26569893750 -4.074729e+000 1.710120e+002 -3.984563e+001 -4.210616e+000 -3.983654e+001 -4.821975e+000 -1.353846e+001 1.701800e+002
26588637500 -4.060327e+000 1.703958e+002 -3.995164e+001 -5.199131e+000 -4.013798e+001 -6.100580e+000 -1.345191e+001 1.720833e+002
26607381250 -4.045522e+000 1.697819e+002 -4.006649e+001 -5.818257e+000 -4.026801e+001 -6.037553e+000 -1.333654e+001 1.738386e+002
26626125000 -4.036494e+000 1.691560e+002 -4.012100e+001 -7.373769e+000 -4.024944e+001 -7.100946e+000 -1.320326e+001 1.755289e+002
26644868750 -4.025735e+000 1.685381e+002 -4.024171e+001 -8.606176e+000 -4.036658e+001 -8.238072e+000 -1.304285e+001 1.771158e+002
26663612500 -4.015291e+000 1.679270e+002 -4.030954e+001 -9.833549e+000 -4.039828e+001 -8.858067e+000 -1.285220e+001 1.786511e+002
26682356250 -4.007936e+000 1.673007e+002 -4.045174e+001 -1.163989e+001 -4.050723e+001 -9.313689e+000 -1.265936e+001 -1.798313e+002
26701100000 -3.991844e+000 1.666943e+002 -4.050342e+001 -1.316188e+001 -4.069090e+001 -1.012461e+001 -1.246991e+001 -1.785249e+002
26719843750 -3.976935e+000 1.660892e+002 -4.070817e+001 -1.524469e+001 -4.082085e+001 -1.120398e+001 -1.227404e+001 -1.774093e+002
26738587500 -3.969293e+000 1.654804e+002 -4.078270e+001 -1.580123e+001 -4.089315e+001 -1.307466e+001 -1.206392e+001 -1.764157e+002
26757331250 -3.954373e+000 1.648739e+002 -4.092606e+001 -1.657942e+001 -4.090962e+001 -1.399202e+001 -1.184562e+001 -1.756083e+002
26776075000 -3.945777e+000 1.642675e+002 -4.105041e+001 -1.747708e+001 -4.111489e+001 -1.426450e+001 -1.161364e+001 -1.748646e+002
26794818750 -3.941061e+000 1.636604e+002 -4.118375e+001 -1.873569e+001 -4.119354e+001 -1.671521e+001 -1.138172e+001 -1.741205e+002
26813562500 -3.926913e+000 1.630481e+002 -4.126123e+001 -2.011771e+001 -4.126354e+001 -1.704704e+001 -1.116038e+001 -1.736004e+002
26832306250 -3.915426e+000 1.624631e+002 -4.150149e+001 -2.091385e+001 -4.142868e+001 -1.865532e+001 -1.093466e+001 -1.732045e+002
26851050000 -3.907375e+000 1.618610e+002 -4.165691e+001 -2.188688e+001 -4.147002e+001 -2.044252e+001 -1.070925e+001 -1.728713e+002
26869793750 -3.896523e+000 1.612680e+002 -4.166890e+001 -2.286236e+001 -4.161396e+001 -2.055417e+001 -1.048638e+001 -1.727292e+002
26888537500 -3.886851e+000 1.607131e+002 -4.178776e+001 -2.316596e+001 -4.180676e+001 -2.069122e+001 -1.026227e+001 -1.726083e+002
26907281250 -3.880132e+000 1.601194e+002 -4.206066e+001 -2.444044e+001 -4.211523e+001 -2.170360e+001 -1.004294e+001 -1.724971e+002
26926025000 -3.865875e+000 1.595456e+002 -4.202781e+001 -2.393875e+001 -4.216520e+001 -2.165070e+001 -9.831823e+000 -1.724832e+002
26944768750 -3.858238e+000 1.589672e+002 -4.212377e+001 -2.522951e+001 -4.214756e+001 -2.307546e+001 -9.622847e+000 -1.725546e+002
26963512500 -3.849664e+000 1.583860e+002 -4.236971e+001 -2.554834e+001 -4.228395e+001 -2.296988e+001 -9.435579e+000 -1.726705e+002
26982256250 -3.838905e+000 1.578460e+002 -4.252517e+001 -2.635992e+001 -4.228005e+001 -2.302218e+001 -9.248427e+000 -1.728744e+002
27001000000 -3.832206e+000 1.572847e+002 -4.257338e+001 -2.671324e+001 -4.249943e+001 -2.344510e+001 -9.053651e+000 -1.730979e+002
27019743750 -3.823241e+000 1.566706e+002 -4.265137e+001 -2.807680e+001 -4.242477e+001 -2.426018e+001 -8.872243e+000 -1.733846e+002
27038487500 -3.811396e+000 1.561011e+002 -4.275429e+001 -2.999527e+001 -4.244741e+001 -2.549120e+001 -8.691557e+000 -1.737100e+002
27057231250 -3.804298e+000 1.555575e+002 -4.304515e+001 -3.097836e+001 -4.272367e+001 -2.622696e+001 -8.516613e+000 -1.740930e+002
27075975000 -3.792643e+000 1.549810e+002 -4.314993e+001 -3.090063e+001 -4.285646e+001 -2.711387e+001 -8.352985e+000 -1.745128e+002
27094718750 -3.783391e+000 1.544407e+002 -4.321933e+001 -3.125408e+001 -4.314954e+001 -2.799532e+001 -8.193014e+000 -1.749995e+002
27113462500 -3.781073e+000 1.538873e+002 -4.342808e+001 -3.084841e+001 -4.319886e+001 -2.943721e+001 -8.030866e+000 -1.755042e+002
27132206250 -3.775861e+000 1.532887e+002 -4.368414e+001 -3.247717e+001 -4.329271e+001 -2.968523e+001 -7.886394e+000 -1.759777e+002
27150950000 -3.766334e+000 1.527373e+002 -4.359213e+001 -3.194435e+001 -4.327789e+001 -2.977326e+001 -7.739919e+000 -1.764807e+002
27169693750 -3.757556e+000 1.521917e+002 -4.375265e+001 -3.240130e+001 -4.334776e+001 -3.039239e+001 -7.596013e+000 -1.770175e+002
27188437500 -3.750758e+000 1.516457e+002 -4.370633e+001 -3.263138e+001 -4.343344e+001 -3.105725e+001 -7.461043e+000 -1.775633e+002
27207181250 -3.740857e+000 1.511312e+002 -4.377417e+001 -3.276263e+001 -4.341912e+001 -3.239447e+001 -7.326469e+000 -1.782009e+002
27225925000 -3.737424e+000 1.505697e+002 -4.367189e+001 -3.378397e+001 -4.352501e+001 -3.255251e+001 -7.194079e+000 -1.788167e+002
27244668750 -3.728780e+000 1.499843e+002 -4.377083e+001 -3.332232e+001 -4.352550e+001 -3.209887e+001 -7.068801e+000 -1.794426e+002
27263412500 -3.719336e+000 1.494101e+002 -4.377042e+001 -3.356592e+001 -4.358842e+001 -3.182759e+001 -6.949437e+000 1.799178e+002
27282156250 -3.710806e+000 1.488748e+002 -4.384804e+001 -3.426546e+001 -4.376141e+001 -3.138835e+001 -6.838750e+000 1.792383e+002
27300900000 -3.696890e+000 1.483115e+002 -4.401945e+001 -3.517292e+001 -4.372453e+001 -3.303812e+001 -6.730054e+000 1.785679e+002
27319643750 -3.685125e+000 1.477831e+002 -4.408371e+001 -3.573083e+001 -4.376966e+001 -3.319637e+001 -6.617000e+000 1.778620e+002
27338387500 -3.684748e+000 1.472075e+002 -4.392562e+001 -3.595008e+001 -4.376824e+001 -3.283382e+001 -6.506010e+000 1.771900e+002
27357131250 -3.678570e+000 1.466078e+002 -4.409208e+001 -3.791600e+001 -4.375798e+001 -3.451106e+001 -6.406695e+000 1.764851e+002
27375875000 -3.668213e+000 1.460572e+002 -4.416454e+001 -3.786702e+001 -4.404023e+001 -3.554882e+001 -6.300961e+000 1.757491e+002
27394618750 -3.666134e+000 1.454842e+002 -4.424055e+001 -3.965796e+001 -4.400125e+001 -3.651948e+001 -6.194208e+000 1.750589e+002
27413362500 -3.652430e+000 1.448901e+002 -4.441091e+001 -4.167423e+001 -4.426165e+001 -3.747266e+001 -6.104747e+000 1.743511e+002
27432106250 -3.649107e+000 1.443976e+002 -4.451985e+001 -4.056170e+001 -4.419536e+001 -3.989536e+001 -6.010554e+000 1.736014e+002
27450850000 -3.653821e+000 1.438382e+002 -4.454067e+001 -4.036755e+001 -4.423612e+001 -3.957444e+001 -5.920492e+000 1.728796e+002
27469593750 -3.645088e+000 1.432340e+002 -4.456498e+001 -4.179031e+001 -4.427151e+001 -4.004932e+001 -5.842026e+000 1.721535e+002
27488337500 -3.637649e+000 1.426590e+002 -4.434357e+001 -4.144077e+001 -4.408442e+001 -4.018839e+001 -5.759245e+000 1.713908e+002
27507081250 -3.632357e+000 1.421073e+002 -4.434051e+001 -4.192949e+001 -4.404621e+001 -4.045764e+001 -5.677859e+000 1.706823e+002
27525825000 -3.615608e+000 1.415800e+002 -4.444106e+001 -4.308144e+001 -4.397115e+001 -3.979802e+001 -5.605083e+000 1.699373e+002
27544568750 -3.611680e+000 1.410909e+002 -4.436533e+001 -4.475706e+001 -4.395035e+001 -3.977439e+001 -5.523680e+000 1.691918e+002
27563312500 -3.613259e+000 1.405400e+002 -4.428992e+001 -4.384594e+001 -4.412469e+001 -4.141376e+001 -5.441927e+000 1.684798e+002
27582056250 -3.603817e+000 1.399583e+002 -4.437141e+001 -4.474337e+001 -4.437720e+001 -4.151678e+001 -5.368190e+000 1.677204e+002
27600800000 -3.602341e+000 1.394080e+002 -4.441276e+001 -4.689037e+001 -4.430014e+001 -4.149226e+001 -5.292626e+000 1.669497e+002
27619543750 -3.592680e+000 1.388193e+002 -4.451669e+001 -4.753521e+001 -4.427395e+001 -4.175943e+001 -5.220116e+000 1.662179e+002
27638287500 -3.577961e+000 1.383142e+002 -4.442783e+001 -4.890762e+001 -4.436229e+001 -4.236600e+001 -5.155583e+000 1.654643e+002
27657031250 -3.577232e+000 1.378349e+002 -4.473438e+001 -4.913345e+001 -4.431744e+001 -4.260216e+001 -5.082675e+000 1.646936e+002
27675775000 -3.580432e+000 1.372460e+002 -4.478287e+001 -5.015812e+001 -4.462626e+001 -4.558857e+001 -5.020072e+000 1.639777e+002
27694518750 -3.571772e+000 1.366977e+002 -4.461453e+001 -5.029849e+001 -4.459661e+001 -4.583810e+001 -4.957736e+000 1.632137e+002
27713262500 -3.569112e+000 1.361532e+002 -4.471331e+001 -4.887122e+001 -4.447754e+001 -4.743926e+001 -4.888448e+000 1.624897e+002
27732006250 -3.564836e+000 1.355812e+002 -4.462270e+001 -4.900629e+001 -4.449061e+001 -4.709614e+001 -4.828788e+000 1.618044e+002
27750750000 -3.554009e+000 1.350631e+002 -4.449011e+001 -5.007623e+001 -4.470489e+001 -4.823594e+001 -4.776392e+000 1.610431e+002
27769493750 -3.558552e+000 1.345667e+002 -4.454590e+001 -5.071838e+001 -4.453388e+001 -4.890341e+001 -4.715693e+000 1.603064e+002
27788237500 -3.553469e+000 1.340001e+002 -4.459142e+001 -5.105132e+001 -4.448064e+001 -4.903607e+001 -4.661358e+000 1.596227e+002
27806981250 -3.546298e+000 1.334534e+002 -4.448032e+001 -5.203287e+001 -4.437931e+001 -4.850331e+001 -4.613824e+000 1.588643e+002
27825725000 -3.541888e+000 1.329280e+002 -4.429803e+001 -5.264729e+001 -4.430856e+001 -4.910991e+001 -4.560925e+000 1.581237e+002
27844468750 -3.530822e+000 1.323859e+002 -4.411177e+001 -5.108369e+001 -4.403931e+001 -4.993834e+001 -4.510448e+000 1.574093e+002
27863212500 -3.517164e+000 1.319031e+002 -4.403449e+001 -5.303569e+001 -4.402544e+001 -4.965303e+001 -4.460612e+000 1.566566e+002
27881956250 -3.516037e+000 1.314348e+002 -4.402953e+001 -5.367627e+001 -4.404258e+001 -5.103607e+001 -4.400712e+000 1.559453e+002
27900700000 -3.515331e+000 1.308570e+002 -4.383775e+001 -5.333593e+001 -4.398429e+001 -5.147741e+001 -4.347497e+000 1.552637e+002
27919443750 -3.509268e+000 1.303440e+002 -4.386415e+001 -5.523531e+001 -4.412107e+001 -5.197463e+001 -4.297723e+000 1.545490e+002
27938187500 -3.507809e+000 1.297953e+002 -4.381209e+001 -5.684074e+001 -4.420837e+001 -5.345114e+001 -4.247479e+000 1.538522e+002
27956931250 -3.501358e+000 1.292455e+002 -4.381817e+001 -5.745787e+001 -4.411969e+001 -5.577132e+001 -4.203106e+000 1.532096e+002
27975675000 -3.488153e+000 1.287826e+002 -4.390440e+001 -5.743399e+001 -4.410400e+001 -5.647081e+001 -4.161255e+000 1.524894e+002
27994418750 -3.492743e+000 1.282842e+002 -4.371743e+001 -5.792949e+001 -4.383392e+001 -5.694078e+001 -4.112251e+000 1.517864e+002
28013162500 -3.490939e+000 1.277339e+002 -4.375277e+001 -5.804025e+001 -4.361875e+001 -5.898869e+001 -4.070299e+000 1.511107e+002
28031906250 -3.482974e+000 1.272239e+002 -4.365105e+001 -5.778547e+001 -4.377020e+001 -5.948116e+001 -4.026697e+000 1.504211e+002
28050650000 -3.482794e+000 1.266522e+002 -4.362968e+001 -5.950574e+001 -4.369070e+001 -5.995389e+001 -3.982368e+000 1.497885e+002
28069393750 -3.477003e+000 1.260705e+002 -4.366944e+001 -6.075564e+001 -4.357861e+001 -5.963799e+001 -3.945521e+000 1.491706e+002
28088137500 -3.465806e+000 1.256101e+002 -4.336583e+001 -6.170937e+001 -4.356557e+001 -6.034063e+001 -3.909758e+000 1.485038e+002
28106881250 -3.469053e+000 1.251049e+002 -4.328873e+001 -6.338493e+001 -4.316785e+001 -6.039697e+001 -3.864881e+000 1.478706e+002
28125625000 -3.465868e+000 1.245467e+002 -4.331870e+001 -6.468488e+001 -4.314349e+001 -6.193556e+001 -3.830106e+000 1.472368e+002
28144368750 -3.462802e+000 1.240257e+002 -4.303173e+001 -6.658916e+001 -4.315048e+001 -6.203186e+001 -3.787881e+000 1.465577e+002
28163112500 -3.461928e+000 1.234821e+002 -4.303267e+001 -6.709660e+001 -4.318206e+001 -6.274679e+001 -3.743278e+000 1.459441e+002
28181856250 -3.451796e+000 1.229763e+002 -4.294569e+001 -6.769447e+001 -4.288537e+001 -6.446617e+001 -3.710328e+000 1.453558e+002
28200600000 -3.440885e+000 1.225714e+002 -4.292838e+001 -6.975024e+001 -4.284326e+001 -6.621759e+001 -3.674122e+000 1.447175e+002
28219343750 -3.447413e+000 1.220601e+002 -4.279651e+001 -7.021632e+001 -4.282281e+001 -6.732960e+001 -3.635362e+000 1.441193e+002
28238087500 -3.443558e+000 1.215196e+002 -4.276841e+001 -7.179779e+001 -4.277715e+001 -6.892292e+001 -3.599219e+000 1.435260e+002
28256831250 -3.439748e+000 1.210234e+002 -4.282305e+001 -7.258617e+001 -4.280106e+001 -7.043147e+001 -3.561229e+000 1.429460e+002
28275575000 -3.440739e+000 1.204666e+002 -4.290504e+001 -7.471986e+001 -4.291181e+001 -7.111146e+001 -3.526493e+000 1.423941e+002
28294318750 -3.427467e+000 1.199668e+002 -4.286542e+001 -7.699635e+001 -4.317937e+001 -7.186544e+001 -3.501015e+000 1.418200e+002
28313062500 -3.426697e+000 1.195255e+002 -4.293890e+001 -7.816960e+001 -4.315456e+001 -7.375414e+001 -3.475228e+000 1.412358e+002
28331806250 -3.434463e+000 1.190542e+002 -4.312320e+001 -7.834588e+001 -4.311637e+001 -7.534099e+001 -3.445806e+000 1.406432e+002
28350550000 -3.431879e+000 1.185437e+002 -4.322728e+001 -7.808865e+001 -4.322193e+001 -7.841219e+001 -3.419569e+000 1.400558e+002
28369293750 -3.438634e+000 1.180314e+002 -4.335575e+001 -7.827423e+001 -4.312079e+001 -7.884370e+001 -3.383917e+000 1.394994e+002
28388037500 -3.433229e+000 1.174633e+002 -4.330518e+001 -7.838763e+001 -4.330867e+001 -7.877484e+001 -3.355856e+000 1.389693e+002
28406781250 -3.421381e+000 1.169742e+002 -4.334697e+001 -7.901450e+001 -4.348782e+001 -7.962321e+001 -3.334783e+000 1.384355e+002
28425525000 -3.415559e+000 1.165698e+002 -4.338571e+001 -8.017101e+001 -4.353332e+001 -8.029036e+001 -3.310915e+000 1.378652e+002
28444268750 -3.419779e+000 1.160900e+002 -4.333955e+001 -8.110316e+001 -4.361544e+001 -8.031947e+001 -3.287641e+000 1.373345e+002
28463012500 -3.421002e+000 1.156156e+002 -4.344584e+001 -8.208372e+001 -4.350694e+001 -8.058614e+001 -3.263546e+000 1.367881e+002
28481756250 -3.422600e+000 1.151844e+002 -4.344245e+001 -8.244836e+001 -4.351935e+001 -8.220457e+001 -3.232951e+000 1.362218e+002
28500500000 -3.417191e+000 1.146713e+002 -4.344305e+001 -8.199603e+001 -4.360754e+001 -8.398432e+001 -3.205961e+000 1.357222e+002
28519243750 -3.408525e+000 1.142368e+002 -4.365896e+001 -8.111420e+001 -4.354415e+001 -8.440875e+001 -3.185380e+000 1.352005e+002
28537987500 -3.406914e+000 1.138659e+002 -4.372531e+001 -8.071185e+001 -4.387232e+001 -8.359216e+001 -3.165509e+000 1.346815e+002
28556731250 -3.410769e+000 1.133960e+002 -4.376365e+001 -8.037151e+001 -4.383664e+001 -8.370132e+001 -3.142743e+000 1.341581e+002
28575475000 -3.407323e+000 1.129279e+002 -4.389034e+001 -8.081996e+001 -4.382653e+001 -8.427306e+001 -3.126790e+000 1.336033e+002
28594218750 -3.410074e+000 1.124443e+002 -4.383552e+001 -8.227475e+001 -4.360437e+001 -8.537254e+001 -3.104583e+000 1.330727e+002
28612962500 -3.406604e+000 1.118970e+002 -4.378202e+001 -8.343372e+001 -4.372215e+001 -8.638416e+001 -3.083096e+000 1.325618e+002
28631706250 -3.393675e+000 1.114605e+002 -4.371872e+001 -8.330289e+001 -4.375010e+001 -8.690347e+001 -3.064712e+000 1.320327e+002
28650450000 -3.395981e+000 1.110436e+002 -4.376790e+001 -8.501054e+001 -4.387281e+001 -8.746319e+001 -3.046363e+000 1.315033e+002
28669193750 -3.398877e+000 1.105961e+002 -4.375906e+001 -8.507976e+001 -4.385089e+001 -8.754392e+001 -3.028536e+000 1.309885e+002
28687937500 -3.397628e+000 1.101390e+002 -4.374808e+001 -8.606168e+001 -4.388071e+001 -8.842887e+001 -3.011844e+000 1.304271e+002
28706681250 -3.402796e+000 1.096704e+002 -4.362893e+001 -8.661653e+001 -4.382594e+001 -8.938175e+001 -2.989870e+000 1.299053e+002
28725425000 -3.397501e+000 1.091549e+002 -4.365821e+001 -8.643777e+001 -4.357922e+001 -9.142369e+001 -2.972343e+000 1.294300e+002
28744168750 -3.385567e+000 1.087311e+002 -4.363292e+001 -8.633350e+001 -4.345736e+001 -9.127326e+001 -2.955493e+000 1.289320e+002
28762912500 -3.387204e+000 1.083263e+002 -4.351992e+001 -8.756795e+001 -4.351332e+001 -9.239882e+001 -2.940449e+000 1.284248e+002
28781656250 -3.388092e+000 1.078680e+002 -4.340836e+001 -8.839326e+001 -4.346273e+001 -9.109570e+001 -2.925833e+000 1.279084e+002
28800400000 -3.384057e+000 1.074438e+002 -4.331237e+001 -8.991532e+001 -4.340626e+001 -9.218000e+001 -2.913490e+000 1.273709e+002
28819143750 -3.390985e+000 1.069685e+002 -4.335025e+001 -9.143245e+001 -4.329689e+001 -9.434029e+001 -2.893176e+000 1.268565e+002
28837887500 -3.384198e+000 1.064633e+002 -4.319548e+001 -9.306229e+001 -4.320981e+001 -9.458913e+001 -2.878697e+000 1.263791e+002
28856631250 -3.380601e+000 1.060185e+002 -4.325180e+001 -9.447133e+001 -4.321133e+001 -9.469637e+001 -2.871567e+000 1.259017e+002
28875375000 -3.385329e+000 1.055755e+002 -4.331822e+001 -9.610063e+001 -4.316496e+001 -9.563168e+001 -2.861684e+000 1.253876e+002
28894118750 -3.383309e+000 1.051044e+002 -4.322598e+001 -9.734301e+001 -4.311994e+001 -9.693254e+001 -2.855168e+000 1.248559e+002
28912862500 -3.385934e+000 1.046205e+002 -4.324862e+001 -9.800048e+001 -4.311454e+001 -9.744644e+001 -2.845180e+000 1.243496e+002
28931606250 -3.387561e+000 1.041240e+002 -4.318732e+001 -9.928220e+001 -4.323182e+001 -9.913499e+001 -2.833504e+000 1.238214e+002
28950350000 -3.377246e+000 1.036140e+002 -4.313411e+001 -1.003744e+002 -4.320150e+001 -1.017958e+002 -2.823811e+000 1.233335e+002
28969093750 -3.371225e+000 1.031758e+002 -4.315448e+001 -1.019741e+002 -4.322808e+001 -1.043963e+002 -2.812927e+000 1.228287e+002
28987837500 -3.373363e+000 1.027741e+002 -4.308778e+001 -1.050998e+002 -4.331755e+001 -1.051405e+002 -2.809789e+000 1.223499e+002
29006581250 -3.375331e+000 1.023355e+002 -4.323236e+001 -1.063274e+002 -4.326620e+001 -1.063044e+002 -2.807779e+000 1.218788e+002
29025325000 -3.379029e+000 1.018857e+002 -4.327159e+001 -1.074222e+002 -4.351348e+001 -1.078063e+002 -2.804223e+000 1.213367e+002
29044068750 -3.378417e+000 1.013790e+002 -4.331253e+001 -1.077194e+002 -4.330181e+001 -1.075659e+002 -2.796781e+000 1.208526e+002
29062812500 -3.370930e+000 1.008499e+002 -4.333278e+001 -1.081621e+002 -4.340050e+001 -1.075318e+002 -2.794143e+000 1.203771e+002
29081556250 -3.368333e+000 1.004385e+002 -4.335883e+001 -1.087758e+002 -4.344398e+001 -1.083177e+002 -2.791828e+000 1.198722e+002
29100300000 -3.368252e+000 9.999397e+001 -4.348272e+001 -1.095750e+002 -4.337040e+001 -1.099702e+002 -2.791009e+000 1.193659e+002
29119043750 -3.375628e+000 9.953922e+001 -4.339324e+001 -1.095919e+002 -4.352228e+001 -1.095854e+002 -2.792167e+000 1.188323e+002
29137787500 -3.383844e+000 9.905097e+001 -4.332594e+001 -1.099762e+002 -4.361569e+001 -1.103385e+002 -2.787745e+000 1.183022e+002
29156531250 -3.389137e+000 9.850368e+001 -4.328183e+001 -1.106362e+002 -4.347757e+001 -1.100107e+002 -2.782053e+000 1.177991e+002
29175275000 -3.382137e+000 9.799051e+001 -4.323499e+001 -1.122279e+002 -4.343665e+001 -1.102131e+002 -2.784199e+000 1.173018e+002
29194018750 -3.378074e+000 9.754133e+001 -4.319202e+001 -1.129002e+002 -4.335524e+001 -1.112053e+002 -2.786621e+000 1.168021e+002
29212762500 -3.377559e+000 9.708016e+001 -4.311090e+001 -1.138598e+002 -4.319628e+001 -1.123893e+002 -2.790909e+000 1.162835e+002
29231506250 -3.379003e+000 9.661454e+001 -4.298689e+001 -1.139289e+002 -4.307276e+001 -1.139735e+002 -2.795345e+000 1.157457e+002
29250250000 -3.389707e+000 9.614329e+001 -4.293892e+001 -1.147515e+002 -4.291360e+001 -1.143494e+002 -2.797117e+000 1.151630e+002
29268993750 -3.394909e+000 9.559464e+001 -4.292960e+001 -1.150432e+002 -4.270012e+001 -1.156293e+002 -2.796453e+000 1.146278e+002
29287737500 -3.387629e+000 9.510130e+001 -4.292535e+001 -1.150925e+002 -4.259612e+001 -1.168308e+002 -2.796042e+000 1.141340e+002
29306481250 -3.390702e+000 9.466866e+001 -4.281087e+001 -1.160731e+002 -4.258056e+001 -1.178683e+002 -2.798057e+000 1.136205e+002
29325225000 -3.393266e+000 9.421069e+001 -4.272933e+001 -1.164385e+002 -4.261461e+001 -1.190624e+002 -2.801484e+000 1.130927e+002
29343968750 -3.405950e+000 9.377148e+001 -4.256885e+001 -1.179191e+002 -4.252425e+001 -1.197429e+002 -2.808022e+000 1.125405e+002
29362712500 -3.421724e+000 9.326914e+001 -4.246053e+001 -1.193600e+002 -4.230331e+001 -1.196891e+002 -2.810435e+000 1.119836e+002
29381456250 -3.427096e+000 9.270115e+001 -4.232507e+001 -1.209160e+002 -4.224457e+001 -1.202313e+002 -2.813521e+000 1.114314e+002
29400200000 -3.430226e+000 9.222066e+001 -4.231847e+001 -1.217316e+002 -4.188149e+001 -1.209205e+002 -2.821576e+000 1.108933e+002
29418943750 -3.439770e+000 9.173454e+001 -4.226886e+001 -1.216089e+002 -4.178745e+001 -1.219650e+002 -2.821347e+000 1.103280e+002
29437687500 -3.450931e+000 9.127113e+001 -4.192617e+001 -1.226109e+002 -4.187788e+001 -1.230443e+002 -2.823173e+000 1.097836e+002
29456431250 -3.467349e+000 9.083841e+001 -4.185192e+001 -1.233098e+002 -4.170756e+001 -1.239422e+002 -2.831928e+000 1.092425e+002
29475175000 -3.492297e+000 9.033360e+001 -4.181923e+001 -1.247198e+002 -4.172776e+001 -1.252996e+002 -2.831619e+000 1.086810e+002
29493918750 -3.505457e+000 8.981123e+001 -4.176956e+001 -1.263712e+002 -4.148177e+001 -1.270876e+002 -2.836423e+000 1.081486e+002
29512662500 -3.513426e+000 8.934568e+001 -4.164585e+001 -1.275502e+002 -4.133046e+001 -1.281239e+002 -2.848545e+000 1.075940e+002
29531406250 -3.529815e+000 8.889456e+001 -4.154522e+001 -1.288676e+002 -4.133821e+001 -1.291259e+002 -2.856291e+000 1.070152e+002
29550150000 -3.543348e+000 8.849976e+001 -4.146033e+001 -1.307755e+002 -4.107846e+001 -1.313868e+002 -2.863607e+000 1.064554e+002
29568893750 -3.567254e+000 8.810267e+001 -4.152792e+001 -1.324374e+002 -4.080124e+001 -1.325837e+002 -2.873483e+000 1.058643e+002
29587637500 -3.590808e+000 8.762231e+001 -4.138392e+001 -1.350239e+002 -4.075148e+001 -1.339037e+002 -2.878517e+000 1.052612e+002
29606381250 -3.604781e+000 8.717242e+001 -4.116144e+001 -1.363512e+002 -4.070646e+001 -1.362266e+002 -2.883507e+000 1.047068e+002
29625125000 -3.623247e+000 8.677184e+001 -4.114784e+001 -1.381814e+002 -4.069383e+001 -1.383009e+002 -2.891760e+000 1.041278e+002
29643868750 -3.642257e+000 8.639235e+001 -4.114638e+001 -1.401188e+002 -4.064140e+001 -1.399823e+002 -2.899153e+000 1.035739e+002
29662612500 -3.664358e+000 8.604332e+001 -4.113423e+001 -1.423402e+002 -4.062849e+001 -1.415657e+002 -2.910230e+000 1.030089e+002
29681356250 -3.695566e+000 8.567479e+001 -4.106502e+001 -1.443365e+002 -4.055257e+001 -1.431306e+002 -2.924025e+000 1.024528e+002
29700100000 -3.727515e+000 8.524081e+001 -4.100954e+001 -1.472750e+002 -4.063297e+001 -1.450959e+002 -2.931115e+000 1.018641e+002
29718843750 -3.750883e+000 8.484795e+001 -4.091651e+001 -1.498197e+002 -4.059475e+001 -1.475282e+002 -2.939813e+000 1.012935e+002
29737587500 -3.770284e+000 8.451228e+001 -4.082128e+001 -1.522643e+002 -4.049839e+001 -1.499737e+002 -2.952838e+000 1.007036e+002
29756331250 -3.797865e+000 8.419274e+001 -4.085577e+001 -1.552325e+002 -4.053553e+001 -1.522128e+002 -2.965224e+000 1.001606e+002
29775075000 -3.819525e+000 8.394275e+001 -4.095188e+001 -1.571485e+002 -4.073812e+001 -1.542213e+002 -2.984868e+000 9.963862e+001
29793818750 -3.853468e+000 8.368727e+001 -4.096695e+001 -1.593009e+002 -4.066271e+001 -1.569821e+002 -2.999404e+000 9.908911e+001
29812562500 -3.900713e+000 8.340730e+001 -4.089910e+001 -1.619849e+002 -4.066832e+001 -1.587816e+002 -3.010441e+000 9.856824e+001
29831306250 -3.935902e+000 8.305956e+001 -4.074155e+001 -1.646364e+002 -4.067593e+001 -1.614196e+002 -3.019479e+000 9.806796e+001
29850050000 -3.966558e+000 8.278748e+001 -4.072155e+001 -1.673411e+002 -4.064994e+001 -1.644685e+002 -3.033937e+000 9.762328e+001
29868793750 -3.996874e+000 8.250388e+001 -4.072921e+001 -1.698072e+002 -4.052132e+001 -1.671237e+002 -3.047769e+000 9.718609e+001
29887537500 -4.017033e+000 8.226804e+001 -4.066059e+001 -1.722066e+002 -4.042965e+001 -1.694239e+002 -3.057197e+000 9.675175e+001
29906281250 -4.044681e+000 8.215017e+001 -4.062694e+001 -1.742676e+002 -4.040495e+001 -1.718280e+002 -3.072717e+000 9.633286e+001
29925025000 -4.083489e+000 8.196674e+001 -4.059291e+001 -1.760227e+002 -4.045893e+001 -1.736434e+002 -3.081903e+000 9.593054e+001
29943768750 -4.111422e+000 8.175030e+001 -4.052674e+001 -1.778172e+002 -4.046257e+001 -1.759501e+002 -3.083045e+000 9.558812e+001
29962512500 -4.137377e+000 8.157687e+001 -4.041940e+001 -1.796527e+002 -4.040337e+001 -1.779037e+002 -3.092067e+000 9.531660e+001
29981256250 -4.157286e+000 8.135258e+001 -4.044520e+001 1.788090e+002 -4.043641e+001 -1.794702e+002 -3.103291e+000 9.505132e+001
30000000000 -4.166478e+000 8.124476e+001 -4.033420e+001 1.771344e+002 -4.051564e+001 1.781562e+002 -3.112540e+000 9.479794e+001
