!Agilent Technologies,E8364B,MY43040894,A.07.50.67
!Agilent E8364B: A.07.50.67
!Date: Tuesday, May 12, 2020 09:52:18
!Correction: S11(Full 2 Port(1,2)) 
!S21(Full 2 Port(1,2)) 
!S12(Full 2 Port(1,2)) 
!S22(Full 2 Port(1,2)) 
!S2P File: Measurements: S11, S21, S12, S22:
# Hz S  dB   R 50
10000000 -2.025492e-001 -6.127663e+000 -5.843961e+001 -1.120409e+002 -5.129476e+001 6.708030e+000 6.428952e-003 -1.632367e+000
28743750 -2.119172e-001 -6.901974e+000 -5.831168e+001 -1.038227e+002 -5.181301e+001 1.337376e+000 3.018895e-003 -1.941032e+000
47487500 -2.230897e-001 -7.763566e+000 -5.806277e+001 -9.729825e+001 -5.255457e+001 1.947150e+000 -1.136663e-003 -2.287781e+000
66231250 -2.325183e-001 -8.672870e+000 -5.785422e+001 -9.356292e+001 -5.285648e+001 6.989830e-002 -6.080503e-003 -2.643901e+000
84975000 -2.442079e-001 -9.667347e+000 -5.775227e+001 -8.581855e+001 -5.337000e+001 1.274207e+000 -1.130746e-002 -3.045585e+000
103718750 -2.573489e-001 -1.072075e+001 -5.778602e+001 -8.462003e+001 -5.415458e+001 -4.854217e+000 -1.367283e-002 -3.465356e+000
122462500 -2.718156e-001 -1.182338e+001 -5.756419e+001 -8.074696e+001 -5.521104e+001 -1.221481e+001 -1.537425e-002 -3.890103e+000
141206250 -2.869447e-001 -1.300501e+001 -5.751498e+001 -7.712658e+001 -5.589791e+001 -1.378883e+001 -1.778038e-002 -4.343282e+000
159950000 -3.042687e-001 -1.424786e+001 -5.770255e+001 -7.773759e+001 -5.661538e+001 -1.834360e+001 -1.965821e-002 -4.825848e+000
178693750 -3.213153e-001 -1.556279e+001 -5.768169e+001 -7.715285e+001 -5.783994e+001 -1.955946e+001 -2.210456e-002 -5.331678e+000
197437500 -3.375509e-001 -1.693171e+001 -5.806519e+001 -6.894147e+001 -5.844788e+001 -2.119676e+001 -2.389962e-002 -5.861020e+000
216181250 -3.573615e-001 -1.835431e+001 -5.804034e+001 -6.356228e+001 -5.912558e+001 -2.327339e+001 -2.449055e-002 -6.410772e+000
234925000 -3.763067e-001 -1.984407e+001 -5.822299e+001 -5.768049e+001 -5.987206e+001 -2.486998e+001 -2.419439e-002 -6.994315e+000
253668750 -3.947837e-001 -2.136240e+001 -5.830185e+001 -4.699227e+001 -5.942398e+001 -2.882458e+001 -1.977164e-002 -7.537829e+000
272412500 -4.139062e-001 -2.284053e+001 -5.917638e+001 -3.656373e+001 -5.992980e+001 -3.146020e+001 -1.492282e-002 -8.065394e+000
291156250 -4.324213e-001 -2.434908e+001 -5.959268e+001 -2.701459e+001 -6.042258e+001 -3.714642e+001 -1.243538e-002 -8.598011e+000
309900000 -4.531290e-001 -2.584927e+001 -5.991378e+001 -2.730224e+001 -6.099609e+001 -3.907187e+001 -7.816377e-003 -9.140930e+000
328643750 -4.719616e-001 -2.731927e+001 -6.014143e+001 -2.628046e+001 -6.064047e+001 -3.701937e+001 -1.506242e-003 -9.661511e+000
347387500 -4.926564e-001 -2.880639e+001 -6.049319e+001 -2.854427e+001 -6.181003e+001 -3.758400e+001 3.514672e-003 -1.021441e+001
366131250 -5.117094e-001 -3.026758e+001 -6.095552e+001 -3.053538e+001 -6.228119e+001 -3.852203e+001 8.629753e-003 -1.073347e+001
384875000 -5.343392e-001 -3.172280e+001 -6.103550e+001 -3.408464e+001 -6.260403e+001 -3.700167e+001 1.137985e-002 -1.126091e+001
403618750 -5.561923e-001 -3.319580e+001 -6.086516e+001 -3.588431e+001 -6.351395e+001 -3.932346e+001 1.520795e-002 -1.179505e+001
422362500 -5.764318e-001 -3.463970e+001 -6.080304e+001 -3.538400e+001 -6.432263e+001 -4.904128e+001 1.967726e-002 -1.232401e+001
441106250 -5.991942e-001 -3.607071e+001 -6.102736e+001 -3.952327e+001 -6.477573e+001 -6.500542e+001 2.335613e-002 -1.285949e+001
459850000 -6.216345e-001 -3.752333e+001 -6.137252e+001 -4.239571e+001 -6.524644e+001 -7.436919e+001 2.719368e-002 -1.341038e+001
478593750 -6.410344e-001 -3.895294e+001 -6.153310e+001 -4.393026e+001 -6.509171e+001 -9.015516e+001 3.221946e-002 -1.394183e+001
497337500 -6.636897e-001 -4.038673e+001 -6.170617e+001 -4.368869e+001 -6.555797e+001 -1.061225e+002 3.789032e-002 -1.448842e+001
516081250 -6.870902e-001 -4.178535e+001 -6.230989e+001 -4.512702e+001 -6.582161e+001 -1.285331e+002 4.343482e-002 -1.502188e+001
534825000 -7.081116e-001 -4.318978e+001 -6.250324e+001 -4.239059e+001 -6.570145e+001 -1.410896e+002 4.513166e-002 -1.555417e+001
553568750 -7.291497e-001 -4.460293e+001 -6.269503e+001 -4.091508e+001 -6.554319e+001 -1.529534e+002 4.614476e-002 -1.610128e+001
572312500 -7.490506e-001 -4.600183e+001 -6.292015e+001 -3.747116e+001 -6.551074e+001 -1.701385e+002 4.823073e-002 -1.664777e+001
591056250 -7.679070e-001 -4.740293e+001 -6.324554e+001 -3.141674e+001 -6.564230e+001 1.747243e+002 4.914395e-002 -1.719660e+001
609800000 -7.893566e-001 -4.878638e+001 -6.350017e+001 -2.871679e+001 -6.540191e+001 1.638717e+002 5.147677e-002 -1.774289e+001
628543750 -8.112848e-001 -5.017001e+001 -6.368043e+001 -2.986207e+001 -6.565907e+001 1.465169e+002 5.368338e-002 -1.829569e+001
647287500 -8.311796e-001 -5.156739e+001 -6.377845e+001 -2.914948e+001 -6.576003e+001 1.303484e+002 5.327390e-002 -1.884843e+001
666031250 -8.516086e-001 -5.295140e+001 -6.393623e+001 -3.172501e+001 -6.579907e+001 1.121281e+002 5.134917e-002 -1.940623e+001
684775000 -8.743736e-001 -5.431112e+001 -6.435505e+001 -3.211753e+001 -6.577895e+001 9.712241e+001 4.775629e-002 -1.995161e+001
703518750 -8.960022e-001 -5.569733e+001 -6.416226e+001 -3.197064e+001 -6.580788e+001 8.543118e+001 4.652602e-002 -2.050244e+001
722262500 -9.170797e-001 -5.705251e+001 -6.438780e+001 -3.119843e+001 -6.601926e+001 7.707201e+001 4.656709e-002 -2.105787e+001
741006250 -9.390447e-001 -5.840587e+001 -6.431808e+001 -2.716943e+001 -6.580592e+001 6.241715e+001 4.435897e-002 -2.160085e+001
759750000 -9.612495e-001 -5.976982e+001 -6.484633e+001 -2.501943e+001 -6.617134e+001 4.399829e+001 4.138596e-002 -2.216646e+001
778493750 -9.800191e-001 -6.110996e+001 -6.464675e+001 -2.052523e+001 -6.574631e+001 2.163154e+001 3.779477e-002 -2.272550e+001
797237500 -1.002029e+000 -6.246951e+001 -6.497619e+001 -1.843737e+001 -6.576362e+001 4.671049e+000 3.365454e-002 -2.329753e+001
815981250 -1.022066e+000 -6.382458e+001 -6.532986e+001 -1.649991e+001 -6.560635e+001 -1.367698e+001 3.059020e-002 -2.386449e+001
834725000 -1.041494e+000 -6.514320e+001 -6.525671e+001 -1.746134e+001 -6.527156e+001 -3.368188e+001 2.763981e-002 -2.442574e+001
853468750 -1.061374e+000 -6.646726e+001 -6.526137e+001 -1.225582e+001 -6.506784e+001 -3.978035e+001 2.354893e-002 -2.498219e+001
872212500 -1.080325e+000 -6.781295e+001 -6.538754e+001 -1.082692e+001 -6.505626e+001 -3.569489e+001 1.748537e-002 -2.555536e+001
890956250 -1.099768e+000 -6.913584e+001 -6.534652e+001 -1.403089e+001 -6.480808e+001 -2.652693e+001 1.254712e-002 -2.612439e+001
909700000 -1.119893e+000 -7.045781e+001 -6.562618e+001 -1.464413e+001 -6.493372e+001 -1.609288e+001 5.781981e-003 -2.669953e+001
928443750 -1.139443e+000 -7.177977e+001 -6.599924e+001 -1.450462e+001 -6.498882e+001 -1.884196e+000 -8.623770e-005 -2.726596e+001
947187500 -1.158227e+000 -7.309805e+001 -6.566277e+001 -1.955734e+001 -6.525407e+001 1.932785e+001 -5.206270e-003 -2.782333e+001
965931250 -1.178259e+000 -7.442715e+001 -6.540194e+001 -2.164252e+001 -6.518345e+001 3.589268e+001 -9.458101e-003 -2.839460e+001
984675000 -1.197790e+000 -7.574837e+001 -6.594991e+001 -2.449717e+001 -6.537228e+001 5.157504e+001 -1.684354e-002 -2.897402e+001
1003418750 -1.218903e+000 -7.704926e+001 -6.631825e+001 -2.244153e+001 -6.653444e+001 6.825291e+001 -2.193312e-002 -2.954655e+001
1022162500 -1.238244e+000 -7.835260e+001 -6.610253e+001 -2.513523e+001 -6.650181e+001 8.754963e+001 -2.907509e-002 -3.010928e+001
1040906250 -1.255618e+000 -7.964751e+001 -6.607681e+001 -2.277102e+001 -6.644204e+001 9.582471e+001 -3.624208e-002 -3.067145e+001
1059650000 -1.275589e+000 -8.093501e+001 -6.557664e+001 -2.608948e+001 -6.630486e+001 1.110139e+002 -4.376755e-002 -3.121811e+001
1078393750 -1.295007e+000 -8.220939e+001 -6.561290e+001 -2.686479e+001 -6.606608e+001 1.266951e+002 -5.113764e-002 -3.178553e+001
1097137500 -1.316984e+000 -8.348625e+001 -6.559146e+001 -2.543740e+001 -6.618713e+001 1.476213e+002 -5.617492e-002 -3.232730e+001
1115881250 -1.337534e+000 -8.476740e+001 -6.575416e+001 -2.353230e+001 -6.634648e+001 1.630047e+002 -5.958607e-002 -3.289342e+001
1134625000 -1.356951e+000 -8.605109e+001 -6.569630e+001 -2.351302e+001 -6.633293e+001 1.769386e+002 -6.573824e-002 -3.346501e+001
1153368750 -1.375714e+000 -8.732055e+001 -6.553027e+001 -2.656453e+001 -6.655548e+001 -1.692146e+002 -7.241392e-002 -3.403636e+001
1172112500 -1.395535e+000 -8.857882e+001 -6.582756e+001 -3.414287e+001 -6.656972e+001 -1.551644e+002 -7.930093e-002 -3.460570e+001
1190856250 -1.414436e+000 -8.983388e+001 -6.558219e+001 -4.972242e+001 -6.695442e+001 -1.463533e+002 -8.483016e-002 -3.516941e+001
1209600000 -1.433261e+000 -9.108381e+001 -6.561896e+001 -6.714353e+001 -6.662230e+001 -1.272211e+002 -9.046289e-002 -3.572123e+001
1228343750 -1.451705e+000 -9.234866e+001 -6.511729e+001 -8.253131e+001 -6.677168e+001 -1.059454e+002 -9.535504e-002 -3.627738e+001
1247087500 -1.470694e+000 -9.359930e+001 -6.502864e+001 -9.965223e+001 -6.719585e+001 -9.258580e+001 -1.000717e-001 -3.683702e+001
1265831250 -1.489294e+000 -9.485909e+001 -6.536132e+001 -1.126293e+002 -6.714941e+001 -7.282468e+001 -1.031252e-001 -3.738175e+001
1284575000 -1.508720e+000 -9.609898e+001 -6.521928e+001 -1.333705e+002 -6.700009e+001 -6.088734e+001 -1.070704e-001 -3.794584e+001
1303318750 -1.527960e+000 -9.732459e+001 -6.534255e+001 -1.498044e+002 -6.671805e+001 -5.142814e+001 -1.102457e-001 -3.849495e+001
1322062500 -1.546803e+000 -9.855741e+001 -6.540166e+001 -1.652392e+002 -6.698072e+001 -4.883677e+001 -1.125055e-001 -3.904029e+001
1340806250 -1.564943e+000 -9.977016e+001 -6.541460e+001 1.769086e+002 -6.682092e+001 -4.660962e+001 -1.144858e-001 -3.958465e+001
1359550000 -1.583151e+000 -1.009920e+002 -6.543232e+001 1.627374e+002 -6.701018e+001 -4.736771e+001 -1.155746e-001 -4.013811e+001
1378293750 -1.602058e+000 -1.022383e+002 -6.566154e+001 1.444636e+002 -6.701299e+001 -4.951736e+001 -1.182313e-001 -4.069304e+001
1397037500 -1.620580e+000 -1.034552e+002 -6.607134e+001 1.274833e+002 -6.724136e+001 -5.285798e+001 -1.213949e-001 -4.125471e+001
1415781250 -1.640999e+000 -1.046719e+002 -6.583196e+001 1.149127e+002 -6.725661e+001 -5.356147e+001 -1.212544e-001 -4.179369e+001
1434525000 -1.659636e+000 -1.058703e+002 -6.530065e+001 9.348943e+001 -6.597201e+001 -6.066291e+001 -1.235981e-001 -4.234557e+001
1453268750 -1.678582e+000 -1.070692e+002 -6.514532e+001 7.954238e+001 -6.569671e+001 -6.211885e+001 -1.235680e-001 -4.288845e+001
1472012500 -1.697651e+000 -1.082611e+002 -6.547477e+001 6.126329e+001 -6.537814e+001 -6.128091e+001 -1.234027e-001 -4.342988e+001
1490756250 -1.715869e+000 -1.094780e+002 -6.590833e+001 4.435087e+001 -6.613082e+001 -5.833015e+001 -1.222447e-001 -4.398217e+001
1509500000 -1.734676e+000 -1.106948e+002 -6.589162e+001 2.562033e+001 -6.606660e+001 -6.362222e+001 -1.203944e-001 -4.453816e+001
1528243750 -1.752660e+000 -1.118956e+002 -6.573363e+001 4.860544e+000 -6.585952e+001 -7.208834e+001 -1.202409e-001 -4.509586e+001
1546987500 -1.770475e+000 -1.130789e+002 -6.572478e+001 -1.741474e+001 -6.581775e+001 -7.136241e+001 -1.224753e-001 -4.564449e+001
1565731250 -1.789858e+000 -1.142563e+002 -6.595047e+001 -3.664316e+001 -6.555805e+001 -6.769414e+001 -1.220670e-001 -4.618517e+001
1584475000 -1.806404e+000 -1.154404e+002 -6.607782e+001 -5.709145e+001 -6.494775e+001 -7.057925e+001 -1.200211e-001 -4.671022e+001
1603218750 -1.822574e+000 -1.166249e+002 -6.607814e+001 -6.786353e+001 -6.483598e+001 -7.322752e+001 -1.158268e-001 -4.724708e+001
1621962500 -1.842562e+000 -1.178102e+002 -6.574828e+001 -7.205317e+001 -6.432461e+001 -6.978793e+001 -1.119914e-001 -4.779869e+001
1640706250 -1.862857e+000 -1.190075e+002 -6.631384e+001 -6.698049e+001 -6.449271e+001 -7.201245e+001 -1.091937e-001 -4.834947e+001
1659450000 -1.882881e+000 -1.201578e+002 -6.643510e+001 -6.917385e+001 -6.424402e+001 -7.882703e+001 -1.074167e-001 -4.890595e+001
1678193750 -1.902065e+000 -1.213174e+002 -6.652649e+001 -6.988538e+001 -6.462753e+001 -7.679401e+001 -1.051309e-001 -4.944699e+001
1696937500 -1.919014e+000 -1.224666e+002 -6.624573e+001 -7.269653e+001 -6.456400e+001 -8.094229e+001 -1.042732e-001 -4.999175e+001
1715681250 -1.936455e+000 -1.236345e+002 -6.662057e+001 -7.638418e+001 -6.440920e+001 -9.249378e+001 -1.008529e-001 -5.052815e+001
1734425000 -1.953891e+000 -1.248070e+002 -6.638085e+001 -7.751634e+001 -6.406036e+001 -1.057933e+002 -9.586401e-002 -5.105450e+001
1753168750 -1.971277e+000 -1.259720e+002 -6.681092e+001 -7.825071e+001 -6.391326e+001 -1.207488e+002 -9.523184e-002 -5.161016e+001
1771912500 -1.990266e+000 -1.271337e+002 -6.670712e+001 -8.122395e+001 -6.462031e+001 -1.386805e+002 -9.269080e-002 -5.216230e+001
1790656250 -2.011473e+000 -1.282899e+002 -6.630353e+001 -8.999559e+001 -6.436659e+001 -1.517657e+002 -9.413456e-002 -5.269448e+001
1809400000 -2.028656e+000 -1.294193e+002 -6.612228e+001 -9.619929e+001 -6.479954e+001 -1.668481e+002 -9.227341e-002 -5.323358e+001
1828143750 -2.044375e+000 -1.305547e+002 -6.573074e+001 -1.075403e+002 -6.446105e+001 1.794933e+002 -8.852071e-002 -5.374160e+001
1846887500 -2.056914e+000 -1.316944e+002 -6.562342e+001 -1.260842e+002 -6.421786e+001 1.638039e+002 -8.472096e-002 -5.427878e+001
1865631250 -2.072903e+000 -1.328580e+002 -6.626835e+001 -1.454613e+002 -6.444624e+001 1.511084e+002 -8.199482e-002 -5.481816e+001
1884375000 -2.090894e+000 -1.340108e+002 -6.627179e+001 -1.676526e+002 -6.441605e+001 1.314981e+002 -7.930294e-002 -5.536629e+001
1903118750 -2.110180e+000 -1.351468e+002 -6.608942e+001 1.675078e+002 -6.448382e+001 1.080777e+002 -8.030608e-002 -5.591422e+001
1921862500 -2.129079e+000 -1.362636e+002 -6.571756e+001 1.376598e+002 -6.375395e+001 7.832819e+001 -8.083750e-002 -5.646109e+001
1940606250 -2.145170e+000 -1.373719e+002 -6.574889e+001 1.095594e+002 -6.449503e+001 5.853820e+001 -7.863524e-002 -5.698317e+001
1959350000 -2.161993e+000 -1.384832e+002 -6.552132e+001 8.074411e+001 -6.441225e+001 4.588353e+001 -7.711393e-002 -5.751517e+001
1978093750 -2.179328e+000 -1.396246e+002 -6.528979e+001 5.155246e+001 -6.420986e+001 3.539993e+001 -7.237119e-002 -5.806039e+001
1996837500 -2.195824e+000 -1.407462e+002 -6.537753e+001 1.600967e+001 -6.414893e+001 1.872344e+001 -7.170151e-002 -5.861821e+001
2015581250 -2.214874e+000 -1.418622e+002 -6.508523e+001 -1.000159e+001 -6.424793e+001 1.883671e+000 -7.383279e-002 -5.917071e+001
2034325000 -2.234189e+000 -1.429722e+002 -6.513708e+001 -3.705134e+001 -6.415171e+001 -1.230444e+001 -7.751444e-002 -5.972834e+001
2053068750 -2.249194e+000 -1.440724e+002 -6.533533e+001 -5.853337e+001 -6.413721e+001 -2.390869e+001 -8.187754e-002 -6.025753e+001
2071812500 -2.262880e+000 -1.451632e+002 -6.482835e+001 -8.150043e+001 -6.404602e+001 -3.669416e+001 -8.261596e-002 -6.079478e+001
2090556250 -2.278569e+000 -1.462863e+002 -6.481382e+001 -9.556192e+001 -6.388612e+001 -5.539527e+001 -8.389529e-002 -6.132817e+001
2109300000 -2.294466e+000 -1.473915e+002 -6.476050e+001 -1.158708e+002 -6.294297e+001 -7.225249e+001 -8.801882e-002 -6.188237e+001
2128043750 -2.313184e+000 -1.484982e+002 -6.466879e+001 -1.329433e+002 -6.281255e+001 -8.090699e+001 -9.246158e-002 -6.243513e+001
2146787500 -2.332517e+000 -1.495848e+002 -6.438652e+001 -1.476208e+002 -6.301669e+001 -8.152432e+001 -9.929233e-002 -6.298351e+001
2165531250 -2.348883e+000 -1.506721e+002 -6.473595e+001 -1.636944e+002 -6.332539e+001 -8.389936e+001 -1.069880e-001 -6.352846e+001
2184275000 -2.364217e+000 -1.517530e+002 -6.397527e+001 -1.775753e+002 -6.317593e+001 -8.524171e+001 -1.095494e-001 -6.406203e+001
2203018750 -2.379020e+000 -1.528349e+002 -6.386566e+001 1.687697e+002 -6.256217e+001 -7.767162e+001 -1.131549e-001 -6.460294e+001
2221762500 -2.393347e+000 -1.539230e+002 -6.383798e+001 1.577592e+002 -6.251777e+001 -7.123849e+001 -1.133876e-001 -6.516843e+001
2240506250 -2.408448e+000 -1.549965e+002 -6.339561e+001 1.494319e+002 -6.231018e+001 -6.086589e+001 -1.178625e-001 -6.571566e+001
2259250000 -2.427849e+000 -1.560777e+002 -6.364650e+001 1.398900e+002 -6.235095e+001 -4.403850e+001 -1.245951e-001 -6.627775e+001
2277993750 -2.446681e+000 -1.571561e+002 -6.358616e+001 1.390902e+002 -6.195331e+001 -2.722979e+001 -1.315171e-001 -6.681457e+001
2296737500 -2.463540e+000 -1.582220e+002 -6.345315e+001 1.381179e+002 -6.241920e+001 -1.298790e+001 -1.363860e-001 -6.734784e+001
2315481250 -2.479239e+000 -1.592730e+002 -6.345907e+001 1.439977e+002 -6.268202e+001 3.001080e+000 -1.394244e-001 -6.788902e+001
2334225000 -2.492483e+000 -1.603411e+002 -6.351599e+001 1.595426e+002 -6.300360e+001 1.988708e+001 -1.410654e-001 -6.844096e+001
2352968750 -2.506436e+000 -1.614061e+002 -6.346923e+001 1.774738e+002 -6.307571e+001 4.469891e+001 -1.450030e-001 -6.899516e+001
2371712500 -2.523022e+000 -1.624859e+002 -6.363341e+001 -1.668252e+002 -6.284241e+001 6.777285e+001 -1.521055e-001 -6.954525e+001
2390456250 -2.536269e+000 -1.635509e+002 -6.396890e+001 -1.497489e+002 -6.296788e+001 8.603191e+001 -1.586930e-001 -7.008131e+001
2409200000 -2.551063e+000 -1.645910e+002 -6.406805e+001 -1.353700e+002 -6.279266e+001 9.386617e+001 -1.667148e-001 -7.061500e+001
2427943750 -2.566046e+000 -1.656473e+002 -6.391162e+001 -1.133345e+002 -6.315568e+001 1.101441e+002 -1.700315e-001 -7.114172e+001
2446687500 -2.580657e+000 -1.667041e+002 -6.423208e+001 -1.006702e+002 -6.315868e+001 1.265762e+002 -1.724867e-001 -7.169460e+001
2465431250 -2.594926e+000 -1.677743e+002 -6.458803e+001 -9.551408e+001 -6.416711e+001 1.458447e+002 -1.740776e-001 -7.223226e+001
2484175000 -2.611026e+000 -1.688254e+002 -6.468816e+001 -9.607185e+001 -6.429269e+001 1.595891e+002 -1.771153e-001 -7.278767e+001
2502918750 -2.627486e+000 -1.698844e+002 -6.515639e+001 -1.069478e+002 -6.463899e+001 1.752047e+002 -1.849641e-001 -7.333165e+001
2521662500 -2.642021e+000 -1.709254e+002 -6.525302e+001 -1.219780e+002 -6.513694e+001 -1.669284e+002 -1.895964e-001 -7.385748e+001
2540406250 -2.655301e+000 -1.719807e+002 -6.561257e+001 -1.400151e+002 -6.548235e+001 -1.493698e+002 -1.918738e-001 -7.437868e+001
2559150000 -2.668903e+000 -1.730340e+002 -6.622722e+001 -1.620119e+002 -6.565644e+001 -1.351639e+002 -1.923801e-001 -7.491849e+001
2577893750 -2.681700e+000 -1.740855e+002 -6.627150e+001 1.699903e+002 -6.544109e+001 -1.257544e+002 -1.908501e-001 -7.545931e+001
2596637500 -2.696351e+000 -1.751399e+002 -6.634850e+001 1.440967e+002 -6.552787e+001 -1.193169e+002 -1.930421e-001 -7.600910e+001
2615381250 -2.711261e+000 -1.761878e+002 -6.660185e+001 1.096909e+002 -6.583305e+001 -1.072606e+002 -1.980655e-001 -7.654149e+001
2634125000 -2.725319e+000 -1.772482e+002 -6.668835e+001 7.876703e+001 -6.634154e+001 -1.012040e+002 -2.039123e-001 -7.705730e+001
2652868750 -2.738768e+000 -1.782918e+002 -6.675394e+001 4.467083e+001 -6.617673e+001 -9.459978e+001 -2.098826e-001 -7.757851e+001
2671612500 -2.754946e+000 -1.793377e+002 -6.702869e+001 1.580147e+001 -6.555885e+001 -8.967503e+001 -2.103498e-001 -7.811105e+001
2690356250 -2.768708e+000 1.796229e+002 -6.696074e+001 -8.023441e+000 -6.602209e+001 -9.558144e+001 -2.091546e-001 -7.865695e+001
2709100000 -2.783374e+000 1.785969e+002 -6.672347e+001 -4.116702e+001 -6.601487e+001 -9.587227e+001 -2.102892e-001 -7.921662e+001
2727843750 -2.796417e+000 1.775591e+002 -6.643768e+001 -7.176647e+001 -6.556754e+001 -8.728391e+001 -2.143228e-001 -7.976022e+001
2746587500 -2.809385e+000 1.765118e+002 -6.647639e+001 -1.058081e+002 -6.540876e+001 -8.678788e+001 -2.212108e-001 -8.029925e+001
2765331250 -2.824227e+000 1.754677e+002 -6.620486e+001 -1.471814e+002 -6.508044e+001 -7.953955e+001 -2.267389e-001 -8.080876e+001
2784075000 -2.839976e+000 1.744217e+002 -6.634470e+001 -1.799485e+002 -6.558198e+001 -8.050116e+001 -2.291946e-001 -8.133656e+001
2802818750 -2.853224e+000 1.733917e+002 -6.651998e+001 1.456090e+002 -6.541718e+001 -8.204005e+001 -2.308852e-001 -8.187035e+001
2821562500 -2.867271e+000 1.723492e+002 -6.627289e+001 1.081529e+002 -6.565606e+001 -8.700911e+001 -2.337260e-001 -8.241404e+001
2840306250 -2.879928e+000 1.713114e+002 -6.626191e+001 7.948122e+001 -6.612759e+001 -8.925989e+001 -2.361029e-001 -8.293536e+001
2859050000 -2.891896e+000 1.702791e+002 -6.598512e+001 4.930624e+001 -6.694095e+001 -8.878946e+001 -2.400876e-001 -8.346159e+001
2877793750 -2.901354e+000 1.692421e+002 -6.629704e+001 3.095543e+001 -6.697662e+001 -9.123317e+001 -2.463854e-001 -8.395714e+001
2896537500 -2.913990e+000 1.682283e+002 -6.564799e+001 1.898862e+001 -6.618147e+001 -9.997382e+001 -2.514337e-001 -8.452045e+001
2915281250 -2.928967e+000 1.671892e+002 -6.562430e+001 1.234389e+001 -6.617767e+001 -1.008613e+002 -2.503130e-001 -8.506194e+001
2934025000 -2.939139e+000 1.661646e+002 -6.515402e+001 6.222442e+000 -6.634180e+001 -1.006673e+002 -2.515717e-001 -8.556718e+001
2952768750 -2.951428e+000 1.651421e+002 -6.511164e+001 2.140205e+000 -6.648182e+001 -1.042569e+002 -2.554906e-001 -8.613596e+001
2971512500 -2.966516e+000 1.641059e+002 -6.457885e+001 5.468124e+000 -6.597681e+001 -1.067041e+002 -2.574183e-001 -8.668341e+001
2990256250 -2.975503e+000 1.630970e+002 -6.383715e+001 1.163384e+001 -6.708357e+001 -1.143473e+002 -2.666892e-001 -8.718788e+001
3009000000 -2.990445e+000 1.620924e+002 -6.402605e+001 2.519992e+001 -6.718811e+001 -1.128863e+002 -2.718059e-001 -8.774319e+001
3027743750 -3.005290e+000 1.610674e+002 -6.417969e+001 2.882572e+001 -6.760487e+001 -1.052431e+002 -2.742917e-001 -8.828193e+001
3046487500 -3.012712e+000 1.600692e+002 -6.423251e+001 4.507512e+001 -6.734000e+001 -1.042292e+002 -2.797087e-001 -8.880029e+001
3065231250 -3.029763e+000 1.590441e+002 -6.434184e+001 5.967841e+001 -6.705461e+001 -1.031088e+002 -2.777131e-001 -8.937975e+001
3083975000 -3.041710e+000 1.580034e+002 -6.451381e+001 7.589110e+001 -6.757158e+001 -1.111967e+002 -2.809408e-001 -8.990547e+001
3102718750 -3.048558e+000 1.569977e+002 -6.469631e+001 9.197173e+001 -6.753910e+001 -1.284926e+002 -2.912068e-001 -9.042474e+001
3121462500 -3.064453e+000 1.559800e+002 -6.504961e+001 1.070557e+002 -6.714442e+001 -1.442577e+002 -2.937714e-001 -9.099001e+001
3140206250 -3.074669e+000 1.549193e+002 -6.554884e+001 1.237794e+002 -6.741754e+001 -1.619292e+002 -3.002801e-001 -9.149692e+001
3158950000 -3.083239e+000 1.539386e+002 -6.550531e+001 1.368152e+002 -6.734100e+001 1.754034e+002 -3.095785e-001 -9.202602e+001
3177693750 -3.101618e+000 1.529249e+002 -6.595773e+001 1.529104e+002 -6.737934e+001 1.531493e+002 -3.067106e-001 -9.257835e+001
3196437500 -3.112560e+000 1.518708e+002 -6.642125e+001 1.750576e+002 -6.715738e+001 1.308544e+002 -3.107288e-001 -9.309485e+001
3215181250 -3.118490e+000 1.509016e+002 -6.637042e+001 -1.626855e+002 -6.729404e+001 1.134502e+002 -3.247068e-001 -9.363476e+001
3233925000 -3.135750e+000 1.498718e+002 -6.647113e+001 -1.450695e+002 -6.798163e+001 9.199828e+001 -3.220784e-001 -9.420364e+001
3252668750 -3.145047e+000 1.488124e+002 -6.665942e+001 -1.274468e+002 -6.813460e+001 7.794474e+001 -3.286460e-001 -9.470784e+001
3271412500 -3.153075e+000 1.478204e+002 -6.644361e+001 -1.165284e+002 -6.793781e+001 6.558909e+001 -3.375602e-001 -9.526147e+001
3290156250 -3.172162e+000 1.467845e+002 -6.654250e+001 -1.086771e+002 -6.713017e+001 5.144589e+001 -3.361676e-001 -9.581877e+001
3308900000 -3.184605e+000 1.457501e+002 -6.632647e+001 -1.016398e+002 -6.735663e+001 5.028761e+001 -3.396240e-001 -9.632368e+001
3327643750 -3.192988e+000 1.447552e+002 -6.636002e+001 -9.953115e+001 -6.738686e+001 5.509023e+001 -3.481350e-001 -9.682893e+001
3346387500 -3.205639e+000 1.437429e+002 -6.649303e+001 -1.042139e+002 -6.722020e+001 5.384692e+001 -3.533487e-001 -9.737376e+001
3365131250 -3.216278e+000 1.427125e+002 -6.622731e+001 -1.036399e+002 -6.659201e+001 4.874983e+001 -3.603952e-001 -9.788242e+001
3383875000 -3.223567e+000 1.417070e+002 -6.628625e+001 -1.036250e+002 -6.613265e+001 5.008400e+001 -3.700893e-001 -9.842342e+001
3402618750 -3.237681e+000 1.406877e+002 -6.698299e+001 -9.602974e+001 -6.614397e+001 5.123349e+001 -3.738264e-001 -9.896803e+001
3421362500 -3.248141e+000 1.396623e+002 -6.752822e+001 -9.373183e+001 -6.517250e+001 5.604350e+001 -3.777350e-001 -9.948358e+001
3440106250 -3.256119e+000 1.386572e+002 -6.742858e+001 -9.268958e+001 -6.549048e+001 5.990548e+001 -3.863625e-001 -1.000016e+002
3458850000 -3.268446e+000 1.376335e+002 -6.709030e+001 -8.757283e+001 -6.499461e+001 6.112280e+001 -3.895193e-001 -1.005426e+002
3477593750 -3.277979e+000 1.365937e+002 -6.672481e+001 -8.905274e+001 -6.513372e+001 5.979839e+001 -3.937071e-001 -1.010580e+002
3496337500 -3.285093e+000 1.356174e+002 -6.715711e+001 -8.549224e+001 -6.493689e+001 6.462150e+001 -4.028314e-001 -1.015674e+002
3515081250 -3.298276e+000 1.345946e+002 -6.704522e+001 -8.092853e+001 -6.443251e+001 7.022791e+001 -4.068542e-001 -1.021053e+002
3533825000 -3.305194e+000 1.335855e+002 -6.763264e+001 -8.339952e+001 -6.437195e+001 8.396941e+001 -4.101215e-001 -1.026231e+002
3552568750 -3.314029e+000 1.325961e+002 -6.738314e+001 -8.778474e+001 -6.439809e+001 1.067020e+002 -4.194868e-001 -1.031428e+002
3571312500 -3.325938e+000 1.315699e+002 -6.738925e+001 -9.043787e+001 -6.526209e+001 1.247105e+002 -4.212735e-001 -1.036890e+002
3590056250 -3.337807e+000 1.305169e+002 -6.728505e+001 -8.241947e+001 -6.551077e+001 1.383652e+002 -4.204311e-001 -1.042122e+002
3608800000 -3.341828e+000 1.294936e+002 -6.711166e+001 -7.334812e+001 -6.549129e+001 1.575401e+002 -4.303858e-001 -1.047116e+002
3627543750 -3.351694e+000 1.285150e+002 -6.729749e+001 -6.506406e+001 -6.606894e+001 1.662955e+002 -4.339379e-001 -1.052726e+002
3646287500 -3.362356e+000 1.274592e+002 -6.730154e+001 -6.247070e+001 -6.578862e+001 1.780258e+002 -4.291553e-001 -1.057896e+002
3665031250 -3.363985e+000 1.264604e+002 -6.710361e+001 -5.561092e+001 -6.494003e+001 -1.602039e+002 -4.418041e-001 -1.062819e+002
3683775000 -3.373359e+000 1.255120e+002 -6.689412e+001 -3.978143e+001 -6.499570e+001 -1.495364e+002 -4.472176e-001 -1.068206e+002
3702518750 -3.389847e+000 1.244647e+002 -6.679627e+001 -1.992239e+001 -6.505030e+001 -1.402838e+002 -4.493379e-001 -1.073546e+002
3721262500 -3.385389e+000 1.234468e+002 -6.681875e+001 -2.153082e+000 -6.519861e+001 -1.345593e+002 -4.542754e-001 -1.078723e+002
3740006250 -3.395494e+000 1.224864e+002 -6.665247e+001 1.266358e+001 -6.469307e+001 -1.340524e+002 -4.611818e-001 -1.084056e+002
3758750000 -3.409560e+000 1.214255e+002 -6.662243e+001 2.859324e+001 -6.462091e+001 -1.374245e+002 -4.613318e-001 -1.089499e+002
3777493750 -3.408937e+000 1.204046e+002 -6.617762e+001 4.253650e+001 -6.500610e+001 -1.413584e+002 -4.658403e-001 -1.094508e+002
3796237500 -3.421121e+000 1.194229e+002 -6.651688e+001 5.551409e+001 -6.528400e+001 -1.411462e+002 -4.693052e-001 -1.099938e+002
3814981250 -3.434256e+000 1.183429e+002 -6.645387e+001 6.340988e+001 -6.543199e+001 -1.435671e+002 -4.686756e-001 -1.105149e+002
3833725000 -3.430259e+000 1.173549e+002 -6.607829e+001 6.708277e+001 -6.626160e+001 -1.453345e+002 -4.706591e-001 -1.110032e+002
3852468750 -3.444244e+000 1.163511e+002 -6.583419e+001 7.750363e+001 -6.665157e+001 -1.513183e+002 -4.743382e-001 -1.115439e+002
3871212500 -3.451564e+000 1.152610e+002 -6.615459e+001 8.608485e+001 -6.641004e+001 -1.626701e+002 -4.746870e-001 -1.120703e+002
3889956250 -3.447052e+000 1.142651e+002 -6.584855e+001 1.032766e+002 -6.656244e+001 1.797876e+002 -4.796556e-001 -1.125746e+002
3908700000 -3.461904e+000 1.132673e+002 -6.650870e+001 1.187089e+002 -6.691641e+001 1.650721e+002 -4.850144e-001 -1.131141e+002
3927443750 -3.469924e+000 1.121780e+002 -6.582203e+001 1.313250e+002 -6.811850e+001 1.406971e+002 -4.877082e-001 -1.136308e+002
3946187500 -3.466645e+000 1.111927e+002 -6.594732e+001 1.411671e+002 -6.825775e+001 1.199227e+002 -4.922458e-001 -1.141464e+002
3964931250 -3.483217e+000 1.101739e+002 -6.546954e+001 1.620598e+002 -6.867934e+001 1.002242e+002 -4.954633e-001 -1.147008e+002
3983675000 -3.483907e+000 1.090818e+002 -6.584430e+001 -1.786257e+002 -6.880234e+001 7.740229e+001 -4.976605e-001 -1.151871e+002
4002418750 -3.481986e+000 1.081181e+002 -6.563632e+001 -1.601364e+002 -6.856889e+001 5.276493e+001 -5.026133e-001 -1.157016e+002
4021162500 -3.494229e+000 1.071194e+002 -6.626262e+001 -1.519618e+002 -6.808975e+001 3.535645e+001 -5.095049e-001 -1.162250e+002
4039906250 -3.499282e+000 1.060656e+002 -6.631754e+001 -1.462407e+002 -6.841711e+001 2.574222e+001 -5.098683e-001 -1.167418e+002
4058650000 -3.497159e+000 1.050545e+002 -6.586218e+001 -1.487529e+002 -6.827884e+001 2.310006e+001 -5.143081e-001 -1.172636e+002
4077393750 -3.508961e+000 1.040469e+002 -6.696136e+001 -1.461181e+002 -6.802975e+001 1.252121e+001 -5.216868e-001 -1.177937e+002
4096137500 -3.513022e+000 1.029786e+002 -6.667292e+001 -1.453625e+002 -6.806361e+001 -5.367484e+000 -5.207984e-001 -1.183120e+002
4114881250 -3.513415e+000 1.019459e+002 -6.687083e+001 -1.460217e+002 -6.777775e+001 -1.116838e+001 -5.230967e-001 -1.188420e+002
4133625000 -3.517856e+000 1.009444e+002 -6.709710e+001 -1.512549e+002 -6.870710e+001 -1.641541e+001 -5.287187e-001 -1.193451e+002
4152368750 -3.523943e+000 9.989106e+001 -6.731416e+001 -1.526072e+002 -6.882130e+001 -1.517492e+001 -5.352002e-001 -1.198645e+002
4171112500 -3.522985e+000 9.885141e+001 -6.766593e+001 -1.579127e+002 -6.907568e+001 -1.385938e+001 -5.368634e-001 -1.204324e+002
4189856250 -3.526009e+000 9.784403e+001 -6.775706e+001 -1.615223e+002 -6.943739e+001 -9.109633e+000 -5.446449e-001 -1.209438e+002
4208600000 -3.528166e+000 9.679008e+001 -6.824950e+001 -1.591153e+002 -6.943413e+001 3.400626e+000 -5.493010e-001 -1.214599e+002
4227343750 -3.527514e+000 9.576661e+001 -6.828792e+001 -1.566373e+002 -6.949693e+001 1.847403e+001 -5.525742e-001 -1.219935e+002
4246087500 -3.530375e+000 9.475944e+001 -6.861613e+001 -1.451818e+002 -6.912392e+001 4.109789e+001 -5.605408e-001 -1.224931e+002
4264831250 -3.533550e+000 9.368505e+001 -6.824293e+001 -1.393451e+002 -6.871536e+001 5.461765e+001 -5.672618e-001 -1.230426e+002
4283575000 -3.531314e+000 9.266294e+001 -6.826582e+001 -1.396238e+002 -6.801726e+001 7.559974e+001 -5.702987e-001 -1.235690e+002
4302318750 -3.532888e+000 9.166872e+001 -6.838288e+001 -1.318828e+002 -6.823450e+001 9.186603e+001 -5.751584e-001 -1.240764e+002
4321062500 -3.539943e+000 9.062546e+001 -6.918056e+001 -1.371612e+002 -6.813264e+001 1.205848e+002 -5.813007e-001 -1.246040e+002
4339806250 -3.537394e+000 8.955652e+001 -6.906615e+001 -1.441802e+002 -6.753801e+001 1.476876e+002 -5.833432e-001 -1.251357e+002
4358550000 -3.535598e+000 8.856481e+001 -6.924960e+001 -1.463208e+002 -6.656618e+001 1.778824e+002 -5.894365e-001 -1.256639e+002
4377293750 -3.538888e+000 8.751421e+001 -6.924593e+001 -1.468818e+002 -6.680541e+001 -1.458512e+002 -5.928858e-001 -1.262278e+002
4396037500 -3.534477e+000 8.647393e+001 -6.969118e+001 -1.525270e+002 -6.717717e+001 -1.111619e+002 -5.964214e-001 -1.267115e+002
4414781250 -3.539551e+000 8.544363e+001 -6.923380e+001 -1.553137e+002 -6.741321e+001 -7.663229e+001 -6.043078e-001 -1.272467e+002
4433525000 -3.540485e+000 8.437103e+001 -6.996562e+001 -1.524948e+002 -6.672424e+001 -4.369253e+001 -6.079092e-001 -1.277855e+002
4452268750 -3.534029e+000 8.333601e+001 -6.923072e+001 -1.516519e+002 -6.723258e+001 -8.916881e+000 -6.117486e-001 -1.282979e+002
4471012500 -3.537919e+000 8.228173e+001 -6.909603e+001 -1.534838e+002 -6.689500e+001 1.352121e+001 -6.224805e-001 -1.288336e+002
4489756250 -3.540109e+000 8.121272e+001 -6.921880e+001 -1.494823e+002 -6.674216e+001 3.393340e+001 -6.268576e-001 -1.293755e+002
4508500000 -3.534224e+000 8.017898e+001 -6.825724e+001 -1.568593e+002 -6.749188e+001 5.730711e+001 -6.330152e-001 -1.298710e+002
4527243750 -3.539968e+000 7.913669e+001 -6.843027e+001 -1.561561e+002 -6.761336e+001 8.537911e+001 -6.428987e-001 -1.304004e+002
4545987500 -3.536004e+000 7.805692e+001 -6.841003e+001 -1.576976e+002 -6.781945e+001 1.073681e+002 -6.457852e-001 -1.309329e+002
4564731250 -3.530977e+000 7.701235e+001 -6.853323e+001 -1.580252e+002 -6.667437e+001 1.342903e+002 -6.488561e-001 -1.314405e+002
4583475000 -3.537683e+000 7.595840e+001 -6.845781e+001 -1.540580e+002 -6.712821e+001 1.492119e+002 -6.585450e-001 -1.319781e+002
4602218750 -3.539183e+000 7.487530e+001 -6.805492e+001 -1.464207e+002 -6.739333e+001 1.606497e+002 -6.617275e-001 -1.325072e+002
4620962500 -3.532191e+000 7.380917e+001 -6.786465e+001 -1.317761e+002 -6.707391e+001 1.690957e+002 -6.629884e-001 -1.330224e+002
4639706250 -3.534495e+000 7.277865e+001 -6.773746e+001 -1.178007e+002 -6.660762e+001 1.771595e+002 -6.718733e-001 -1.335512e+002
4658450000 -3.532782e+000 7.168389e+001 -6.774687e+001 -1.066295e+002 -6.668895e+001 1.741996e+002 -6.769592e-001 -1.340903e+002
4677193750 -3.527682e+000 7.065283e+001 -6.742339e+001 -9.396446e+001 -6.702180e+001 1.678266e+002 -6.797462e-001 -1.345920e+002
4695937500 -3.533128e+000 6.960915e+001 -6.733363e+001 -8.521931e+001 -6.688970e+001 1.641209e+002 -6.903352e-001 -1.351297e+002
4714681250 -3.526495e+000 6.851989e+001 -6.750968e+001 -7.488377e+001 -6.717119e+001 1.564137e+002 -6.933745e-001 -1.356773e+002
4733425000 -3.524542e+000 6.746277e+001 -6.696801e+001 -6.732318e+001 -6.670587e+001 1.493869e+002 -7.017807e-001 -1.361982e+002
4752168750 -3.525402e+000 6.638405e+001 -6.650245e+001 -4.853069e+001 -6.649249e+001 1.323180e+002 -7.096352e-001 -1.367467e+002
4770912500 -3.519410e+000 6.532073e+001 -6.636699e+001 -2.721673e+001 -6.632265e+001 1.110248e+002 -7.120749e-001 -1.372653e+002
4789656250 -3.520985e+000 6.424262e+001 -6.648676e+001 -1.608751e+001 -6.627655e+001 9.470348e+001 -7.190617e-001 -1.377637e+002
4808400000 -3.520698e+000 6.318061e+001 -6.628699e+001 -1.247021e+000 -6.628442e+001 7.556598e+001 -7.293918e-001 -1.382853e+002
4827143750 -3.515714e+000 6.209278e+001 -6.564083e+001 7.239499e+000 -6.559991e+001 5.580132e+001 -7.320411e-001 -1.388422e+002
4845887500 -3.507903e+000 6.105445e+001 -6.585122e+001 1.731590e+001 -6.544334e+001 3.336110e+001 -7.396225e-001 -1.393535e+002
4864631250 -3.506472e+000 6.001129e+001 -6.507243e+001 2.450500e+001 -6.629272e+001 2.176459e+001 -7.479234e-001 -1.398858e+002
4883375000 -3.501205e+000 5.890165e+001 -6.517419e+001 3.881988e+001 -6.635029e+001 6.146044e+000 -7.485989e-001 -1.404179e+002
4902118750 -3.493296e+000 5.786536e+001 -6.524611e+001 5.240278e+001 -6.641402e+001 -7.207066e+000 -7.541276e-001 -1.409355e+002
4920862500 -3.491065e+000 5.680183e+001 -6.530592e+001 6.569310e+001 -6.657516e+001 -2.421594e+001 -7.616964e-001 -1.414697e+002
4939606250 -3.483466e+000 5.569899e+001 -6.524698e+001 8.273083e+001 -6.571194e+001 -3.591081e+001 -7.596118e-001 -1.420076e+002
4958350000 -3.474879e+000 5.464504e+001 -6.523604e+001 9.583521e+001 -6.609673e+001 -5.031647e+001 -7.660102e-001 -1.425367e+002
4977093750 -3.474474e+000 5.358951e+001 -6.555822e+001 1.025180e+002 -6.563403e+001 -6.772886e+001 -7.735999e-001 -1.430708e+002
4995837500 -3.468323e+000 5.248066e+001 -6.530815e+001 1.029963e+002 -6.580329e+001 -9.195348e+001 -7.748387e-001 -1.436084e+002
5014581250 -3.459131e+000 5.142647e+001 -6.545544e+001 9.437033e+001 -6.487245e+001 -1.102174e+002 -7.830454e-001 -1.441082e+002
5033325000 -3.449710e+000 5.034232e+001 -6.593514e+001 8.427639e+001 -6.448363e+001 -1.254982e+002 -7.909977e-001 -1.446443e+002
5052068750 -3.444097e+000 4.927548e+001 -6.607711e+001 7.374025e+001 -6.452394e+001 -1.478736e+002 -7.969321e-001 -1.451571e+002
5070812500 -3.438453e+000 4.819505e+001 -6.607191e+001 5.397744e+001 -6.460487e+001 -1.696125e+002 -8.046091e-001 -1.456877e+002
5089556250 -3.430384e+000 4.711640e+001 -6.627682e+001 4.305901e+001 -6.451876e+001 -1.789088e+002 -8.094844e-001 -1.462365e+002
5108300000 -3.422464e+000 4.602333e+001 -6.636162e+001 2.069584e+001 -6.486236e+001 1.756732e+002 -8.144147e-001 -1.467645e+002
5127043750 -3.412992e+000 4.493304e+001 -6.647123e+001 2.896296e+000 -6.462883e+001 1.714457e+002 -8.191285e-001 -1.472646e+002
5145787500 -3.408665e+000 4.384798e+001 -6.641106e+001 -1.227736e+001 -6.429015e+001 1.633985e+002 -8.267043e-001 -1.477882e+002
5164531250 -3.398455e+000 4.275885e+001 -6.637068e+001 -2.751493e+001 -6.460859e+001 1.623884e+002 -8.312991e-001 -1.483166e+002
5183275000 -3.388619e+000 4.169208e+001 -6.645695e+001 -4.808721e+001 -6.471206e+001 1.576505e+002 -8.363593e-001 -1.488187e+002
5202018750 -3.383347e+000 4.060809e+001 -6.652599e+001 -6.812891e+001 -6.514745e+001 1.638221e+002 -8.436116e-001 -1.493571e+002
5220762500 -3.371327e+000 3.952863e+001 -6.686456e+001 -7.710207e+001 -6.529826e+001 1.627831e+002 -8.488446e-001 -1.498979e+002
5239506250 -3.363394e+000 3.844317e+001 -6.703657e+001 -8.657817e+001 -6.499550e+001 1.619135e+002 -8.537426e-001 -1.504043e+002
5258250000 -3.355637e+000 3.733752e+001 -6.686714e+001 -8.418964e+001 -6.510664e+001 1.639126e+002 -8.615089e-001 -1.509344e+002
5276993750 -3.345984e+000 3.624557e+001 -6.662273e+001 -8.005169e+001 -6.510793e+001 1.639041e+002 -8.651354e-001 -1.514732e+002
5295737500 -3.338849e+000 3.515316e+001 -6.661231e+001 -8.249319e+001 -6.421765e+001 1.566934e+002 -8.708586e-001 -1.519836e+002
5314481250 -3.329500e+000 3.405676e+001 -6.724043e+001 -8.670442e+001 -6.394661e+001 1.504297e+002 -8.781627e-001 -1.525071e+002
5333225000 -3.319022e+000 3.296880e+001 -6.702801e+001 -9.080528e+001 -6.396890e+001 1.440119e+002 -8.842453e-001 -1.530314e+002
5351968750 -3.308039e+000 3.187000e+001 -6.659280e+001 -9.317098e+001 -6.389721e+001 1.457923e+002 -8.915548e-001 -1.535426e+002
5370712500 -3.300231e+000 3.075772e+001 -6.654406e+001 -9.390147e+001 -6.370295e+001 1.416006e+002 -9.016249e-001 -1.540753e+002
5389456250 -3.284854e+000 2.966058e+001 -6.673611e+001 -9.442213e+001 -6.328655e+001 1.344286e+002 -9.090788e-001 -1.545981e+002
5408200000 -3.277097e+000 2.857010e+001 -6.620281e+001 -8.766635e+001 -6.331440e+001 1.336010e+002 -9.145447e-001 -1.551165e+002
5426943750 -3.266854e+000 2.746263e+001 -6.699014e+001 -6.732448e+001 -6.308813e+001 1.354436e+002 -9.227871e-001 -1.556424e+002
5445687500 -3.254008e+000 2.636724e+001 -6.690057e+001 -3.497065e+001 -6.354959e+001 1.361440e+002 -9.262096e-001 -1.561660e+002
5464431250 -3.245660e+000 2.527964e+001 -6.649333e+001 -3.758424e+000 -6.365976e+001 1.300538e+002 -9.319345e-001 -1.566795e+002
5483175000 -3.234521e+000 2.415749e+001 -6.685364e+001 1.516327e+001 -6.383097e+001 1.360486e+002 -9.387954e-001 -1.572055e+002
5501918750 -3.220832e+000 2.305455e+001 -6.695968e+001 4.567310e+001 -6.379583e+001 1.341060e+002 -9.425008e-001 -1.577183e+002
5520662500 -3.212688e+000 2.195912e+001 -6.667852e+001 7.039848e+001 -6.359419e+001 1.238983e+002 -9.483795e-001 -1.582123e+002
5539406250 -3.201713e+000 2.084275e+001 -6.659942e+001 9.574007e+001 -6.309912e+001 1.096959e+002 -9.548870e-001 -1.587383e+002
5558150000 -3.186924e+000 1.974668e+001 -6.665382e+001 1.274686e+002 -6.316094e+001 9.631235e+001 -9.600500e-001 -1.592538e+002
5576893750 -3.177891e+000 1.863098e+001 -6.657044e+001 1.585407e+002 -6.353199e+001 9.113746e+001 -9.653628e-001 -1.597748e+002
5595637500 -3.168173e+000 1.750781e+001 -6.662466e+001 -1.732120e+002 -6.341933e+001 8.619965e+001 -9.720052e-001 -1.602956e+002
5614381250 -3.151253e+000 1.639758e+001 -6.659483e+001 -1.447460e+002 -6.348163e+001 8.923024e+001 -9.766859e-001 -1.608217e+002
5633125000 -3.142909e+000 1.528605e+001 -6.630302e+001 -1.136743e+002 -6.356851e+001 8.327715e+001 -9.829245e-001 -1.613412e+002
5651868750 -3.128472e+000 1.415329e+001 -6.578236e+001 -9.028070e+001 -6.365465e+001 7.527516e+001 -9.889595e-001 -1.618540e+002
5670612500 -3.112880e+000 1.304853e+001 -6.581326e+001 -6.736364e+001 -6.362514e+001 7.125959e+001 -9.933447e-001 -1.623580e+002
5689356250 -3.102644e+000 1.194736e+001 -6.600691e+001 -5.462125e+001 -6.337160e+001 6.521326e+001 -1.000981e+000 -1.628691e+002
5708100000 -3.089681e+000 1.082297e+001 -6.595998e+001 -3.806855e+001 -6.349586e+001 6.516431e+001 -1.009014e+000 -1.633861e+002
5726843750 -3.074858e+000 9.710851e+000 -6.629226e+001 -2.461645e+001 -6.405625e+001 6.707494e+001 -1.014449e+000 -1.639087e+002
5745587500 -3.066893e+000 8.601724e+000 -6.567020e+001 -8.239251e+000 -6.382769e+001 6.427269e+001 -1.021552e+000 -1.644302e+002
5764331250 -3.052007e+000 7.471609e+000 -6.618481e+001 8.733174e+000 -6.372309e+001 6.495804e+001 -1.028370e+000 -1.649455e+002
5783075000 -3.038516e+000 6.359624e+000 -6.622477e+001 2.260625e+001 -6.370873e+001 6.154375e+001 -1.030622e+000 -1.654493e+002
5801818750 -3.024757e+000 5.238139e+000 -6.610148e+001 3.541459e+001 -6.378005e+001 6.117430e+001 -1.038693e+000 -1.659608e+002
5820562500 -3.012648e+000 4.133464e+000 -6.577875e+001 4.793784e+001 -6.376548e+001 5.575308e+001 -1.043965e+000 -1.664716e+002
5839306250 -2.999818e+000 2.994747e+000 -6.576828e+001 5.845247e+001 -6.390755e+001 4.232893e+001 -1.050296e+000 -1.669771e+002
5858050000 -2.985370e+000 1.878811e+000 -6.553671e+001 5.964895e+001 -6.409037e+001 2.252892e+001 -1.056656e+000 -1.675010e+002
5876793750 -2.972830e+000 7.863938e-001 -6.543648e+001 5.885270e+001 -6.385449e+001 -8.296762e-001 -1.063035e+000 -1.679983e+002
5895537500 -2.961495e+000 -3.491515e-001 -6.556599e+001 5.480437e+001 -6.397973e+001 -1.283816e+001 -1.072965e+000 -1.685045e+002
5914281250 -2.945605e+000 -1.491687e+000 -6.510601e+001 5.882531e+001 -6.364606e+001 -3.232241e+001 -1.078472e+000 -1.690359e+002
5933025000 -2.932711e+000 -2.575031e+000 -6.496727e+001 5.575666e+001 -6.378798e+001 -4.662531e+001 -1.085719e+000 -1.695536e+002
5951768750 -2.919494e+000 -3.718996e+000 -6.506677e+001 5.821432e+001 -6.380020e+001 -6.158984e+001 -1.095031e+000 -1.700771e+002
5970512500 -2.902603e+000 -4.850461e+000 -6.488357e+001 6.275204e+001 -6.371634e+001 -7.956774e+001 -1.099401e+000 -1.706078e+002
5989256250 -2.892126e+000 -5.938625e+000 -6.514989e+001 6.253602e+001 -6.381918e+001 -9.689655e+001 -1.105221e+000 -1.711091e+002
6008000000 -2.877944e+000 -7.089783e+000 -6.505956e+001 6.270660e+001 -6.378776e+001 -1.160075e+002 -1.115966e+000 -1.716143e+002
6026743750 -2.861480e+000 -8.232696e+000 -6.484068e+001 6.034183e+001 -6.406618e+001 -1.360394e+002 -1.119398e+000 -1.721430e+002
6045487500 -2.853254e+000 -9.329436e+000 -6.491923e+001 5.878096e+001 -6.383677e+001 -1.549671e+002 -1.126763e+000 -1.726405e+002
6064231250 -2.836880e+000 -1.047958e+001 -6.538303e+001 5.206570e+001 -6.362962e+001 -1.689175e+002 -1.136078e+000 -1.731526e+002
6082975000 -2.822830e+000 -1.160413e+001 -6.553386e+001 5.179920e+001 -6.345707e+001 1.771918e+002 -1.140049e+000 -1.736902e+002
6101718750 -2.812312e+000 -1.272179e+001 -6.597977e+001 4.834077e+001 -6.356611e+001 1.610562e+002 -1.147449e+000 -1.741849e+002
6120462500 -2.797155e+000 -1.390689e+001 -6.615057e+001 4.451472e+001 -6.358511e+001 1.423539e+002 -1.157190e+000 -1.747045e+002
6139206250 -2.781759e+000 -1.502909e+001 -6.609785e+001 3.951068e+001 -6.355340e+001 1.212443e+002 -1.159006e+000 -1.752423e+002
6157950000 -2.770712e+000 -1.614885e+001 -6.553439e+001 4.006651e+001 -6.339074e+001 9.853854e+001 -1.168605e+000 -1.757396e+002
6176693750 -2.752897e+000 -1.732866e+001 -6.548348e+001 3.646859e+001 -6.351868e+001 7.805569e+001 -1.178735e+000 -1.762671e+002
6195437500 -2.740507e+000 -1.844390e+001 -6.484046e+001 3.025982e+001 -6.426067e+001 5.565551e+001 -1.183969e+000 -1.767943e+002
6214181250 -2.728484e+000 -1.959611e+001 -6.527251e+001 2.450908e+001 -6.419404e+001 4.072144e+001 -1.192681e+000 -1.773073e+002
6232925000 -2.715544e+000 -2.073646e+001 -6.540963e+001 2.427233e+001 -6.425903e+001 2.406375e+001 -1.199447e+000 -1.778298e+002
6251668750 -2.701721e+000 -2.187829e+001 -6.538207e+001 2.520769e+001 -6.451581e+001 1.763989e+001 -1.206596e+000 -1.783524e+002
6270412500 -2.692121e+000 -2.303347e+001 -6.549300e+001 2.409346e+001 -6.465070e+001 1.138983e+001 -1.213743e+000 -1.788553e+002
6289156250 -2.674370e+000 -2.420813e+001 -6.493864e+001 2.794118e+001 -6.493856e+001 1.541894e+001 -1.223680e+000 -1.793924e+002
6307900000 -2.661000e+000 -2.532304e+001 -6.494153e+001 2.491703e+001 -6.490308e+001 1.874954e+001 -1.228702e+000 -1.799599e+002
6326643750 -2.651178e+000 -2.647198e+001 -6.501231e+001 2.523600e+001 -6.502151e+001 1.139268e+001 -1.231290e+000 1.795504e+002
6345387500 -2.637898e+000 -2.763451e+001 -6.517733e+001 2.543203e+001 -6.527422e+001 7.290634e+000 -1.243382e+000 1.790020e+002
6364131250 -2.623607e+000 -2.875892e+001 -6.503785e+001 2.824377e+001 -6.525492e+001 -7.199048e+000 -1.249493e+000 1.784586e+002
6382875000 -2.613569e+000 -2.991472e+001 -6.522269e+001 2.621918e+001 -6.564511e+001 -2.414529e+001 -1.253910e+000 1.779607e+002
6401618750 -2.598952e+000 -3.107201e+001 -6.543076e+001 2.323281e+001 -6.549587e+001 -3.739565e+001 -1.268916e+000 1.774125e+002
6420362500 -2.584220e+000 -3.219613e+001 -6.510558e+001 2.040168e+001 -6.544068e+001 -5.504918e+001 -1.272878e+000 1.768615e+002
6439106250 -2.574476e+000 -3.335289e+001 -6.550055e+001 1.890003e+001 -6.569071e+001 -6.890873e+001 -1.277715e+000 1.763571e+002
6457850000 -2.559152e+000 -3.450733e+001 -6.601412e+001 1.460235e+001 -6.533561e+001 -8.517522e+001 -1.294007e+000 1.758143e+002
6476593750 -2.542626e+000 -3.565216e+001 -6.570110e+001 1.050062e+001 -6.561015e+001 -1.034369e+002 -1.298929e+000 1.752621e+002
6495337500 -2.534559e+000 -3.680906e+001 -6.543435e+001 9.321129e+000 -6.568533e+001 -1.167810e+002 -1.304812e+000 1.747544e+002
6514081250 -2.519416e+000 -3.796201e+001 -6.546571e+001 5.701185e+000 -6.590079e+001 -1.330188e+002 -1.320400e+000 1.742080e+002
6532825000 -2.508445e+000 -3.910519e+001 -6.505758e+001 5.281159e+000 -6.688154e+001 -1.507177e+002 -1.322738e+000 1.736444e+002
6551568750 -2.498739e+000 -4.025079e+001 -6.525845e+001 3.879344e+000 -6.710709e+001 -1.683951e+002 -1.330666e+000 1.731321e+002
6570312500 -2.484218e+000 -4.141972e+001 -6.513848e+001 3.091020e+000 -6.748980e+001 1.664759e+002 -1.344942e+000 1.725804e+002
6589056250 -2.472356e+000 -4.257944e+001 -6.548583e+001 -3.442840e-001 -6.762710e+001 1.392657e+002 -1.346262e+000 1.720245e+002
6607800000 -2.461257e+000 -4.372971e+001 -6.584122e+001 1.395241e+000 -6.765705e+001 1.130634e+002 -1.354153e+000 1.715190e+002
6626543750 -2.445893e+000 -4.488619e+001 -6.584128e+001 4.362101e+000 -6.729096e+001 8.938956e+001 -1.363346e+000 1.709400e+002
6645287500 -2.439541e+000 -4.603081e+001 -6.551312e+001 1.204519e+001 -6.713403e+001 5.691234e+001 -1.366429e+000 1.704079e+002
6664031250 -2.425693e+000 -4.722830e+001 -6.543629e+001 9.959778e+000 -6.723238e+001 2.740682e+001 -1.377993e+000 1.698851e+002
6682775000 -2.413941e+000 -4.837500e+001 -6.563493e+001 5.527350e+000 -6.730149e+001 -7.537446e+000 -1.386950e+000 1.692921e+002
6701518750 -2.402720e+000 -4.951009e+001 -6.596785e+001 5.836518e+000 -6.711584e+001 -3.942799e+001 -1.391661e+000 1.687447e+002
6720262500 -2.392035e+000 -5.068485e+001 -6.621695e+001 -6.250615e-001 -6.703246e+001 -6.967571e+001 -1.401024e+000 1.682206e+002
6739006250 -2.380301e+000 -5.186041e+001 -6.624045e+001 1.389667e+000 -6.686510e+001 -1.034500e+002 -1.412905e+000 1.676518e+002
6757750000 -2.371155e+000 -5.302161e+001 -6.597267e+001 3.645625e-001 -6.723676e+001 -1.366440e+002 -1.418842e+000 1.670959e+002
6776493750 -2.358639e+000 -5.419406e+001 -6.589884e+001 -3.542068e+000 -6.729738e+001 -1.669383e+002 -1.429181e+000 1.665742e+002
6795237500 -2.348019e+000 -5.538168e+001 -6.633381e+001 -1.058713e+001 -6.760651e+001 1.687122e+002 -1.436463e+000 1.659877e+002
6813981250 -2.338363e+000 -5.654453e+001 -6.612538e+001 -1.656939e+001 -6.717525e+001 1.534536e+002 -1.441791e+000 1.654498e+002
6832725000 -2.328069e+000 -5.772356e+001 -6.658533e+001 -1.659937e+001 -6.731797e+001 1.319812e+002 -1.448958e+000 1.649146e+002
6851468750 -2.320074e+000 -5.890171e+001 -6.654301e+001 -1.953645e+001 -6.724120e+001 1.184777e+002 -1.459171e+000 1.643255e+002
6870212500 -2.313440e+000 -6.007804e+001 -6.604363e+001 -2.289636e+001 -6.687033e+001 1.053712e+002 -1.464316e+000 1.637906e+002
6888956250 -2.303193e+000 -6.126051e+001 -6.569812e+001 -2.103419e+001 -6.728516e+001 1.005153e+002 -1.473968e+000 1.632381e+002
6907700000 -2.297007e+000 -6.243977e+001 -6.577049e+001 -1.910621e+001 -6.813337e+001 9.913026e+001 -1.482828e+000 1.626625e+002
6926443750 -2.289953e+000 -6.362067e+001 -6.593919e+001 -1.823382e+001 -6.821838e+001 9.514196e+001 -1.487618e+000 1.621158e+002
6945187500 -2.283015e+000 -6.480980e+001 -6.575012e+001 -1.949113e+001 -6.805927e+001 9.572640e+001 -1.495609e+000 1.615482e+002
6963931250 -2.275661e+000 -6.599117e+001 -6.577567e+001 -2.057925e+001 -6.720384e+001 1.007390e+002 -1.505294e+000 1.609814e+002
6982675000 -2.271682e+000 -6.718703e+001 -6.538925e+001 -1.971522e+001 -6.712878e+001 1.003178e+002 -1.507808e+000 1.604315e+002
7001418750 -2.264993e+000 -6.838790e+001 -6.572291e+001 -2.423886e+001 -6.667567e+001 1.101437e+002 -1.521390e+000 1.598795e+002
7020162500 -2.258138e+000 -6.958176e+001 -6.557232e+001 -2.367792e+001 -6.599008e+001 1.224198e+002 -1.528417e+000 1.593198e+002
7038906250 -2.255235e+000 -7.076309e+001 -6.608847e+001 -2.825828e+001 -6.615755e+001 1.339638e+002 -1.532400e+000 1.587543e+002
7057650000 -2.249686e+000 -7.196699e+001 -6.626416e+001 -3.246104e+001 -6.602670e+001 1.442381e+002 -1.545776e+000 1.582055e+002
7076393750 -2.244449e+000 -7.316922e+001 -6.637814e+001 -3.795638e+001 -6.619073e+001 1.589705e+002 -1.553564e+000 1.576252e+002
7095137500 -2.243443e+000 -7.435871e+001 -6.633712e+001 -3.953850e+001 -6.643444e+001 1.772835e+002 -1.557163e+000 1.570558e+002
7113881250 -2.238035e+000 -7.556677e+001 -6.636028e+001 -3.897982e+001 -6.600640e+001 -1.670346e+002 -1.570363e+000 1.565071e+002
7132625000 -2.231872e+000 -7.678674e+001 -6.609058e+001 -3.995340e+001 -6.611996e+001 -1.519037e+002 -1.575713e+000 1.559288e+002
7151368750 -2.230552e+000 -7.795581e+001 -6.642837e+001 -3.325070e+001 -6.619216e+001 -1.475704e+002 -1.583075e+000 1.553878e+002
7170112500 -2.226358e+000 -7.917155e+001 -6.633784e+001 -3.729775e+001 -6.635546e+001 -1.336502e+002 -1.594424e+000 1.548392e+002
7188856250 -2.222187e+000 -8.038877e+001 -6.622702e+001 -3.831034e+001 -6.580869e+001 -1.119785e+002 -1.600458e+000 1.542652e+002
7207600000 -2.223605e+000 -8.156017e+001 -6.636197e+001 -3.977189e+001 -6.566396e+001 -9.564864e+001 -1.606322e+000 1.537323e+002
7226343750 -2.223251e+000 -8.278665e+001 -6.599577e+001 -3.963659e+001 -6.512613e+001 -7.833125e+001 -1.619285e+000 1.531684e+002
7245087500 -2.221605e+000 -8.399244e+001 -6.680027e+001 -3.284900e+001 -6.528970e+001 -6.528153e+001 -1.625906e+000 1.525843e+002
7263831250 -2.220568e+000 -8.518650e+001 -6.605481e+001 -3.311483e+001 -6.521960e+001 -4.919917e+001 -1.634215e+000 1.520367e+002
7282575000 -2.219837e+000 -8.641406e+001 -6.594086e+001 -3.144551e+001 -6.514658e+001 -3.755363e+001 -1.645437e+000 1.514695e+002
7301318750 -2.218310e+000 -8.763869e+001 -6.600267e+001 -3.228780e+001 -6.535369e+001 -2.791814e+001 -1.649359e+000 1.508792e+002
7320062500 -2.219847e+000 -8.884577e+001 -6.602611e+001 -3.175754e+001 -6.502535e+001 -2.718991e+001 -1.656650e+000 1.503404e+002
7338806250 -2.220194e+000 -9.007449e+001 -6.603799e+001 -3.274942e+001 -6.382803e+001 -2.724773e+001 -1.665933e+000 1.497585e+002
7357550000 -2.219582e+000 -9.129427e+001 -6.589787e+001 -3.169835e+001 -6.369376e+001 -2.994690e+001 -1.672056e+000 1.491783e+002
7376293750 -2.218776e+000 -9.250221e+001 -6.604380e+001 -3.131961e+001 -6.355158e+001 -3.218686e+001 -1.685362e+000 1.486493e+002
7395037500 -2.219484e+000 -9.376328e+001 -6.591299e+001 -3.710184e+001 -6.336205e+001 -3.879941e+001 -1.696968e+000 1.480954e+002
7413781250 -2.216833e+000 -9.495701e+001 -6.624740e+001 -3.695730e+001 -6.335048e+001 -3.940124e+001 -1.707625e+000 1.474868e+002
7432525000 -2.222905e+000 -9.616703e+001 -6.588362e+001 -3.925946e+001 -6.334566e+001 -4.179112e+001 -1.707381e+000 1.469427e+002
7451268750 -2.224720e+000 -9.742242e+001 -6.603796e+001 -3.956381e+001 -6.350496e+001 -4.372371e+001 -1.722187e+000 1.463708e+002
7470012500 -2.220263e+000 -9.863651e+001 -6.532498e+001 -3.771655e+001 -6.359853e+001 -4.845647e+001 -1.735924e+000 1.458010e+002
7488756250 -2.232415e+000 -9.985962e+001 -6.535835e+001 -4.110760e+001 -6.348776e+001 -4.807362e+001 -1.739344e+000 1.452220e+002
7507500000 -2.234263e+000 -1.011079e+002 -6.514143e+001 -4.534403e+001 -6.344928e+001 -5.060599e+001 -1.750003e+000 1.446546e+002
7526243750 -2.234821e+000 -1.023221e+002 -6.530022e+001 -4.440882e+001 -6.292675e+001 -5.738250e+001 -1.762350e+000 1.440987e+002
7544987500 -2.249074e+000 -1.035742e+002 -6.537591e+001 -4.601017e+001 -6.319589e+001 -5.884050e+001 -1.763376e+000 1.435206e+002
7563731250 -2.251103e+000 -1.048445e+002 -6.564717e+001 -4.763314e+001 -6.305236e+001 -6.363482e+001 -1.774206e+000 1.429484e+002
7582475000 -2.257173e+000 -1.060808e+002 -6.514076e+001 -5.146456e+001 -6.281390e+001 -6.412447e+001 -1.783925e+000 1.423801e+002
7601218750 -2.271635e+000 -1.073359e+002 -6.505096e+001 -5.335789e+001 -6.279486e+001 -6.486926e+001 -1.788116e+000 1.417954e+002
7619962500 -2.273005e+000 -1.086015e+002 -6.504101e+001 -5.475431e+001 -6.282103e+001 -6.337114e+001 -1.800080e+000 1.412246e+002
7638706250 -2.281218e+000 -1.098527e+002 -6.524327e+001 -5.687041e+001 -6.252677e+001 -6.586643e+001 -1.807995e+000 1.406536e+002
7657450000 -2.295592e+000 -1.111209e+002 -6.529180e+001 -5.937347e+001 -6.278331e+001 -7.183041e+001 -1.816043e+000 1.400860e+002
7676193750 -2.296567e+000 -1.124110e+002 -6.445690e+001 -7.131753e+001 -6.277428e+001 -7.570461e+001 -1.826761e+000 1.395020e+002
7694937500 -2.308627e+000 -1.136561e+002 -6.471233e+001 -7.251328e+001 -6.286599e+001 -8.016400e+001 -1.833981e+000 1.389417e+002
7713681250 -2.323138e+000 -1.149453e+002 -6.482741e+001 -7.907436e+001 -6.294667e+001 -7.848158e+001 -1.841969e+000 1.383623e+002
7732425000 -2.329342e+000 -1.162205e+002 -6.494091e+001 -8.248989e+001 -6.249928e+001 -8.040203e+001 -1.853080e+000 1.377799e+002
7751168750 -2.343864e+000 -1.174622e+002 -6.495809e+001 -8.701943e+001 -6.256202e+001 -8.139126e+001 -1.858883e+000 1.372088e+002
7769912500 -2.360306e+000 -1.187622e+002 -6.514907e+001 -8.764623e+001 -6.270897e+001 -8.485163e+001 -1.870166e+000 1.366259e+002
7788656250 -2.368293e+000 -1.200585e+002 -6.544176e+001 -8.988564e+001 -6.273078e+001 -8.962489e+001 -1.879777e+000 1.360474e+002
7807400000 -2.388112e+000 -1.213123e+002 -6.529786e+001 -9.433617e+001 -6.260120e+001 -9.400994e+001 -1.882325e+000 1.354749e+002
7826143750 -2.404769e+000 -1.225859e+002 -6.532651e+001 -9.338757e+001 -6.250602e+001 -9.778612e+001 -1.890881e+000 1.348451e+002
7844887500 -2.420447e+000 -1.239003e+002 -6.478737e+001 -1.000668e+002 -6.279804e+001 -1.009497e+002 -1.896419e+000 1.342945e+002
7863631250 -2.437538e+000 -1.251799e+002 -6.516581e+001 -1.038219e+002 -6.299884e+001 -9.953712e+001 -1.910210e+000 1.337180e+002
7882375000 -2.455952e+000 -1.264693e+002 -6.520504e+001 -1.066412e+002 -6.296967e+001 -1.020814e+002 -1.918283e+000 1.331040e+002
7901118750 -2.477967e+000 -1.277908e+002 -6.539528e+001 -1.113354e+002 -6.256020e+001 -1.019671e+002 -1.918111e+000 1.325073e+002
7919862500 -2.493462e+000 -1.290800e+002 -6.513488e+001 -1.120922e+002 -6.256849e+001 -1.074053e+002 -1.929008e+000 1.319684e+002
7938606250 -2.511813e+000 -1.303722e+002 -6.520370e+001 -1.122182e+002 -6.258899e+001 -1.071825e+002 -1.939790e+000 1.313551e+002
7957350000 -2.536386e+000 -1.316835e+002 -6.493381e+001 -1.183788e+002 -6.259822e+001 -1.108899e+002 -1.941535e+000 1.307678e+002
7976093750 -2.553337e+000 -1.329919e+002 -6.471323e+001 -1.206542e+002 -6.231839e+001 -1.165041e+002 -1.954609e+000 1.302101e+002
7994837500 -2.576612e+000 -1.342853e+002 -6.422265e+001 -1.231928e+002 -6.230122e+001 -1.181241e+002 -1.967832e+000 1.295910e+002
8013581250 -2.600504e+000 -1.356098e+002 -6.459682e+001 -1.285582e+002 -6.224084e+001 -1.194271e+002 -1.968620e+000 1.289929e+002
8032325000 -2.618511e+000 -1.369305e+002 -6.484711e+001 -1.291425e+002 -6.272308e+001 -1.244478e+002 -1.982273e+000 1.284454e+002
8051068750 -2.644707e+000 -1.382337e+002 -6.491055e+001 -1.325365e+002 -6.261411e+001 -1.365278e+002 -1.993035e+000 1.278186e+002
8069812500 -2.671414e+000 -1.395624e+002 -6.494221e+001 -1.313339e+002 -6.282640e+001 -1.382478e+002 -1.997113e+000 1.272247e+002
8088556250 -2.693315e+000 -1.409047e+002 -6.538474e+001 -1.343533e+002 -6.296313e+001 -1.327918e+002 -2.009500e+000 1.266616e+002
8107300000 -2.721529e+000 -1.422229e+002 -6.521476e+001 -1.340479e+002 -6.312232e+001 -1.352175e+002 -2.019854e+000 1.260379e+002
8126043750 -2.750228e+000 -1.435618e+002 -6.508783e+001 -1.404390e+002 -6.329745e+001 -1.340579e+002 -2.024457e+000 1.254483e+002
8144787500 -2.773626e+000 -1.449091e+002 -6.518940e+001 -1.394051e+002 -6.398787e+001 -1.326722e+002 -2.037973e+000 1.248916e+002
8163531250 -2.802276e+000 -1.462155e+002 -6.544886e+001 -1.440272e+002 -6.515155e+001 -1.258996e+002 -2.049794e+000 1.242698e+002
8182275000 -2.833559e+000 -1.475789e+002 -6.557832e+001 -1.417685e+002 -6.488276e+001 -1.133844e+002 -2.056199e+000 1.236779e+002
8201018750 -2.859983e+000 -1.489537e+002 -6.569360e+001 -1.391944e+002 -6.494887e+001 -9.431074e+001 -2.067504e+000 1.231034e+002
8219762500 -2.890709e+000 -1.502792e+002 -6.601166e+001 -1.416608e+002 -6.480532e+001 -7.677191e+001 -2.078196e+000 1.224816e+002
8238506250 -2.921748e+000 -1.516663e+002 -6.654571e+001 -1.440324e+002 -6.500440e+001 -5.821694e+001 -2.085333e+000 1.219034e+002
8257250000 -2.951555e+000 -1.530380e+002 -6.644528e+001 -1.439700e+002 -6.528915e+001 -4.009084e+001 -2.097572e+000 1.213354e+002
8275993750 -2.984334e+000 -1.543715e+002 -6.677305e+001 -1.423213e+002 -6.554057e+001 -2.686624e+001 -2.107583e+000 1.207120e+002
8294737500 -3.020076e+000 -1.557617e+002 -6.659934e+001 -1.420055e+002 -6.508814e+001 -1.475734e+001 -2.116749e+000 1.201296e+002
8313481250 -3.054446e+000 -1.571597e+002 -6.708228e+001 -1.404233e+002 -6.533423e+001 2.765104e+000 -2.129421e+000 1.195246e+002
8332225000 -3.088135e+000 -1.585092e+002 -6.691263e+001 -1.419596e+002 -6.611693e+001 2.035953e+001 -2.141893e+000 1.189079e+002
8350968750 -3.122772e+000 -1.599212e+002 -6.694389e+001 -1.398922e+002 -6.596113e+001 3.698772e+001 -2.151715e+000 1.183140e+002
8369712500 -3.157844e+000 -1.613121e+002 -6.693050e+001 -1.385019e+002 -6.624966e+001 4.588093e+001 -2.167056e+000 1.177186e+002
8388456250 -3.196230e+000 -1.626875e+002 -6.722686e+001 -1.370604e+002 -6.649850e+001 6.265518e+001 -2.177836e+000 1.170842e+002
8407200000 -3.234245e+000 -1.641131e+002 -6.702837e+001 -1.358282e+002 -6.670419e+001 8.598149e+001 -2.188846e+000 1.165043e+002
8425943750 -3.272067e+000 -1.655166e+002 -6.754485e+001 -1.347403e+002 -6.724632e+001 1.165223e+002 -2.200701e+000 1.158876e+002
8444687500 -3.312696e+000 -1.669211e+002 -6.730040e+001 -1.357600e+002 -6.739765e+001 1.475366e+002 -2.211558e+000 1.152629e+002
8463431250 -3.351420e+000 -1.683644e+002 -6.708428e+001 -1.315840e+002 -6.698179e+001 -1.794846e+002 -2.220357e+000 1.146770e+002
8482175000 -3.391262e+000 -1.697667e+002 -6.746392e+001 -1.255749e+002 -6.717290e+001 -1.383913e+002 -2.234754e+000 1.140695e+002
8500918750 -3.435249e+000 -1.711827e+002 -6.715108e+001 -1.220595e+002 -6.711342e+001 -1.086521e+002 -2.244788e+000 1.134441e+002
8519662500 -3.475863e+000 -1.726506e+002 -6.687189e+001 -1.169344e+002 -6.672514e+001 -8.151863e+001 -2.254047e+000 1.128537e+002
8538406250 -3.520227e+000 -1.740658e+002 -6.695686e+001 -1.149048e+002 -6.670916e+001 -4.994028e+001 -2.269207e+000 1.122404e+002
8557150000 -3.566873e+000 -1.755156e+002 -6.736140e+001 -1.132023e+002 -6.709692e+001 -1.523522e+001 -2.280518e+000 1.116093e+002
8575893750 -3.609825e+000 -1.769962e+002 -6.746086e+001 -1.114342e+002 -6.649976e+001 2.065660e+001 -2.290383e+000 1.110114e+002
8594637500 -3.657644e+000 -1.784150e+002 -6.726692e+001 -1.083545e+002 -6.551499e+001 5.650471e+001 -2.306874e+000 1.103855e+002
8613381250 -3.709573e+000 -1.798829e+002 -6.704602e+001 -1.138889e+002 -6.581512e+001 9.091408e+001 -2.319039e+000 1.097577e+002
8632125000 -3.756067e+000 1.786222e+002 -6.684766e+001 -1.149613e+002 -6.590331e+001 1.157975e+002 -2.329994e+000 1.091561e+002
8650868750 -3.804556e+000 1.771762e+002 -6.593908e+001 -1.112970e+002 -6.626996e+001 1.462195e+002 -2.346460e+000 1.085141e+002
8669612500 -3.856130e+000 1.756835e+002 -6.584813e+001 -1.061799e+002 -6.594154e+001 1.781123e+002 -2.358014e+000 1.078682e+002
8688356250 -3.902333e+000 1.741773e+002 -6.633612e+001 -1.066615e+002 -6.575566e+001 -1.541730e+002 -2.370964e+000 1.072576e+002
8707100000 -3.953954e+000 1.727185e+002 -6.681177e+001 -1.035444e+002 -6.551019e+001 -1.213598e+002 -2.389257e+000 1.066282e+002
8725843750 -4.006995e+000 1.712051e+002 -6.684237e+001 -1.017158e+002 -6.577921e+001 -9.076440e+001 -2.400784e+000 1.059843e+002
8744587500 -4.055709e+000 1.696886e+002 -6.625146e+001 -1.060888e+002 -6.586746e+001 -5.744052e+001 -2.414612e+000 1.053736e+002
8763331250 -4.111211e+000 1.681930e+002 -6.612147e+001 -1.059326e+002 -6.533762e+001 -2.725064e+001 -2.430456e+000 1.047410e+002
8782075000 -4.165042e+000 1.666577e+002 -6.621599e+001 -1.031784e+002 -6.575567e+001 7.769405e+000 -2.441472e+000 1.040880e+002
8800818750 -4.216405e+000 1.651229e+002 -6.653704e+001 -1.058683e+002 -6.580564e+001 4.327252e+001 -2.453158e+000 1.034576e+002
8819562500 -4.273667e+000 1.636259e+002 -6.665842e+001 -1.072665e+002 -6.586498e+001 7.327079e+001 -2.471076e+000 1.028190e+002
8838306250 -4.331801e+000 1.620634e+002 -6.766160e+001 -1.055201e+002 -6.620491e+001 9.882639e+001 -2.483819e+000 1.021642e+002
8857050000 -4.386506e+000 1.605111e+002 -6.725146e+001 -1.078750e+002 -6.577455e+001 1.142339e+002 -2.497108e+000 1.015388e+002
8875793750 -4.448046e+000 1.589722e+002 -6.742844e+001 -1.098909e+002 -6.559053e+001 1.331834e+002 -2.513784e+000 1.008745e+002
8894537500 -4.505468e+000 1.573815e+002 -6.794337e+001 -1.190786e+002 -6.586432e+001 1.501856e+002 -2.526128e+000 1.002159e+002
8913281250 -4.561872e+000 1.558137e+002 -6.773431e+001 -1.222887e+002 -6.612783e+001 1.573847e+002 -2.539750e+000 9.956833e+001
8932025000 -4.626093e+000 1.542496e+002 -6.762701e+001 -1.294339e+002 -6.632459e+001 1.728101e+002 -2.559258e+000 9.890140e+001
8950768750 -4.685848e+000 1.526441e+002 -6.739024e+001 -1.301070e+002 -6.673771e+001 -1.743282e+002 -2.569855e+000 9.823141e+001
8969512500 -4.744889e+000 1.510532e+002 -6.726603e+001 -1.314156e+002 -6.700190e+001 -1.573976e+002 -2.584338e+000 9.757029e+001
8988256250 -4.810541e+000 1.494336e+002 -6.709505e+001 -1.345203e+002 -6.721785e+001 -1.375244e+002 -2.598080e+000 9.688542e+001
9007000000 -4.871481e+000 1.478117e+002 -6.692065e+001 -1.352968e+002 -6.753626e+001 -1.179249e+002 -2.609474e+000 9.622071e+001
9025743750 -4.934821e+000 1.462005e+002 -6.690101e+001 -1.343368e+002 -6.767632e+001 -9.811610e+001 -2.623885e+000 9.556439e+001
9044487500 -5.000628e+000 1.445784e+002 -6.685600e+001 -1.321407e+002 -6.753364e+001 -8.120406e+001 -2.638443e+000 9.487903e+001
9063231250 -5.060729e+000 1.429353e+002 -6.682176e+001 -1.400201e+002 -6.770259e+001 -6.143111e+001 -2.650418e+000 9.420975e+001
9081975000 -5.128271e+000 1.412966e+002 -6.713316e+001 -1.390898e+002 -6.741269e+001 -4.348877e+001 -2.666305e+000 9.353476e+001
9100718750 -5.195069e+000 1.396108e+002 -6.680842e+001 -1.394179e+002 -6.775636e+001 -2.627189e+001 -2.678135e+000 9.283527e+001
9119462500 -5.257477e+000 1.379321e+002 -6.695258e+001 -1.392145e+002 -6.837655e+001 3.150961e-001 -2.688613e+000 9.215649e+001
9138206250 -5.324233e+000 1.362737e+002 -6.641490e+001 -1.378253e+002 -6.828962e+001 3.100768e+001 -2.703104e+000 9.148197e+001
9156950000 -5.393522e+000 1.345699e+002 -6.627280e+001 -1.344377e+002 -6.813128e+001 6.535664e+001 -2.715384e+000 9.078900e+001
9175693750 -5.457569e+000 1.328649e+002 -6.619036e+001 -1.321633e+002 -6.822333e+001 9.584648e+001 -2.726205e+000 9.010661e+001
9194437500 -5.527581e+000 1.311576e+002 -6.648736e+001 -1.313240e+002 -6.807059e+001 1.282550e+002 -2.742087e+000 8.941991e+001
9213181250 -5.597548e+000 1.294067e+002 -6.621086e+001 -1.338508e+002 -6.783065e+001 1.529305e+002 -2.755551e+000 8.872935e+001
9231925000 -5.663961e+000 1.276727e+002 -6.585445e+001 -1.309069e+002 -6.758589e+001 -1.784318e+002 -2.767350e+000 8.805006e+001
9250668750 -5.733527e+000 1.259423e+002 -6.556313e+001 -1.256750e+002 -6.760992e+001 -1.476332e+002 -2.782901e+000 8.736479e+001
9269412500 -5.804230e+000 1.241838e+002 -6.443933e+001 -1.294688e+002 -6.757114e+001 -1.124493e+002 -2.795430e+000 8.665453e+001
9288156250 -5.872248e+000 1.224170e+002 -6.471323e+001 -1.262073e+002 -6.775854e+001 -7.466316e+001 -2.807740e+000 8.596244e+001
9306900000 -5.942743e+000 1.206320e+002 -6.467915e+001 -1.207612e+002 -6.769358e+001 -3.967493e+001 -2.823994e+000 8.527475e+001
9325643750 -6.012236e+000 1.188352e+002 -6.450249e+001 -1.126827e+002 -6.730698e+001 -4.433623e+000 -2.837208e+000 8.455245e+001
9344387500 -6.079395e+000 1.170536e+002 -6.422945e+001 -1.135316e+002 -6.700296e+001 2.866160e+001 -2.848626e+000 8.386169e+001
9363131250 -6.147397e+000 1.152402e+002 -6.397360e+001 -1.098283e+002 -6.664069e+001 6.095481e+001 -2.863358e+000 8.316489e+001
9381875000 -6.219086e+000 1.134287e+002 -6.372220e+001 -1.104129e+002 -6.620859e+001 9.809111e+001 -2.878114e+000 8.245824e+001
9400618750 -6.286885e+000 1.115968e+002 -6.412493e+001 -1.062330e+002 -6.576630e+001 1.303089e+002 -2.890377e+000 8.176247e+001
9419362500 -6.356111e+000 1.097471e+002 -6.398658e+001 -9.871890e+001 -6.515202e+001 1.579352e+002 -2.906560e+000 8.104737e+001
9438106250 -6.424471e+000 1.078801e+002 -6.379211e+001 -9.845048e+001 -6.450275e+001 1.762448e+002 -2.918007e+000 8.031898e+001
9456850000 -6.489292e+000 1.060058e+002 -6.364457e+001 -9.450214e+001 -6.464050e+001 -1.676488e+002 -2.931426e+000 7.962059e+001
9475593750 -6.558450e+000 1.041179e+002 -6.407584e+001 -9.323875e+001 -6.440179e+001 -1.519611e+002 -2.947037e+000 7.890322e+001
9494337500 -6.628996e+000 1.022271e+002 -6.413459e+001 -9.034551e+001 -6.413940e+001 -1.368897e+002 -2.959265e+000 7.818545e+001
9513081250 -6.693617e+000 1.003019e+002 -6.381194e+001 -9.240382e+001 -6.419536e+001 -1.211285e+002 -2.972097e+000 7.748292e+001
9531825000 -6.761284e+000 9.837370e+001 -6.353791e+001 -9.466166e+001 -6.370158e+001 -1.061929e+002 -2.989519e+000 7.676069e+001
9550568750 -6.827947e+000 9.644341e+001 -6.295599e+001 -9.549041e+001 -6.318216e+001 -9.765719e+001 -3.001441e+000 7.603596e+001
9569312500 -6.892470e+000 9.449048e+001 -6.325920e+001 -9.865883e+001 -6.275227e+001 -9.323111e+001 -3.018035e+000 7.533225e+001
9588056250 -6.958562e+000 9.253395e+001 -6.326501e+001 -1.006168e+002 -6.243516e+001 -9.490628e+001 -3.034540e+000 7.459180e+001
9606800000 -7.026243e+000 9.058337e+001 -6.309751e+001 -9.902696e+001 -6.192578e+001 -9.689376e+001 -3.045885e+000 7.386139e+001
9625543750 -7.088588e+000 8.857792e+001 -6.263319e+001 -9.578696e+001 -6.176047e+001 -9.593237e+001 -3.060970e+000 7.313724e+001
9644287500 -7.151309e+000 8.659052e+001 -6.277482e+001 -9.667046e+001 -6.136950e+001 -9.124965e+001 -3.078165e+000 7.238570e+001
9663031250 -7.213914e+000 8.459963e+001 -6.276355e+001 -9.991707e+001 -6.112208e+001 -8.691599e+001 -3.089624e+000 7.163857e+001
9681775000 -7.272317e+000 8.257435e+001 -6.282413e+001 -1.020283e+002 -6.068512e+001 -8.375784e+001 -3.105255e+000 7.091835e+001
9700518750 -7.332394e+000 8.056408e+001 -6.273869e+001 -9.939009e+001 -6.026730e+001 -8.668719e+001 -3.123222e+000 7.017104e+001
9719262500 -7.393090e+000 7.852441e+001 -6.213010e+001 -1.002974e+002 -5.987586e+001 -9.133173e+001 -3.137755e+000 6.942323e+001
9738006250 -7.447381e+000 7.646302e+001 -6.145139e+001 -1.004132e+002 -5.974663e+001 -9.629012e+001 -3.156706e+000 6.868764e+001
9756750000 -7.505547e+000 7.440955e+001 -6.090989e+001 -1.027115e+002 -5.962652e+001 -1.001047e+002 -3.175905e+000 6.793163e+001
9775493750 -7.562314e+000 7.233143e+001 -6.099409e+001 -1.029160e+002 -5.934248e+001 -9.806099e+001 -3.188570e+000 6.717070e+001
9794237500 -7.609382e+000 7.024409e+001 -6.087029e+001 -1.046524e+002 -5.920999e+001 -9.704156e+001 -3.202660e+000 6.641690e+001
9812981250 -7.661579e+000 6.818999e+001 -6.076818e+001 -1.051009e+002 -5.910032e+001 -1.002697e+002 -3.220598e+000 6.566534e+001
9831725000 -7.715311e+000 6.606435e+001 -5.998383e+001 -1.076614e+002 -5.861901e+001 -9.982266e+001 -3.237319e+000 6.490463e+001
9850468750 -7.756875e+000 6.394642e+001 -5.954124e+001 -1.108767e+002 -5.806034e+001 -1.027068e+002 -3.254956e+000 6.415073e+001
9869212500 -7.803476e+000 6.187117e+001 -5.929189e+001 -1.116090e+002 -5.782259e+001 -1.033539e+002 -3.271321e+000 6.339190e+001
9887956250 -7.852205e+000 5.972902e+001 -5.893518e+001 -1.141715e+002 -5.721629e+001 -1.037182e+002 -3.288702e+000 6.263835e+001
9906700000 -7.887744e+000 5.760091e+001 -5.826819e+001 -1.147959e+002 -5.697900e+001 -1.039705e+002 -3.307601e+000 6.184619e+001
9925443750 -7.934203e+000 5.550068e+001 -5.772546e+001 -1.123060e+002 -5.652769e+001 -1.040125e+002 -3.323821e+000 6.109244e+001
9944187500 -7.978273e+000 5.332338e+001 -5.745196e+001 -1.126973e+002 -5.595188e+001 -1.061810e+002 -3.345336e+000 6.034260e+001
9962931250 -8.010303e+000 5.119224e+001 -5.714172e+001 -1.128178e+002 -5.582903e+001 -1.079272e+002 -3.365116e+000 5.952409e+001
9981675000 -8.051977e+000 4.905687e+001 -5.670072e+001 -1.116570e+002 -5.535557e+001 -1.103918e+002 -3.379031e+000 5.874854e+001
10000418750 -8.084772e+000 4.686365e+001 -5.588671e+001 -1.116994e+002 -5.513572e+001 -1.117381e+002 -3.397454e+000 5.797377e+001
10019162500 -8.110724e+000 4.474184e+001 -5.547311e+001 -1.132300e+002 -5.501802e+001 -1.132979e+002 -3.418203e+000 5.715921e+001
10037906250 -8.146895e+000 4.257667e+001 -5.521889e+001 -1.157969e+002 -5.471627e+001 -1.142531e+002 -3.434746e+000 5.640554e+001
10056650000 -8.172077e+000 4.038040e+001 -5.494059e+001 -1.187029e+002 -5.437883e+001 -1.165621e+002 -3.458810e+000 5.561660e+001
10075393750 -8.195092e+000 3.824116e+001 -5.439803e+001 -1.185266e+002 -5.427322e+001 -1.183419e+002 -3.479734e+000 5.478927e+001
10094137500 -8.223745e+000 3.604124e+001 -5.389210e+001 -1.188314e+002 -5.393474e+001 -1.196176e+002 -3.496933e+000 5.400663e+001
10112881250 -8.240256e+000 3.384284e+001 -5.324411e+001 -1.205459e+002 -5.363129e+001 -1.221204e+002 -3.520851e+000 5.319850e+001
10131625000 -8.256721e+000 3.170033e+001 -5.302461e+001 -1.228974e+002 -5.307265e+001 -1.235737e+002 -3.539195e+000 5.236645e+001
10150368750 -8.278761e+000 2.949925e+001 -5.281408e+001 -1.241663e+002 -5.251519e+001 -1.236459e+002 -3.555858e+000 5.158614e+001
10169112500 -8.291237e+000 2.730762e+001 -5.249353e+001 -1.250329e+002 -5.211229e+001 -1.251482e+002 -3.577241e+000 5.075781e+001
10187856250 -8.304364e+000 2.515089e+001 -5.207374e+001 -1.261939e+002 -5.165986e+001 -1.261550e+002 -3.595781e+000 4.991923e+001
10206600000 -8.316847e+000 2.294472e+001 -5.142705e+001 -1.271039e+002 -5.123696e+001 -1.275019e+002 -3.614659e+000 4.913472e+001
10225343750 -8.327905e+000 2.078728e+001 -5.115442e+001 -1.281295e+002 -5.097089e+001 -1.291616e+002 -3.641796e+000 4.830908e+001
10244087500 -8.339610e+000 1.861292e+001 -5.078129e+001 -1.298149e+002 -5.055396e+001 -1.294647e+002 -3.660916e+000 4.746017e+001
10262831250 -8.347127e+000 1.643632e+001 -5.044238e+001 -1.315797e+002 -5.026216e+001 -1.309650e+002 -3.679975e+000 4.666290e+001
10281575000 -8.353254e+000 1.429007e+001 -5.017139e+001 -1.334527e+002 -5.003077e+001 -1.321194e+002 -3.705948e+000 4.581842e+001
10300318750 -8.360620e+000 1.210498e+001 -4.995699e+001 -1.340261e+002 -4.980346e+001 -1.334539e+002 -3.729361e+000 4.495116e+001
10319062500 -8.354515e+000 9.934116e+000 -4.960499e+001 -1.353598e+002 -4.949382e+001 -1.357110e+002 -3.749008e+000 4.411229e+001
10337806250 -8.356862e+000 7.817962e+000 -4.918799e+001 -1.359471e+002 -4.915047e+001 -1.376792e+002 -3.773588e+000 4.326908e+001
10356550000 -8.357686e+000 5.641736e+000 -4.880936e+001 -1.385620e+002 -4.881659e+001 -1.391686e+002 -3.796953e+000 4.237668e+001
10375293750 -8.347895e+000 3.495585e+000 -4.847778e+001 -1.400305e+002 -4.860137e+001 -1.405437e+002 -3.816571e+000 4.153619e+001
10394037500 -8.347078e+000 1.377890e+000 -4.821360e+001 -1.411671e+002 -4.828022e+001 -1.416250e+002 -3.841401e+000 4.069757e+001
10412781250 -8.342108e+000 -7.829616e-001 -4.786905e+001 -1.429365e+002 -4.796558e+001 -1.422256e+002 -3.869309e+000 3.981863e+001
10431525000 -8.329082e+000 -2.896379e+000 -4.750108e+001 -1.442494e+002 -4.764736e+001 -1.438932e+002 -3.890827e+000 3.895671e+001
10450268750 -8.327777e+000 -5.001171e+000 -4.718801e+001 -1.453814e+002 -4.726130e+001 -1.452462e+002 -3.914724e+000 3.808693e+001
10469012500 -8.318052e+000 -7.139864e+000 -4.682132e+001 -1.468603e+002 -4.696191e+001 -1.470141e+002 -3.940750e+000 3.718737e+001
10487756250 -8.304286e+000 -9.220710e+000 -4.644898e+001 -1.480463e+002 -4.672549e+001 -1.477372e+002 -3.962359e+000 3.632847e+001
10506500000 -8.298012e+000 -1.132104e+001 -4.617868e+001 -1.495295e+002 -4.630127e+001 -1.489927e+002 -3.989452e+000 3.545324e+001
10525243750 -8.281643e+000 -1.342635e+001 -4.579374e+001 -1.506558e+002 -4.592218e+001 -1.510076e+002 -4.015194e+000 3.457647e+001
10543987500 -8.266508e+000 -1.548704e+001 -4.550196e+001 -1.519912e+002 -4.561103e+001 -1.523799e+002 -4.038263e+000 3.370520e+001
10562731250 -8.259445e+000 -1.755166e+001 -4.515342e+001 -1.533147e+002 -4.528170e+001 -1.540819e+002 -4.068020e+000 3.281380e+001
10581475000 -8.242977e+000 -1.962078e+001 -4.490127e+001 -1.548233e+002 -4.501859e+001 -1.556200e+002 -4.095304e+000 3.191790e+001
10600218750 -8.228790e+000 -2.165750e+001 -4.468102e+001 -1.563292e+002 -4.466350e+001 -1.571229e+002 -4.123467e+000 3.104319e+001
10618962500 -8.217282e+000 -2.371831e+001 -4.432814e+001 -1.579586e+002 -4.432545e+001 -1.585528e+002 -4.153658e+000 3.012946e+001
10637706250 -8.197372e+000 -2.575646e+001 -4.408763e+001 -1.596178e+002 -4.396537e+001 -1.604085e+002 -4.182184e+000 2.921356e+001
10656450000 -8.180984e+000 -2.775263e+001 -4.383381e+001 -1.612202e+002 -4.358507e+001 -1.617482e+002 -4.211633e+000 2.831634e+001
10675193750 -8.168264e+000 -2.977649e+001 -4.351311e+001 -1.627132e+002 -4.329083e+001 -1.630489e+002 -4.245532e+000 2.738354e+001
10693937500 -8.147402e+000 -3.176139e+001 -4.323964e+001 -1.645359e+002 -4.300788e+001 -1.647500e+002 -4.273710e+000 2.646428e+001
10712681250 -8.134376e+000 -3.374128e+001 -4.289721e+001 -1.657349e+002 -4.263533e+001 -1.664794e+002 -4.306092e+000 2.555769e+001
10731425000 -8.119219e+000 -3.573941e+001 -4.252526e+001 -1.672900e+002 -4.231125e+001 -1.681151e+002 -4.340889e+000 2.462561e+001
10750168750 -8.100127e+000 -3.771711e+001 -4.219504e+001 -1.691849e+002 -4.191153e+001 -1.699962e+002 -4.370488e+000 2.368704e+001
10768912500 -8.087070e+000 -3.966374e+001 -4.184381e+001 -1.710553e+002 -4.156702e+001 -1.718463e+002 -4.405706e+000 2.276223e+001
10787656250 -8.070788e+000 -4.162152e+001 -4.148377e+001 -1.726734e+002 -4.125275e+001 -1.735714e+002 -4.441581e+000 2.181021e+001
10806400000 -8.055420e+000 -4.354398e+001 -4.115259e+001 -1.744834e+002 -4.083909e+001 -1.753605e+002 -4.473442e+000 2.085090e+001
10825143750 -8.045547e+000 -4.545961e+001 -4.082521e+001 -1.760739e+002 -4.047205e+001 -1.770594e+002 -4.510021e+000 1.991093e+001
10843887500 -8.031862e+000 -4.740773e+001 -4.049354e+001 -1.777700e+002 -4.010505e+001 -1.787802e+002 -4.547340e+000 1.893652e+001
10862631250 -8.018326e+000 -4.930851e+001 -4.013700e+001 -1.795043e+002 -3.974608e+001 1.793401e+002 -4.583637e+000 1.796194e+001
10881375000 -8.006201e+000 -5.119545e+001 -3.980394e+001 1.787352e+002 -3.942809e+001 1.777011e+002 -4.623247e+000 1.699570e+001
10900118750 -7.996644e+000 -5.308203e+001 -3.944282e+001 1.770757e+002 -3.906570e+001 1.761743e+002 -4.665119e+000 1.600390e+001
10918862500 -7.989336e+000 -5.495385e+001 -3.909169e+001 1.752863e+002 -3.869485e+001 1.743969e+002 -4.704034e+000 1.500532e+001
10937606250 -7.983795e+000 -5.682693e+001 -3.875609e+001 1.736298e+002 -3.836670e+001 1.726833e+002 -4.745038e+000 1.403089e+001
10956350000 -7.976629e+000 -5.869571e+001 -3.839779e+001 1.719745e+002 -3.802354e+001 1.711065e+002 -4.789755e+000 1.302179e+001
10975093750 -7.972185e+000 -6.054110e+001 -3.802884e+001 1.702550e+002 -3.764506e+001 1.693011e+002 -4.832481e+000 1.200508e+001
10993837500 -7.966990e+000 -6.237396e+001 -3.768709e+001 1.685966e+002 -3.727100e+001 1.674544e+002 -4.877724e+000 1.100060e+001
11012581250 -7.967947e+000 -6.418736e+001 -3.729663e+001 1.666234e+002 -3.692743e+001 1.657275e+002 -4.925049e+000 9.972626e+000
11031325000 -7.968311e+000 -6.599784e+001 -3.691464e+001 1.647086e+002 -3.659526e+001 1.639839e+002 -4.969291e+000 8.957766e+000
11050068750 -7.971378e+000 -6.781004e+001 -3.655133e+001 1.628041e+002 -3.623325e+001 1.619447e+002 -5.017838e+000 7.949481e+000
11068812500 -7.976135e+000 -6.962527e+001 -3.616528e+001 1.609337e+002 -3.588276e+001 1.600135e+002 -5.069016e+000 6.917772e+000
11087556250 -7.981994e+000 -7.143137e+001 -3.577804e+001 1.589053e+002 -3.551713e+001 1.580819e+002 -5.120540e+000 5.876602e+000
11106300000 -7.989338e+000 -7.321442e+001 -3.542227e+001 1.568993e+002 -3.517556e+001 1.559210e+002 -5.170879e+000 4.817924e+000
11125043750 -8.002666e+000 -7.501017e+001 -3.507197e+001 1.549616e+002 -3.482256e+001 1.539858e+002 -5.226618e+000 3.742838e+000
11143787500 -8.017032e+000 -7.676925e+001 -3.467817e+001 1.528657e+002 -3.446109e+001 1.519318e+002 -5.279251e+000 2.681431e+000
11162531250 -8.035190e+000 -7.854163e+001 -3.430885e+001 1.506868e+002 -3.409031e+001 1.497858e+002 -5.337512e+000 1.622400e+000
11181275000 -8.055013e+000 -8.029038e+001 -3.394235e+001 1.486327e+002 -3.374016e+001 1.477736e+002 -5.398874e+000 5.551616e-001
11200018750 -8.074190e+000 -8.202022e+001 -3.359029e+001 1.466132e+002 -3.336684e+001 1.455783e+002 -5.459660e+000 -5.229470e-001
11218762500 -8.098394e+000 -8.373293e+001 -3.320760e+001 1.445193e+002 -3.302509e+001 1.435238e+002 -5.524629e+000 -1.609495e+000
11237506250 -8.128839e+000 -8.544041e+001 -3.284195e+001 1.423350e+002 -3.266343e+001 1.416243e+002 -5.589051e+000 -2.720953e+000
11256250000 -8.158228e+000 -8.715139e+001 -3.247258e+001 1.401986e+002 -3.228829e+001 1.395412e+002 -5.654865e+000 -3.814233e+000
11274993750 -8.190928e+000 -8.885011e+001 -3.211023e+001 1.379603e+002 -3.191099e+001 1.373091e+002 -5.728139e+000 -4.890997e+000
11293737500 -8.229931e+000 -9.054441e+001 -3.173112e+001 1.358023e+002 -3.155789e+001 1.350388e+002 -5.799858e+000 -6.011766e+000
11312481250 -8.268253e+000 -9.220219e+001 -3.136181e+001 1.336479e+002 -3.119204e+001 1.327092e+002 -5.875026e+000 -7.105210e+000
11331225000 -8.312492e+000 -9.383773e+001 -3.098101e+001 1.313852e+002 -3.081787e+001 1.303163e+002 -5.952520e+000 -8.246625e+000
11349968750 -8.364222e+000 -9.546758e+001 -3.060142e+001 1.291093e+002 -3.043679e+001 1.278529e+002 -6.029741e+000 -9.386890e+000
11368712500 -8.415237e+000 -9.710155e+001 -3.021519e+001 1.267378e+002 -3.006377e+001 1.255403e+002 -6.107368e+000 -1.051747e+001
11387456250 -8.474250e+000 -9.871655e+001 -2.984523e+001 1.242664e+002 -2.968535e+001 1.232391e+002 -6.193985e+000 -1.166308e+001
11406200000 -8.532401e+000 -1.003180e+002 -2.946877e+001 1.218152e+002 -2.931169e+001 1.208109e+002 -6.281891e+000 -1.282102e+001
11424943750 -8.594441e+000 -1.018674e+002 -2.910221e+001 1.193896e+002 -2.893131e+001 1.183759e+002 -6.371566e+000 -1.396258e+001
11443687500 -8.664579e+000 -1.034025e+002 -2.873462e+001 1.169475e+002 -2.855775e+001 1.158459e+002 -6.466711e+000 -1.514932e+001
11462431250 -8.739015e+000 -1.049189e+002 -2.835747e+001 1.144233e+002 -2.819476e+001 1.132570e+002 -6.561437e+000 -1.632436e+001
11481175000 -8.816097e+000 -1.064197e+002 -2.799531e+001 1.118793e+002 -2.782376e+001 1.106205e+002 -6.658174e+000 -1.747429e+001
11499918750 -8.900044e+000 -1.079044e+002 -2.761843e+001 1.092461e+002 -2.745208e+001 1.080470e+002 -6.765612e+000 -1.866032e+001
11518662500 -8.986751e+000 -1.093561e+002 -2.724902e+001 1.066083e+002 -2.709953e+001 1.053091e+002 -6.871161e+000 -1.983837e+001
11537406250 -9.077403e+000 -1.107247e+002 -2.687931e+001 1.039941e+002 -2.672446e+001 1.026238e+002 -6.982107e+000 -2.098053e+001
11556150000 -9.178848e+000 -1.120904e+002 -2.650629e+001 1.012342e+002 -2.635770e+001 9.990800e+001 -7.094296e+000 -2.216406e+001
11574893750 -9.279720e+000 -1.134454e+002 -2.614499e+001 9.860394e+001 -2.600428e+001 9.717160e+001 -7.210729e+000 -2.333669e+001
11593637500 -9.385306e+000 -1.147539e+002 -2.578882e+001 9.585252e+001 -2.562990e+001 9.436821e+001 -7.330160e+000 -2.447464e+001
11612381250 -9.495311e+000 -1.160475e+002 -2.542339e+001 9.301675e+001 -2.527478e+001 9.159498e+001 -7.458669e+000 -2.564499e+001
11631125000 -9.601501e+000 -1.172868e+002 -2.505567e+001 9.025638e+001 -2.492095e+001 8.870110e+001 -7.589654e+000 -2.678134e+001
11649868750 -9.717272e+000 -1.184352e+002 -2.471378e+001 8.730593e+001 -2.455379e+001 8.580704e+001 -7.724423e+000 -2.791476e+001
11668612500 -9.840239e+000 -1.195864e+002 -2.434739e+001 8.436773e+001 -2.420574e+001 8.293040e+001 -7.863799e+000 -2.906240e+001
11687356250 -9.961432e+000 -1.206918e+002 -2.399417e+001 8.141479e+001 -2.386456e+001 7.991929e+001 -8.002970e+000 -3.016483e+001
11706100000 -1.008842e+001 -1.217412e+002 -2.365270e+001 7.836508e+001 -2.351480e+001 7.689474e+001 -8.144529e+000 -3.126301e+001
11724843750 -1.021398e+001 -1.227759e+002 -2.329848e+001 7.530336e+001 -2.317286e+001 7.391253e+001 -8.296545e+000 -3.233879e+001
11743587500 -1.033582e+001 -1.237264e+002 -2.295793e+001 7.225405e+001 -2.283821e+001 7.078760e+001 -8.450101e+000 -3.339118e+001
11762331250 -1.046698e+001 -1.245866e+002 -2.262831e+001 6.906904e+001 -2.249998e+001 6.768682e+001 -8.611558e+000 -3.442651e+001
11781075000 -1.059612e+001 -1.254579e+002 -2.228992e+001 6.591730e+001 -2.217912e+001 6.463236e+001 -8.773684e+000 -3.546239e+001
11799818750 -1.072157e+001 -1.262434e+002 -2.196041e+001 6.272443e+001 -2.185652e+001 6.138305e+001 -8.935147e+000 -3.642749e+001
11818562500 -1.084725e+001 -1.269796e+002 -2.162971e+001 5.949553e+001 -2.153398e+001 5.818771e+001 -9.108395e+000 -3.738377e+001
11837306250 -1.097259e+001 -1.277163e+002 -2.131454e+001 5.623935e+001 -2.122044e+001 5.498651e+001 -9.282052e+000 -3.832759e+001
11856050000 -1.108909e+001 -1.283641e+002 -2.100117e+001 5.300870e+001 -2.091328e+001 5.171002e+001 -9.458620e+000 -3.921373e+001
11874793750 -1.121166e+001 -1.289046e+002 -2.069773e+001 4.970035e+001 -2.060543e+001 4.840131e+001 -9.642437e+000 -4.007894e+001
11893537500 -1.133358e+001 -1.295032e+002 -2.039713e+001 4.633787e+001 -2.031588e+001 4.511903e+001 -9.822889e+000 -4.096583e+001
11912281250 -1.144294e+001 -1.300119e+002 -2.010155e+001 4.302203e+001 -2.002935e+001 4.179476e+001 -9.996768e+000 -4.174357e+001
11931025000 -1.155606e+001 -1.304723e+002 -1.981929e+001 3.963298e+001 -1.974000e+001 3.844464e+001 -1.018411e+001 -4.247667e+001
11949768750 -1.165530e+001 -1.309783e+002 -1.953284e+001 3.618739e+001 -1.946367e+001 3.507206e+001 -1.037032e+001 -4.320354e+001
11968512500 -1.174180e+001 -1.313820e+002 -1.925898e+001 3.277121e+001 -1.919081e+001 3.164749e+001 -1.055392e+001 -4.386922e+001
11987256250 -1.183521e+001 -1.317042e+002 -1.899113e+001 2.931917e+001 -1.892494e+001 2.822483e+001 -1.074948e+001 -4.452909e+001
12006000000 -1.192448e+001 -1.320882e+002 -1.871916e+001 2.582422e+001 -1.866597e+001 2.479407e+001 -1.093082e+001 -4.516951e+001
12024743750 -1.200558e+001 -1.323886e+002 -1.846295e+001 2.242847e+001 -1.841483e+001 2.133114e+001 -1.111096e+001 -4.571213e+001
12043487500 -1.209067e+001 -1.327090e+002 -1.821734e+001 1.891062e+001 -1.816627e+001 1.782840e+001 -1.130137e+001 -4.623024e+001
12062231250 -1.215938e+001 -1.331047e+002 -1.796867e+001 1.538169e+001 -1.793263e+001 1.433890e+001 -1.148179e+001 -4.674006e+001
12080975000 -1.221859e+001 -1.333727e+002 -1.773187e+001 1.191842e+001 -1.770674e+001 1.083508e+001 -1.166089e+001 -4.719638e+001
12099718750 -1.228517e+001 -1.336428e+002 -1.750833e+001 8.378014e+000 -1.747276e+001 7.287725e+000 -1.184534e+001 -4.765508e+001
12118462500 -1.234452e+001 -1.339744e+002 -1.728240e+001 4.841952e+000 -1.724780e+001 3.831316e+000 -1.201086e+001 -4.811717e+001
12137206250 -1.239859e+001 -1.342280e+002 -1.706162e+001 1.380838e+000 -1.703802e+001 3.175017e-001 -1.218002e+001 -4.848348e+001
12155950000 -1.245673e+001 -1.345658e+002 -1.685871e+001 -2.152527e+000 -1.682719e+001 -3.224535e+000 -1.235084e+001 -4.885185e+001
12174693750 -1.249644e+001 -1.349283e+002 -1.664849e+001 -5.685033e+000 -1.662528e+001 -6.694087e+000 -1.251065e+001 -4.922370e+001
12193437500 -1.253293e+001 -1.352049e+002 -1.645325e+001 -9.116567e+000 -1.643235e+001 -1.021817e+001 -1.266518e+001 -4.955430e+001
12212181250 -1.258222e+001 -1.355224e+002 -1.626941e+001 -1.265139e+001 -1.623800e+001 -1.372983e+001 -1.282236e+001 -4.987929e+001
12230925000 -1.262379e+001 -1.358692e+002 -1.608368e+001 -1.613549e+001 -1.605738e+001 -1.719540e+001 -1.296412e+001 -5.021740e+001
12249668750 -1.267060e+001 -1.362158e+002 -1.591331e+001 -1.962680e+001 -1.588316e+001 -2.072141e+001 -1.309937e+001 -5.047945e+001
12268412500 -1.271545e+001 -1.366111e+002 -1.574301e+001 -2.311548e+001 -1.570593e+001 -2.418939e+001 -1.323923e+001 -5.073007e+001
12287156250 -1.275063e+001 -1.370265e+002 -1.557555e+001 -2.657144e+001 -1.554665e+001 -2.761333e+001 -1.336960e+001 -5.103904e+001
12305900000 -1.278192e+001 -1.374142e+002 -1.541080e+001 -3.002603e+001 -1.538766e+001 -3.110879e+001 -1.349193e+001 -5.132748e+001
12324643750 -1.282513e+001 -1.377755e+002 -1.525839e+001 -3.343320e+001 -1.522736e+001 -3.451885e+001 -1.361077e+001 -5.162167e+001
12343387500 -1.286663e+001 -1.381564e+002 -1.510874e+001 -3.687965e+001 -1.508216e+001 -3.793481e+001 -1.372426e+001 -5.194231e+001
12362131250 -1.291445e+001 -1.385600e+002 -1.495805e+001 -4.026648e+001 -1.493691e+001 -4.139066e+001 -1.382896e+001 -5.221555e+001
12380875000 -1.296367e+001 -1.390154e+002 -1.482050e+001 -4.362764e+001 -1.479655e+001 -4.473766e+001 -1.393791e+001 -5.251822e+001
12399618750 -1.300941e+001 -1.394541e+002 -1.468597e+001 -4.703401e+001 -1.466838e+001 -4.810526e+001 -1.404350e+001 -5.287426e+001
12418362500 -1.305487e+001 -1.398362e+002 -1.454770e+001 -5.036448e+001 -1.453302e+001 -5.148688e+001 -1.413998e+001 -5.322292e+001
12437106250 -1.310604e+001 -1.401924e+002 -1.442596e+001 -5.369485e+001 -1.440388e+001 -5.479293e+001 -1.423175e+001 -5.362428e+001
12455850000 -1.316086e+001 -1.405949e+002 -1.430176e+001 -5.706818e+001 -1.428754e+001 -5.812003e+001 -1.431778e+001 -5.406958e+001
12474593750 -1.321678e+001 -1.409551e+002 -1.417913e+001 -6.031709e+001 -1.416515e+001 -6.143292e+001 -1.439558e+001 -5.447104e+001
12493337500 -1.327735e+001 -1.413240e+002 -1.407119e+001 -6.360158e+001 -1.405093e+001 -6.468893e+001 -1.447615e+001 -5.490885e+001
12512081250 -1.333023e+001 -1.416995e+002 -1.395433e+001 -6.691120e+001 -1.394233e+001 -6.796686e+001 -1.455743e+001 -5.537258e+001
12530825000 -1.338301e+001 -1.419683e+002 -1.384277e+001 -7.009491e+001 -1.383507e+001 -7.120129e+001 -1.463262e+001 -5.585423e+001
12549568750 -1.344355e+001 -1.422106e+002 -1.374270e+001 -7.333488e+001 -1.373370e+001 -7.440443e+001 -1.471124e+001 -5.638368e+001
12568312500 -1.350624e+001 -1.424547e+002 -1.363411e+001 -7.655364e+001 -1.363748e+001 -7.762560e+001 -1.478136e+001 -5.696923e+001
12587056250 -1.356664e+001 -1.426802e+002 -1.353436e+001 -7.968708e+001 -1.354087e+001 -8.078835e+001 -1.484689e+001 -5.756007e+001
12605800000 -1.363269e+001 -1.428931e+002 -1.344177e+001 -8.286021e+001 -1.344435e+001 -8.398683e+001 -1.491597e+001 -5.814996e+001
12624543750 -1.368791e+001 -1.431130e+002 -1.334384e+001 -8.603793e+001 -1.335039e+001 -8.710904e+001 -1.499191e+001 -5.881812e+001
12643287500 -1.373530e+001 -1.432214e+002 -1.325143e+001 -8.914037e+001 -1.326637e+001 -9.023112e+001 -1.505606e+001 -5.954577e+001
12662031250 -1.379010e+001 -1.433018e+002 -1.316496e+001 -9.227092e+001 -1.317566e+001 -9.336162e+001 -1.512719e+001 -6.028081e+001
12680775000 -1.384868e+001 -1.433525e+002 -1.307698e+001 -9.536642e+001 -1.309294e+001 -9.640112e+001 -1.519558e+001 -6.108602e+001
12699518750 -1.390238e+001 -1.434381e+002 -1.299337e+001 -9.845599e+001 -1.301711e+001 -9.949955e+001 -1.525957e+001 -6.187443e+001
12718262500 -1.394864e+001 -1.434962e+002 -1.290987e+001 -1.015290e+002 -1.292801e+001 -1.025542e+002 -1.533609e+001 -6.268192e+001
12737006250 -1.399327e+001 -1.435126e+002 -1.283127e+001 -1.045630e+002 -1.285440e+001 -1.055431e+002 -1.541028e+001 -6.359604e+001
12755750000 -1.402549e+001 -1.435007e+002 -1.275498e+001 -1.076199e+002 -1.277983e+001 -1.086098e+002 -1.548580e+001 -6.451255e+001
12774493750 -1.406170e+001 -1.434294e+002 -1.267628e+001 -1.106324e+002 -1.269927e+001 -1.115974e+002 -1.556761e+001 -6.550379e+001
12793237500 -1.409534e+001 -1.433620e+002 -1.260692e+001 -1.136237e+002 -1.263453e+001 -1.145401e+002 -1.564071e+001 -6.655962e+001
12811981250 -1.412415e+001 -1.432831e+002 -1.253097e+001 -1.166424e+002 -1.256131e+001 -1.175420e+002 -1.571602e+001 -6.755594e+001
12830725000 -1.414410e+001 -1.432542e+002 -1.245479e+001 -1.195805e+002 -1.248365e+001 -1.204742e+002 -1.580186e+001 -6.865081e+001
12849468750 -1.415713e+001 -1.432369e+002 -1.239100e+001 -1.225239e+002 -1.242096e+001 -1.234065e+002 -1.588176e+001 -6.979046e+001
12868212500 -1.416295e+001 -1.431521e+002 -1.232083e+001 -1.254746e+002 -1.235729e+001 -1.263725e+002 -1.597170e+001 -7.092716e+001
12886956250 -1.416477e+001 -1.430352e+002 -1.225111e+001 -1.283547e+002 -1.228752e+001 -1.292449e+002 -1.606691e+001 -7.215112e+001
12905700000 -1.416923e+001 -1.429593e+002 -1.219104e+001 -1.312649e+002 -1.222816e+001 -1.321196e+002 -1.615221e+001 -7.344267e+001
12924443750 -1.416385e+001 -1.429227e+002 -1.212055e+001 -1.341835e+002 -1.216314e+001 -1.350267e+002 -1.625391e+001 -7.472365e+001
12943187500 -1.415675e+001 -1.429050e+002 -1.205918e+001 -1.369901e+002 -1.209835e+001 -1.378537e+002 -1.636055e+001 -7.608482e+001
12961931250 -1.413965e+001 -1.428927e+002 -1.200366e+001 -1.398875e+002 -1.204463e+001 -1.407005e+002 -1.646084e+001 -7.754045e+001
12980675000 -1.411505e+001 -1.428492e+002 -1.193832e+001 -1.427418e+002 -1.198344e+001 -1.435771e+002 -1.657059e+001 -7.897637e+001
12999418750 -1.409022e+001 -1.428289e+002 -1.188508e+001 -1.455512e+002 -1.191977e+001 -1.463582e+002 -1.668915e+001 -8.047719e+001
13018162500 -1.407084e+001 -1.428159e+002 -1.183219e+001 -1.484079e+002 -1.186380e+001 -1.491737e+002 -1.681012e+001 -8.202978e+001
13036906250 -1.404087e+001 -1.429013e+002 -1.176953e+001 -1.512375e+002 -1.180854e+001 -1.519604e+002 -1.694608e+001 -8.362046e+001
13055650000 -1.400441e+001 -1.430006e+002 -1.171814e+001 -1.539957e+002 -1.175397e+001 -1.547398e+002 -1.707960e+001 -8.525401e+001
13074393750 -1.396840e+001 -1.430944e+002 -1.166822e+001 -1.568255e+002 -1.169952e+001 -1.575147e+002 -1.721621e+001 -8.695915e+001
13093137500 -1.392189e+001 -1.431917e+002 -1.160721e+001 -1.596023e+002 -1.164691e+001 -1.602878e+002 -1.736698e+001 -8.873342e+001
13111881250 -1.387559e+001 -1.433171e+002 -1.155734e+001 -1.623601e+002 -1.158993e+001 -1.630532e+002 -1.752235e+001 -9.052821e+001
13130625000 -1.383871e+001 -1.434316e+002 -1.150672e+001 -1.651191e+002 -1.153736e+001 -1.657530e+002 -1.768497e+001 -9.242645e+001
13149368750 -1.380065e+001 -1.436592e+002 -1.145164e+001 -1.678482e+002 -1.148909e+001 -1.685246e+002 -1.785024e+001 -9.443015e+001
13168112500 -1.375425e+001 -1.439193e+002 -1.140694e+001 -1.705849e+002 -1.143366e+001 -1.712462e+002 -1.803322e+001 -9.645344e+001
13186856250 -1.370315e+001 -1.441401e+002 -1.135765e+001 -1.733137e+002 -1.139173e+001 -1.739134e+002 -1.821878e+001 -9.858279e+001
13205600000 -1.365430e+001 -1.444264e+002 -1.130968e+001 -1.760070e+002 -1.134294e+001 -1.766488e+002 -1.841348e+001 -1.007423e+002
13224343750 -1.360791e+001 -1.447142e+002 -1.126241e+001 -1.787314e+002 -1.128839e+001 -1.793284e+002 -1.862982e+001 -1.030496e+002
13243087500 -1.356502e+001 -1.449963e+002 -1.121957e+001 1.785845e+002 -1.124958e+001 1.779992e+002 -1.884875e+001 -1.054967e+002
13261831250 -1.352702e+001 -1.453557e+002 -1.117396e+001 1.759021e+002 -1.120370e+001 1.752838e+002 -1.907271e+001 -1.079515e+002
13280575000 -1.348072e+001 -1.457358e+002 -1.112965e+001 1.731981e+002 -1.115625e+001 1.726689e+002 -1.930954e+001 -1.105889e+002
13299318750 -1.343369e+001 -1.461192e+002 -1.108545e+001 1.705422e+002 -1.111905e+001 1.700074e+002 -1.954210e+001 -1.132872e+002
13318062500 -1.339015e+001 -1.465079e+002 -1.104691e+001 1.678768e+002 -1.107099e+001 1.673132e+002 -1.979598e+001 -1.160784e+002
13336806250 -1.334568e+001 -1.468932e+002 -1.100296e+001 1.651894e+002 -1.102556e+001 1.647144e+002 -2.005616e+001 -1.191434e+002
13355550000 -1.331309e+001 -1.472634e+002 -1.096497e+001 1.625654e+002 -1.099094e+001 1.620449e+002 -2.031407e+001 -1.223063e+002
13374293750 -1.328028e+001 -1.477201e+002 -1.092863e+001 1.598878e+002 -1.094524e+001 1.593823e+002 -2.057032e+001 -1.256703e+002
13393037500 -1.323936e+001 -1.482126e+002 -1.088485e+001 1.572557e+002 -1.090239e+001 1.568093e+002 -2.083389e+001 -1.291247e+002
13411781250 -1.319779e+001 -1.486864e+002 -1.084808e+001 1.546542e+002 -1.087130e+001 1.541806e+002 -2.108675e+001 -1.326364e+002
13430525000 -1.316010e+001 -1.491514e+002 -1.081472e+001 1.520003e+002 -1.082680e+001 1.515373e+002 -2.136820e+001 -1.363825e+002
13449268750 -1.312277e+001 -1.496115e+002 -1.077600e+001 1.493964e+002 -1.078979e+001 1.489613e+002 -2.162283e+001 -1.404260e+002
13468012500 -1.309836e+001 -1.500664e+002 -1.074725e+001 1.468134e+002 -1.075967e+001 1.463399e+002 -2.185755e+001 -1.446444e+002
13486756250 -1.307152e+001 -1.506044e+002 -1.071219e+001 1.441938e+002 -1.071877e+001 1.437372e+002 -2.208606e+001 -1.490553e+002
13505500000 -1.303608e+001 -1.511537e+002 -1.067593e+001 1.416275e+002 -1.068837e+001 1.411790e+002 -2.228758e+001 -1.535645e+002
13524243750 -1.300821e+001 -1.516821e+002 -1.065150e+001 1.390551e+002 -1.065934e+001 1.385671e+002 -2.248829e+001 -1.581001e+002
13542987500 -1.297458e+001 -1.521974e+002 -1.062052e+001 1.364568e+002 -1.062172e+001 1.359971e+002 -2.268246e+001 -1.629280e+002
13561731250 -1.294233e+001 -1.526859e+002 -1.059053e+001 1.339188e+002 -1.059376e+001 1.334584e+002 -2.283618e+001 -1.679190e+002
13580475000 -1.292064e+001 -1.531747e+002 -1.056713e+001 1.313260e+002 -1.056490e+001 1.308772e+002 -2.297415e+001 -1.728406e+002
13599218750 -1.289400e+001 -1.537433e+002 -1.053389e+001 1.287602e+002 -1.053133e+001 1.283272e+002 -2.307423e+001 -1.780107e+002
13617962500 -1.286645e+001 -1.543379e+002 -1.050653e+001 1.262515e+002 -1.050409e+001 1.258054e+002 -2.315126e+001 1.769790e+002
13636706250 -1.284050e+001 -1.548940e+002 -1.048445e+001 1.236722e+002 -1.047832e+001 1.232342e+002 -2.322420e+001 1.717949e+002
13655450000 -1.280982e+001 -1.554202e+002 -1.045477e+001 1.211407e+002 -1.044865e+001 1.207269e+002 -2.324055e+001 1.663788e+002
13674193750 -1.278646e+001 -1.559529e+002 -1.043237e+001 1.186475e+002 -1.042457e+001 1.182027e+002 -2.322194e+001 1.610916e+002
13692937500 -1.276774e+001 -1.564997e+002 -1.041371e+001 1.160909e+002 -1.040061e+001 1.156397e+002 -2.318526e+001 1.558271e+002
13711681250 -1.274519e+001 -1.571021e+002 -1.038896e+001 1.135812e+002 -1.037546e+001 1.131246e+002 -2.311115e+001 1.507045e+002
13730425000 -1.271811e+001 -1.576981e+002 -1.037706e+001 1.110987e+002 -1.035426e+001 1.106149e+002 -2.303420e+001 1.456240e+002
13749168750 -1.269359e+001 -1.582927e+002 -1.035618e+001 1.085627e+002 -1.033164e+001 1.080940e+002 -2.292328e+001 1.404213e+002
13767912500 -1.266552e+001 -1.588777e+002 -1.033566e+001 1.061034e+002 -1.031061e+001 1.055830e+002 -2.277590e+001 1.353227e+002
13786656250 -1.263983e+001 -1.594657e+002 -1.032518e+001 1.036215e+002 -1.029279e+001 1.031116e+002 -2.258993e+001 1.303491e+002
13805400000 -1.261583e+001 -1.600704e+002 -1.030813e+001 1.011182e+002 -1.027378e+001 1.006297e+002 -2.239218e+001 1.255906e+002
13824143750 -1.259094e+001 -1.607282e+002 -1.029042e+001 9.868845e+001 -1.025701e+001 9.814393e+001 -2.217431e+001 1.209650e+002
13842887500 -1.256615e+001 -1.613734e+002 -1.028424e+001 9.621074e+001 -1.024339e+001 9.564840e+001 -2.196232e+001 1.163548e+002
13861631250 -1.253910e+001 -1.620514e+002 -1.026438e+001 9.373525e+001 -1.022580e+001 9.318650e+001 -2.170514e+001 1.117985e+002
13880375000 -1.250762e+001 -1.627119e+002 -1.025074e+001 9.130123e+001 -1.021286e+001 9.071253e+001 -2.143006e+001 1.075498e+002
13899118750 -1.248047e+001 -1.633653e+002 -1.024475e+001 8.883108e+001 -1.020096e+001 8.822824e+001 -2.114240e+001 1.035061e+002
13917862500 -1.245912e+001 -1.640379e+002 -1.023102e+001 8.637684e+001 -1.018934e+001 8.577380e+001 -2.085271e+001 9.970642e+001
13936606250 -1.243721e+001 -1.647873e+002 -1.022131e+001 8.397750e+001 -1.017690e+001 8.332776e+001 -2.057849e+001 9.607415e+001
13955350000 -1.241012e+001 -1.655253e+002 -1.021945e+001 8.151138e+001 -1.016780e+001 8.087525e+001 -2.029564e+001 9.244406e+001
13974093750 -1.238741e+001 -1.662911e+002 -1.020552e+001 7.909122e+001 -1.016219e+001 7.843595e+001 -1.999194e+001 8.897239e+001
13992837500 -1.235838e+001 -1.670820e+002 -1.020011e+001 7.669038e+001 -1.015598e+001 7.600372e+001 -1.969829e+001 8.570471e+001
14011581250 -1.233365e+001 -1.678508e+002 -1.020185e+001 7.425375e+001 -1.014973e+001 7.357100e+001 -1.938945e+001 8.253976e+001
14030325000 -1.231435e+001 -1.687026e+002 -1.019322e+001 7.186375e+001 -1.014750e+001 7.115422e+001 -1.910519e+001 7.968449e+001
14049068750 -1.228938e+001 -1.695513e+002 -1.019590e+001 6.950129e+001 -1.014490e+001 6.874404e+001 -1.883239e+001 7.677401e+001
14067812500 -1.226554e+001 -1.704177e+002 -1.019664e+001 6.707629e+001 -1.014296e+001 6.636367e+001 -1.855364e+001 7.396787e+001
14086556250 -1.224398e+001 -1.713553e+002 -1.019436e+001 6.473543e+001 -1.014435e+001 6.395433e+001 -1.828919e+001 7.145531e+001
14105300000 -1.221855e+001 -1.722735e+002 -1.020036e+001 6.237874e+001 -1.014329e+001 6.157246e+001 -1.803283e+001 6.894479e+001
14124043750 -1.220235e+001 -1.731746e+002 -1.020200e+001 5.998320e+001 -1.014855e+001 5.921986e+001 -1.777526e+001 6.652927e+001
14142787500 -1.219405e+001 -1.741562e+002 -1.020267e+001 5.768205e+001 -1.015406e+001 5.684342e+001 -1.753930e+001 6.417709e+001
14161531250 -1.218126e+001 -1.751615e+002 -1.021000e+001 5.534690e+001 -1.015631e+001 5.450502e+001 -1.730544e+001 6.184532e+001
14180275000 -1.217047e+001 -1.761750e+002 -1.021231e+001 5.298638e+001 -1.016321e+001 5.216834e+001 -1.707655e+001 5.964694e+001
14199018750 -1.216882e+001 -1.772669e+002 -1.021763e+001 5.070457e+001 -1.017211e+001 4.982296e+001 -1.686323e+001 5.758167e+001
14217762500 -1.216171e+001 -1.783109e+002 -1.022872e+001 4.839901e+001 -1.018021e+001 4.749206e+001 -1.665718e+001 5.553566e+001
14236506250 -1.217107e+001 -1.793707e+002 -1.023201e+001 4.608308e+001 -1.019158e+001 4.517665e+001 -1.645765e+001 5.354553e+001
14255250000 -1.218143e+001 1.794760e+002 -1.024081e+001 4.381020e+001 -1.020161e+001 4.284406e+001 -1.627061e+001 5.160378e+001
14273993750 -1.218770e+001 1.783325e+002 -1.025298e+001 4.153106e+001 -1.020971e+001 4.056563e+001 -1.608515e+001 4.965284e+001
14292737500 -1.220293e+001 1.772094e+002 -1.026070e+001 3.926189e+001 -1.022790e+001 3.829368e+001 -1.589974e+001 4.781440e+001
14311481250 -1.221858e+001 1.760128e+002 -1.027465e+001 3.702821e+001 -1.023914e+001 3.600426e+001 -1.573505e+001 4.599950e+001
14330225000 -1.223338e+001 1.748510e+002 -1.028783e+001 3.477305e+001 -1.024930e+001 3.377375e+001 -1.557988e+001 4.422560e+001
14348968750 -1.226546e+001 1.736862e+002 -1.029449e+001 3.253263e+001 -1.026790e+001 3.153728e+001 -1.542328e+001 4.248947e+001
14367712500 -1.229563e+001 1.724384e+002 -1.030985e+001 3.032673e+001 -1.028183e+001 2.925674e+001 -1.528249e+001 4.078637e+001
14386456250 -1.232433e+001 1.712093e+002 -1.032035e+001 2.811808e+001 -1.029313e+001 2.706026e+001 -1.514055e+001 3.906428e+001
14405200000 -1.236478e+001 1.699906e+002 -1.032808e+001 2.592473e+001 -1.030966e+001 2.485350e+001 -1.500661e+001 3.740841e+001
14423943750 -1.240633e+001 1.687105e+002 -1.034377e+001 2.375896e+001 -1.031989e+001 2.262882e+001 -1.487728e+001 3.579696e+001
14442687500 -1.245385e+001 1.674615e+002 -1.035207e+001 2.155845e+001 -1.033414e+001 2.044980e+001 -1.475603e+001 3.420006e+001
14461431250 -1.251374e+001 1.662269e+002 -1.036118e+001 1.940163e+001 -1.035155e+001 1.826083e+001 -1.463318e+001 3.263359e+001
14480175000 -1.257321e+001 1.649136e+002 -1.037467e+001 1.723320e+001 -1.036023e+001 1.604737e+001 -1.452855e+001 3.103680e+001
14498918750 -1.263473e+001 1.636385e+002 -1.038221e+001 1.507716e+001 -1.037087e+001 1.390294e+001 -1.442111e+001 2.948666e+001
14517662500 -1.270149e+001 1.623477e+002 -1.039017e+001 1.293420e+001 -1.038723e+001 1.173667e+001 -1.432189e+001 2.795089e+001
14536406250 -1.276843e+001 1.610589e+002 -1.040256e+001 1.078859e+001 -1.039670e+001 9.561090e+000 -1.423068e+001 2.639578e+001
14555150000 -1.284417e+001 1.597829e+002 -1.040970e+001 8.657186e+000 -1.040491e+001 7.434654e+000 -1.413710e+001 2.486675e+001
14573893750 -1.292826e+001 1.584670e+002 -1.041780e+001 6.512051e+000 -1.041994e+001 5.273123e+000 -1.405192e+001 2.335595e+001
14592637500 -1.300960e+001 1.571203e+002 -1.042495e+001 4.384162e+000 -1.042556e+001 3.130164e+000 -1.397924e+001 2.183325e+001
14611381250 -1.309643e+001 1.557862e+002 -1.042992e+001 2.275865e+000 -1.043616e+001 1.047569e+000 -1.390586e+001 2.033916e+001
14630125000 -1.318379e+001 1.544687e+002 -1.043472e+001 1.620097e-001 -1.044757e+001 -1.107859e+000 -1.383336e+001 1.886024e+001
14648868750 -1.327269e+001 1.531105e+002 -1.043760e+001 -1.960065e+000 -1.045078e+001 -3.222554e+000 -1.377571e+001 1.737117e+001
14667612500 -1.336973e+001 1.517710e+002 -1.043938e+001 -4.075589e+000 -1.045798e+001 -5.309363e+000 -1.371590e+001 1.590147e+001
14686356250 -1.347250e+001 1.503837e+002 -1.044422e+001 -6.193418e+000 -1.046485e+001 -7.448026e+000 -1.366747e+001 1.445061e+001
14705100000 -1.357093e+001 1.489757e+002 -1.044583e+001 -8.296919e+000 -1.046583e+001 -9.543786e+000 -1.363153e+001 1.301067e+001
14723843750 -1.367621e+001 1.475714e+002 -1.044500e+001 -1.040673e+001 -1.047346e+001 -1.163926e+001 -1.359287e+001 1.156369e+001
14742587500 -1.378332e+001 1.461534e+002 -1.044340e+001 -1.252445e+001 -1.047820e+001 -1.378335e+001 -1.356112e+001 1.011992e+001
14761331250 -1.389212e+001 1.447460e+002 -1.044125e+001 -1.462560e+001 -1.047829e+001 -1.587740e+001 -1.353465e+001 8.675158e+000
14780075000 -1.401378e+001 1.433026e+002 -1.044146e+001 -1.673128e+001 -1.048236e+001 -1.798627e+001 -1.350970e+001 7.245238e+000
14798818750 -1.413290e+001 1.418355e+002 -1.044094e+001 -1.886467e+001 -1.048456e+001 -2.011314e+001 -1.349645e+001 5.840236e+000
14817562500 -1.426143e+001 1.403288e+002 -1.043768e+001 -2.099143e+001 -1.048321e+001 -2.219916e+001 -1.348955e+001 4.429768e+000
14836306250 -1.438604e+001 1.388084e+002 -1.043766e+001 -2.310923e+001 -1.048982e+001 -2.429772e+001 -1.348297e+001 3.047040e+000
14855050000 -1.451695e+001 1.373219e+002 -1.043483e+001 -2.525972e+001 -1.048880e+001 -2.646999e+001 -1.348358e+001 1.649851e+000
14873793750 -1.464966e+001 1.358069e+002 -1.043203e+001 -2.735970e+001 -1.048772e+001 -2.855964e+001 -1.349395e+001 2.158271e-001
14892537500 -1.479845e+001 1.342229e+002 -1.043117e+001 -2.950257e+001 -1.049113e+001 -3.069584e+001 -1.350570e+001 -1.152218e+000
14911281250 -1.494145e+001 1.325876e+002 -1.042724e+001 -3.167798e+001 -1.048864e+001 -3.284695e+001 -1.352429e+001 -2.508989e+000
14930025000 -1.509081e+001 1.309335e+002 -1.042511e+001 -3.380095e+001 -1.048939e+001 -3.495168e+001 -1.355279e+001 -3.880792e+000
14948768750 -1.524382e+001 1.292827e+002 -1.042670e+001 -3.597180e+001 -1.049254e+001 -3.709776e+001 -1.357876e+001 -5.222102e+000
14967512500 -1.539855e+001 1.275883e+002 -1.042158e+001 -3.813613e+001 -1.048744e+001 -3.924896e+001 -1.361273e+001 -6.552041e+000
14986256250 -1.556026e+001 1.258319e+002 -1.041877e+001 -4.025858e+001 -1.048950e+001 -4.139705e+001 -1.364818e+001 -7.882859e+000
15005000000 -1.572384e+001 1.240586e+002 -1.042067e+001 -4.244569e+001 -1.049029e+001 -4.355183e+001 -1.369331e+001 -9.232109e+000
15023743750 -1.590237e+001 1.222243e+002 -1.040985e+001 -4.461343e+001 -1.049139e+001 -4.568641e+001 -1.373746e+001 -1.054444e+001
15042487500 -1.607954e+001 1.203181e+002 -1.041122e+001 -4.676451e+001 -1.049286e+001 -4.786318e+001 -1.378841e+001 -1.183876e+001
15061231250 -1.624931e+001 1.184151e+002 -1.041305e+001 -4.898097e+001 -1.049345e+001 -5.001086e+001 -1.385177e+001 -1.317481e+001
15079975000 -1.644015e+001 1.164945e+002 -1.040790e+001 -5.115041e+001 -1.049788e+001 -5.219379e+001 -1.390654e+001 -1.445603e+001
15098718750 -1.663013e+001 1.145020e+002 -1.041363e+001 -5.330039e+001 -1.049748e+001 -5.438482e+001 -1.397577e+001 -1.573876e+001
15117462500 -1.683685e+001 1.124715e+002 -1.041371e+001 -5.553456e+001 -1.050556e+001 -5.652194e+001 -1.404249e+001 -1.702446e+001
15136206250 -1.704754e+001 1.103451e+002 -1.040980e+001 -5.772520e+001 -1.051227e+001 -5.871597e+001 -1.411232e+001 -1.824656e+001
15154950000 -1.724613e+001 1.081647e+002 -1.042084e+001 -5.990780e+001 -1.050988e+001 -6.089162e+001 -1.419616e+001 -1.948837e+001
15173693750 -1.745579e+001 1.059213e+002 -1.042416e+001 -6.214350e+001 -1.051726e+001 -6.303742e+001 -1.427902e+001 -2.075116e+001
15192437500 -1.767834e+001 1.036675e+002 -1.042484e+001 -6.433429e+001 -1.052541e+001 -6.525200e+001 -1.436296e+001 -2.193964e+001
15211181250 -1.790302e+001 1.012700e+002 -1.043882e+001 -6.653500e+001 -1.052547e+001 -6.741515e+001 -1.446068e+001 -2.314405e+001
15229925000 -1.812321e+001 9.878261e+001 -1.044355e+001 -6.877108e+001 -1.053683e+001 -6.957903e+001 -1.455014e+001 -2.435458e+001
15248668750 -1.834535e+001 9.628613e+001 -1.044740e+001 -7.094768e+001 -1.054643e+001 -7.179340e+001 -1.465020e+001 -2.547443e+001
15267412500 -1.856920e+001 9.363354e+001 -1.046147e+001 -7.315430e+001 -1.054821e+001 -7.395811e+001 -1.477108e+001 -2.666312e+001
15286156250 -1.878642e+001 9.093764e+001 -1.046626e+001 -7.540559e+001 -1.056389e+001 -7.611710e+001 -1.487888e+001 -2.786583e+001
15304900000 -1.903153e+001 8.815514e+001 -1.047324e+001 -7.760767e+001 -1.057366e+001 -7.834703e+001 -1.499232e+001 -2.895377e+001
15323643750 -1.926156e+001 8.520033e+001 -1.049100e+001 -7.981464e+001 -1.058230e+001 -8.049708e+001 -1.511222e+001 -3.011901e+001
15342387500 -1.948087e+001 8.222114e+001 -1.049752e+001 -8.204314e+001 -1.059680e+001 -8.267197e+001 -1.522898e+001 -3.123675e+001
15361131250 -1.970231e+001 7.918943e+001 -1.050779e+001 -8.422355e+001 -1.060932e+001 -8.491981e+001 -1.535977e+001 -3.231151e+001
15379875000 -1.991151e+001 7.603461e+001 -1.052231e+001 -8.644672e+001 -1.062106e+001 -8.708737e+001 -1.550509e+001 -3.342810e+001
15398618750 -2.012366e+001 7.291555e+001 -1.053073e+001 -8.868565e+001 -1.064180e+001 -8.926726e+001 -1.563897e+001 -3.453144e+001
15417362500 -2.035064e+001 6.958635e+001 -1.054421e+001 -9.089148e+001 -1.065317e+001 -9.145979e+001 -1.579096e+001 -3.555129e+001
15436106250 -2.054039e+001 6.601884e+001 -1.056252e+001 -9.311257e+001 -1.066727e+001 -9.363573e+001 -1.594722e+001 -3.656416e+001
15454850000 -2.071818e+001 6.258884e+001 -1.057864e+001 -9.536543e+001 -1.068196e+001 -9.585698e+001 -1.610647e+001 -3.751404e+001
15473593750 -2.088692e+001 5.910289e+001 -1.059375e+001 -9.756307e+001 -1.069866e+001 -9.805433e+001 -1.628103e+001 -3.849999e+001
15492337500 -2.104358e+001 5.542916e+001 -1.061614e+001 -9.979572e+001 -1.071698e+001 -1.002520e+002 -1.645247e+001 -3.943621e+001
15511081250 -2.119705e+001 5.181208e+001 -1.063041e+001 -1.020572e+002 -1.073047e+001 -1.024324e+002 -1.662919e+001 -4.041731e+001
15529825000 -2.133872e+001 4.796354e+001 -1.064879e+001 -1.042706e+002 -1.074926e+001 -1.046348e+002 -1.680929e+001 -4.129145e+001
15548568750 -2.141612e+001 4.407232e+001 -1.067335e+001 -1.064998e+002 -1.076658e+001 -1.068673e+002 -1.700273e+001 -4.211944e+001
15567312500 -2.150398e+001 4.028059e+001 -1.069088e+001 -1.087556e+002 -1.078242e+001 -1.090651e+002 -1.719845e+001 -4.294609e+001
15586056250 -2.158787e+001 3.639340e+001 -1.071291e+001 -1.109557e+002 -1.080527e+001 -1.112720e+002 -1.741363e+001 -4.372221e+001
15604800000 -2.163947e+001 3.259394e+001 -1.073718e+001 -1.132011e+002 -1.082506e+001 -1.134996e+002 -1.763836e+001 -4.453651e+001
15623543750 -2.169329e+001 2.870001e+001 -1.075598e+001 -1.154327e+002 -1.084507e+001 -1.156805e+002 -1.785803e+001 -4.526934e+001
15642287500 -2.170336e+001 2.472996e+001 -1.078125e+001 -1.176439e+002 -1.087173e+001 -1.179362e+002 -1.808409e+001 -4.589234e+001
15661031250 -2.168717e+001 2.094183e+001 -1.080654e+001 -1.199225e+002 -1.088968e+001 -1.201696e+002 -1.833110e+001 -4.642239e+001
15679775000 -2.166720e+001 1.710267e+001 -1.082845e+001 -1.221571e+002 -1.091180e+001 -1.223673e+002 -1.858179e+001 -4.690144e+001
15698518750 -2.161651e+001 1.327145e+001 -1.085848e+001 -1.243681e+002 -1.093885e+001 -1.246325e+002 -1.884171e+001 -4.730421e+001
15717262500 -2.156270e+001 9.594359e+000 -1.088477e+001 -1.266172e+002 -1.095726e+001 -1.268507e+002 -1.911156e+001 -4.767018e+001
15736006250 -2.148228e+001 5.911752e+000 -1.091041e+001 -1.288602e+002 -1.098535e+001 -1.290496e+002 -1.938260e+001 -4.790303e+001
15754750000 -2.136692e+001 2.283223e+000 -1.094104e+001 -1.311046e+002 -1.101312e+001 -1.313158e+002 -1.967072e+001 -4.797319e+001
15773493750 -2.125051e+001 -1.141594e+000 -1.097079e+001 -1.333681e+002 -1.103800e+001 -1.335330e+002 -1.996872e+001 -4.792469e+001
15792237500 -2.111460e+001 -4.606173e+000 -1.100227e+001 -1.356431e+002 -1.106591e+001 -1.357517e+002 -2.026569e+001 -4.775025e+001
15810981250 -2.097557e+001 -7.892102e+000 -1.103249e+001 -1.378913e+002 -1.109298e+001 -1.380099e+002 -2.055455e+001 -4.742212e+001
15829725000 -2.082837e+001 -1.123175e+001 -1.106255e+001 -1.401133e+002 -1.112010e+001 -1.402430e+002 -2.085491e+001 -4.700865e+001
15848468750 -2.063929e+001 -1.440459e+001 -1.109769e+001 -1.423890e+002 -1.115358e+001 -1.424781e+002 -2.114947e+001 -4.642855e+001
15867212500 -2.045959e+001 -1.737242e+001 -1.113055e+001 -1.446099e+002 -1.117988e+001 -1.447150e+002 -2.143424e+001 -4.554554e+001
15885956250 -2.026137e+001 -2.030348e+001 -1.117258e+001 -1.468630e+002 -1.121455e+001 -1.469727e+002 -2.172017e+001 -4.436953e+001
15904700000 -2.006692e+001 -2.317279e+001 -1.120775e+001 -1.491459e+002 -1.124656e+001 -1.492363e+002 -2.202647e+001 -4.298496e+001
15923443750 -1.987788e+001 -2.584334e+001 -1.124287e+001 -1.513654e+002 -1.128210e+001 -1.514549e+002 -2.231086e+001 -4.151834e+001
15942187500 -1.966204e+001 -2.852991e+001 -1.128779e+001 -1.536032e+002 -1.132358e+001 -1.537116e+002 -2.257224e+001 -3.983675e+001
15960931250 -1.944674e+001 -3.100572e+001 -1.132389e+001 -1.558713e+002 -1.135772e+001 -1.559689e+002 -2.280754e+001 -3.803168e+001
15979675000 -1.925617e+001 -3.335775e+001 -1.136405e+001 -1.580834e+002 -1.139452e+001 -1.581966e+002 -2.300190e+001 -3.606375e+001
15998418750 -1.903335e+001 -3.566149e+001 -1.140997e+001 -1.603192e+002 -1.143507e+001 -1.604695e+002 -2.316249e+001 -3.383107e+001
16017162500 -1.882074e+001 -3.778360e+001 -1.144552e+001 -1.626013e+002 -1.147119e+001 -1.627350e+002 -2.330369e+001 -3.138971e+001
16035906250 -1.861435e+001 -3.993901e+001 -1.148736e+001 -1.648254e+002 -1.151115e+001 -1.649547e+002 -2.341623e+001 -2.886629e+001
16054650000 -1.838588e+001 -4.200458e+001 -1.154013e+001 -1.670859e+002 -1.155594e+001 -1.672310e+002 -2.350663e+001 -2.636671e+001
16073393750 -1.817061e+001 -4.390726e+001 -1.157940e+001 -1.693395e+002 -1.159232e+001 -1.694692e+002 -2.355254e+001 -2.384655e+001
16092137500 -1.796983e+001 -4.586689e+001 -1.162739e+001 -1.715279e+002 -1.163980e+001 -1.716878e+002 -2.355929e+001 -2.127765e+001
16110881250 -1.774812e+001 -4.767502e+001 -1.167824e+001 -1.737933e+002 -1.168953e+001 -1.739913e+002 -2.351772e+001 -1.859018e+001
16129625000 -1.755468e+001 -4.934599e+001 -1.172117e+001 -1.760697e+002 -1.172963e+001 -1.762269e+002 -2.344945e+001 -1.588841e+001
16148368750 -1.735158e+001 -5.110923e+001 -1.177265e+001 -1.782737e+002 -1.178311e+001 -1.784679e+002 -2.336461e+001 -1.315763e+001
16167112500 -1.713281e+001 -5.277129e+001 -1.182534e+001 1.794843e+002 -1.183060e+001 1.792460e+002 -2.324450e+001 -1.052534e+001
16185856250 -1.693718e+001 -5.427327e+001 -1.187170e+001 1.772419e+002 -1.187057e+001 1.770146e+002 -2.307767e+001 -8.024257e+000
16204600000 -1.674189e+001 -5.586765e+001 -1.192342e+001 1.750351e+002 -1.192905e+001 1.747580e+002 -2.286399e+001 -5.607810e+000
16223343750 -1.654395e+001 -5.732109e+001 -1.197670e+001 1.728114e+002 -1.198247e+001 1.724595e+002 -2.261654e+001 -3.147418e+000
16242087500 -1.635406e+001 -5.880450e+001 -1.203051e+001 1.705727e+002 -1.203285e+001 1.702404e+002 -2.236843e+001 -8.198963e-001
16260831250 -1.615360e+001 -6.024413e+001 -1.209083e+001 1.683258e+002 -1.209271e+001 1.680001e+002 -2.208806e+001 1.401388e+000
16279575000 -1.595911e+001 -6.158983e+001 -1.214777e+001 1.661154e+002 -1.214679e+001 1.657305e+002 -2.178116e+001 3.414804e+000
16298318750 -1.577676e+001 -6.287957e+001 -1.220504e+001 1.638741e+002 -1.220421e+001 1.634991e+002 -2.145331e+001 5.106143e+000
16317062500 -1.559648e+001 -6.425771e+001 -1.226203e+001 1.616743e+002 -1.226775e+001 1.612782e+002 -2.109489e+001 6.507166e+000
16335806250 -1.541116e+001 -6.551723e+001 -1.232779e+001 1.594597e+002 -1.232436e+001 1.590207e+002 -2.068566e+001 7.828723e+000
16354550000 -1.522663e+001 -6.679364e+001 -1.238653e+001 1.572275e+002 -1.238259e+001 1.567819e+002 -2.029269e+001 9.033104e+000
16373293750 -1.504808e+001 -6.803245e+001 -1.244501e+001 1.550323e+002 -1.244410e+001 1.545606e+002 -1.990348e+001 1.001102e+001
16392037500 -1.486666e+001 -6.918855e+001 -1.251378e+001 1.528213e+002 -1.250864e+001 1.523279e+002 -1.951175e+001 1.078334e+001
16410781250 -1.469380e+001 -7.035565e+001 -1.257411e+001 1.506024e+002 -1.257034e+001 1.501122e+002 -1.913091e+001 1.135568e+001
16429525000 -1.452767e+001 -7.154942e+001 -1.263991e+001 1.484288e+002 -1.263927e+001 1.478929e+002 -1.875035e+001 1.170746e+001
16448268750 -1.434863e+001 -7.276060e+001 -1.271393e+001 1.462241e+002 -1.270483e+001 1.456525e+002 -1.836394e+001 1.188940e+001
16467012500 -1.418221e+001 -7.389573e+001 -1.277981e+001 1.440262e+002 -1.277197e+001 1.434470e+002 -1.798746e+001 1.197259e+001
16485756250 -1.401201e+001 -7.502940e+001 -1.284480e+001 1.418704e+002 -1.283834e+001 1.412236e+002 -1.761870e+001 1.194066e+001
16504500000 -1.384544e+001 -7.608858e+001 -1.291784e+001 1.396392e+002 -1.290563e+001 1.390149e+002 -1.726701e+001 1.182923e+001
16523243750 -1.368945e+001 -7.713103e+001 -1.298266e+001 1.374556e+002 -1.297397e+001 1.368154e+002 -1.691722e+001 1.153974e+001
16541987500 -1.354004e+001 -7.823734e+001 -1.305449e+001 1.353081e+002 -1.304103e+001 1.346187e+002 -1.658694e+001 1.115333e+001
16560731250 -1.338081e+001 -7.929890e+001 -1.312585e+001 1.331163e+002 -1.311082e+001 1.323997e+002 -1.626014e+001 1.073193e+001
16579475000 -1.322966e+001 -8.034636e+001 -1.319541e+001 1.309446e+002 -1.318291e+001 1.302162e+002 -1.594105e+001 1.023374e+001
16598218750 -1.307868e+001 -8.138335e+001 -1.327076e+001 1.288117e+002 -1.325509e+001 1.280336e+002 -1.563174e+001 9.651655e+000
16616962500 -1.292924e+001 -8.239563e+001 -1.334552e+001 1.266195e+002 -1.333225e+001 1.258434e+002 -1.533960e+001 8.999281e+000
16635706250 -1.279261e+001 -8.343683e+001 -1.341519e+001 1.244813e+002 -1.340421e+001 1.236477e+002 -1.505919e+001 8.350285e+000
16654450000 -1.265478e+001 -8.450108e+001 -1.349683e+001 1.223370e+002 -1.347897e+001 1.214951e+002 -1.478508e+001 7.593042e+000
16673193750 -1.251239e+001 -8.552973e+001 -1.357263e+001 1.201753e+002 -1.355505e+001 1.193091e+002 -1.451658e+001 6.818545e+000
16691937500 -1.237748e+001 -8.657220e+001 -1.364547e+001 1.180668e+002 -1.362901e+001 1.171280e+002 -1.425754e+001 6.051930e+000
16710681250 -1.224341e+001 -8.759917e+001 -1.372761e+001 1.159153e+002 -1.370267e+001 1.149517e+002 -1.401266e+001 5.226249e+000
16729425000 -1.211110e+001 -8.855765e+001 -1.379739e+001 1.137440e+002 -1.378075e+001 1.127937e+002 -1.377591e+001 4.405356e+000
16748168750 -1.198998e+001 -8.957030e+001 -1.387047e+001 1.116510e+002 -1.385460e+001 1.106329e+002 -1.354317e+001 3.586252e+000
16766912500 -1.186326e+001 -9.061494e+001 -1.395199e+001 1.095023e+002 -1.393489e+001 1.084955e+002 -1.332557e+001 2.745307e+000
16785656250 -1.174181e+001 -9.160515e+001 -1.402412e+001 1.073328e+002 -1.401311e+001 1.063518e+002 -1.310937e+001 1.895174e+000
16804400000 -1.162007e+001 -9.265533e+001 -1.410242e+001 1.052590e+002 -1.408941e+001 1.041995e+002 -1.289938e+001 1.042960e+000
16823143750 -1.149607e+001 -9.370135e+001 -1.418252e+001 1.031130e+002 -1.416900e+001 1.020480e+002 -1.269895e+001 1.714655e-001
16841887500 -1.137960e+001 -9.466733e+001 -1.425469e+001 1.009782e+002 -1.424672e+001 9.990755e+001 -1.250100e+001 -7.459750e-001
16860631250 -1.127002e+001 -9.570632e+001 -1.433304e+001 9.890451e+001 -1.432140e+001 9.778443e+001 -1.231077e+001 -1.640780e+000
16879375000 -1.116037e+001 -9.672958e+001 -1.441349e+001 9.677258e+001 -1.440222e+001 9.566572e+001 -1.212667e+001 -2.528085e+000
16898118750 -1.105098e+001 -9.773622e+001 -1.448672e+001 9.468428e+001 -1.448531e+001 9.352543e+001 -1.194866e+001 -3.392998e+000
16916862500 -1.094319e+001 -9.877235e+001 -1.456894e+001 9.259482e+001 -1.456541e+001 9.143378e+001 -1.177781e+001 -4.241852e+000
16935606250 -1.083717e+001 -9.976839e+001 -1.464708e+001 9.046278e+001 -1.465032e+001 8.932264e+001 -1.161430e+001 -5.174818e+000
16954350000 -1.074066e+001 -1.007568e+002 -1.472127e+001 8.836804e+001 -1.473286e+001 8.717339e+001 -1.144904e+001 -6.083014e+000
16973093750 -1.064325e+001 -1.017744e+002 -1.480651e+001 8.628375e+001 -1.481643e+001 8.508738e+001 -1.128974e+001 -6.976465e+000
16991837500 -1.054374e+001 -1.027847e+002 -1.488831e+001 8.415804e+001 -1.490331e+001 8.299172e+001 -1.113597e+001 -7.873051e+000
17010581250 -1.044938e+001 -1.037867e+002 -1.496241e+001 8.209211e+001 -1.498468e+001 8.085798e+001 -1.098367e+001 -8.780236e+000
17029325000 -1.035637e+001 -1.048249e+002 -1.504879e+001 7.999888e+001 -1.506598e+001 7.876971e+001 -1.084388e+001 -9.696187e+000
17048068750 -1.026711e+001 -1.057810e+002 -1.512839e+001 7.787902e+001 -1.515330e+001 7.666702e+001 -1.070546e+001 -1.058486e+001
17066812500 -1.018628e+001 -1.067535e+002 -1.521050e+001 7.582825e+001 -1.523282e+001 7.456768e+001 -1.056538e+001 -1.150438e+001
17085556250 -1.010269e+001 -1.077699e+002 -1.529277e+001 7.377833e+001 -1.531677e+001 7.250526e+001 -1.043418e+001 -1.237744e+001
17104300000 -1.002041e+001 -1.087530e+002 -1.537356e+001 7.169101e+001 -1.540463e+001 7.041331e+001 -1.030674e+001 -1.326659e+001
17123043750 -9.943727e+000 -1.097223e+002 -1.545423e+001 6.962875e+001 -1.548467e+001 6.833875e+001 -1.018262e+001 -1.416341e+001
17141787500 -9.863892e+000 -1.107050e+002 -1.553753e+001 6.758495e+001 -1.557541e+001 6.628585e+001 -1.006511e+001 -1.504314e+001
17160531250 -9.788202e+000 -1.116548e+002 -1.562073e+001 6.550090e+001 -1.566567e+001 6.416860e+001 -9.950056e+000 -1.593762e+001
17179275000 -9.724429e+000 -1.126238e+002 -1.570532e+001 6.342054e+001 -1.574673e+001 6.208564e+001 -9.835705e+000 -1.684893e+001
17198018750 -9.657605e+000 -1.136081e+002 -1.578751e+001 6.136686e+001 -1.583321e+001 6.000692e+001 -9.722504e+000 -1.772739e+001
17216762500 -9.588364e+000 -1.145675e+002 -1.586907e+001 5.930298e+001 -1.592470e+001 5.791248e+001 -9.616463e+000 -1.862312e+001
17235506250 -9.529988e+000 -1.155251e+002 -1.595661e+001 5.721490e+001 -1.600748e+001 5.581495e+001 -9.512573e+000 -1.948612e+001
17254250000 -9.465752e+000 -1.164571e+002 -1.603922e+001 5.512901e+001 -1.609849e+001 5.375700e+001 -9.414073e+000 -2.036689e+001
17272993750 -9.411444e+000 -1.173558e+002 -1.612291e+001 5.306453e+001 -1.618920e+001 5.164728e+001 -9.316921e+000 -2.123705e+001
17291737500 -9.364529e+000 -1.182969e+002 -1.621096e+001 5.097311e+001 -1.627285e+001 4.959010e+001 -9.217238e+000 -2.212384e+001
17310481250 -9.312277e+000 -1.192537e+002 -1.629426e+001 4.889045e+001 -1.636456e+001 4.750583e+001 -9.121016e+000 -2.299206e+001
17329225000 -9.260891e+000 -1.201664e+002 -1.637776e+001 4.681392e+001 -1.645146e+001 4.538826e+001 -9.027577e+000 -2.386606e+001
17347968750 -9.215846e+000 -1.210965e+002 -1.646421e+001 4.471661e+001 -1.653198e+001 4.330175e+001 -8.937559e+000 -2.474954e+001
17366712500 -9.166567e+000 -1.219990e+002 -1.654684e+001 4.266280e+001 -1.662500e+001 4.120424e+001 -8.851531e+000 -2.561194e+001
17385456250 -9.127285e+000 -1.228651e+002 -1.663426e+001 4.059481e+001 -1.671045e+001 3.909353e+001 -8.767623e+000 -2.647299e+001
17404200000 -9.092514e+000 -1.237893e+002 -1.672077e+001 3.851252e+001 -1.679622e+001 3.703181e+001 -8.681176e+000 -2.736320e+001
17422943750 -9.051019e+000 -1.246899e+002 -1.680409e+001 3.642348e+001 -1.689073e+001 3.493408e+001 -8.599078e+000 -2.821789e+001
17441687500 -9.014817e+000 -1.255604e+002 -1.689369e+001 3.431576e+001 -1.697736e+001 3.281596e+001 -8.518810e+000 -2.906918e+001
17460431250 -8.981455e+000 -1.264168e+002 -1.697975e+001 3.221883e+001 -1.706677e+001 3.076180e+001 -8.441389e+000 -2.992080e+001
17479175000 -8.944724e+000 -1.272626e+002 -1.706567e+001 3.013406e+001 -1.716101e+001 2.865054e+001 -8.364965e+000 -3.076765e+001
17497918750 -8.913390e+000 -1.280786e+002 -1.715574e+001 2.800834e+001 -1.725453e+001 2.653485e+001 -8.294688e+000 -3.163588e+001
17516662500 -8.889556e+000 -1.289638e+002 -1.724167e+001 2.587054e+001 -1.734748e+001 2.443253e+001 -8.221532e+000 -3.251068e+001
17535406250 -8.858643e+000 -1.298071e+002 -1.733334e+001 2.377677e+001 -1.744789e+001 2.227323e+001 -8.153311e+000 -3.336441e+001
17554150000 -8.834047e+000 -1.306044e+002 -1.742563e+001 2.163856e+001 -1.754025e+001 2.013435e+001 -8.085003e+000 -3.422811e+001
17572893750 -8.810081e+000 -1.314107e+002 -1.751538e+001 1.948134e+001 -1.763163e+001 1.803428e+001 -8.016147e+000 -3.507198e+001
17591637500 -8.788918e+000 -1.321675e+002 -1.761025e+001 1.739554e+001 -1.773271e+001 1.590463e+001 -7.952139e+000 -3.592445e+001
17610381250 -8.776197e+000 -1.329014e+002 -1.770726e+001 1.526985e+001 -1.782907e+001 1.370629e+001 -7.889385e+000 -3.678738e+001
17629125000 -8.758258e+000 -1.336907e+002 -1.780215e+001 1.311605e+001 -1.793042e+001 1.160178e+001 -7.826873e+000 -3.764267e+001
17647868750 -8.740887e+000 -1.344287e+002 -1.790239e+001 1.100356e+001 -1.802972e+001 9.419742e+000 -7.767672e+000 -3.849353e+001
17666612500 -8.722656e+000 -1.351280e+002 -1.799980e+001 8.813231e+000 -1.812904e+001 7.279350e+000 -7.707548e+000 -3.935952e+001
17685356250 -8.706083e+000 -1.358271e+002 -1.810155e+001 6.676442e+000 -1.822948e+001 5.180583e+000 -7.649077e+000 -4.019849e+001
17704100000 -8.690247e+000 -1.364889e+002 -1.820615e+001 4.539655e+000 -1.833819e+001 3.019043e+000 -7.593531e+000 -4.106783e+001
17722843750 -8.682049e+000 -1.371532e+002 -1.830386e+001 2.348322e+000 -1.844618e+001 8.271075e-001 -7.540257e+000 -4.192813e+001
17741587500 -8.669964e+000 -1.378415e+002 -1.840162e+001 2.143370e-001 -1.856019e+001 -1.290570e+000 -7.485779e+000 -4.278794e+001
17760331250 -8.654610e+000 -1.385091e+002 -1.851404e+001 -1.976622e+000 -1.867171e+001 -3.470624e+000 -7.434510e+000 -4.364738e+001
17779075000 -8.643001e+000 -1.391061e+002 -1.862098e+001 -4.186287e+000 -1.878279e+001 -5.614181e+000 -7.384078e+000 -4.448903e+001
17797818750 -8.632536e+000 -1.397140e+002 -1.873710e+001 -6.361332e+000 -1.889987e+001 -7.771610e+000 -7.335107e+000 -4.532779e+001
17816562500 -8.621595e+000 -1.402561e+002 -1.885554e+001 -8.564152e+000 -1.901993e+001 -9.954164e+000 -7.291734e+000 -4.619037e+001
17835306250 -8.619341e+000 -1.408005e+002 -1.896377e+001 -1.079241e+001 -1.913686e+001 -1.217165e+001 -7.246286e+000 -4.704547e+001
17854050000 -8.613539e+000 -1.414096e+002 -1.908255e+001 -1.294198e+001 -1.925602e+001 -1.436090e+001 -7.200401e+000 -4.788558e+001
17872793750 -8.601012e+000 -1.419516e+002 -1.920856e+001 -1.513403e+001 -1.937424e+001 -1.656435e+001 -7.157715e+000 -4.874387e+001
17891537500 -8.594804e+000 -1.424703e+002 -1.932532e+001 -1.734636e+001 -1.949878e+001 -1.874594e+001 -7.112158e+000 -4.958575e+001
17910281250 -8.584628e+000 -1.429821e+002 -1.945022e+001 -1.952335e+001 -1.962866e+001 -2.094437e+001 -7.074991e+000 -5.041157e+001
17929025000 -8.576822e+000 -1.434391e+002 -1.958137e+001 -2.175761e+001 -1.975920e+001 -2.315059e+001 -7.035310e+000 -5.125375e+001
17947768750 -8.574224e+000 -1.439045e+002 -1.970324e+001 -2.395575e+001 -1.988892e+001 -2.530734e+001 -6.994876e+000 -5.209359e+001
17966512500 -8.562964e+000 -1.444386e+002 -1.983643e+001 -2.617924e+001 -2.001397e+001 -2.745330e+001 -6.955548e+000 -5.291233e+001
17985256250 -8.547662e+000 -1.448925e+002 -1.996888e+001 -2.841250e+001 -2.014918e+001 -2.968319e+001 -6.917780e+000 -5.374889e+001
18004000000 -8.533265e+000 -1.453343e+002 -2.010348e+001 -3.061312e+001 -2.028800e+001 -3.187629e+001 -6.881586e+000 -5.456739e+001
18022743750 -8.511883e+000 -1.457723e+002 -2.024545e+001 -3.284654e+001 -2.042795e+001 -3.408784e+001 -6.845091e+000 -5.536584e+001
18041487500 -8.491506e+000 -1.461544e+002 -2.038784e+001 -3.510845e+001 -2.056806e+001 -3.628782e+001 -6.810371e+000 -5.618821e+001
18060231250 -8.483088e+000 -1.465578e+002 -2.052742e+001 -3.731921e+001 -2.071539e+001 -3.848244e+001 -6.775702e+000 -5.702372e+001
18078975000 -8.462279e+000 -1.470090e+002 -2.068090e+001 -3.953990e+001 -2.086710e+001 -4.065675e+001 -6.738911e+000 -5.782509e+001
18097718750 -8.437614e+000 -1.474043e+002 -2.082334e+001 -4.176721e+001 -2.101883e+001 -4.286617e+001 -6.703942e+000 -5.864748e+001
18116462500 -8.414141e+000 -1.478046e+002 -2.097272e+001 -4.396162e+001 -2.118325e+001 -4.513931e+001 -6.670546e+000 -5.945791e+001
18135206250 -8.383125e+000 -1.481841e+002 -2.113486e+001 -4.620232e+001 -2.133786e+001 -4.734727e+001 -6.640890e+000 -6.024231e+001
18153950000 -8.355752e+000 -1.484880e+002 -2.129347e+001 -4.840800e+001 -2.149468e+001 -4.953234e+001 -6.608464e+000 -6.106167e+001
18172693750 -8.334937e+000 -1.488402e+002 -2.145178e+001 -5.060805e+001 -2.165092e+001 -5.175383e+001 -6.577877e+000 -6.186196e+001
18191437500 -8.304857e+000 -1.492247e+002 -2.161881e+001 -5.283765e+001 -2.181682e+001 -5.394432e+001 -6.547971e+000 -6.265350e+001
18210181250 -8.267974e+000 -1.495672e+002 -2.177548e+001 -5.506924e+001 -2.199119e+001 -5.617548e+001 -6.515390e+000 -6.346918e+001
18228925000 -8.231750e+000 -1.499283e+002 -2.193766e+001 -5.724466e+001 -2.216488e+001 -5.836600e+001 -6.485401e+000 -6.425780e+001
18247668750 -8.189510e+000 -1.502701e+002 -2.211826e+001 -5.950233e+001 -2.233203e+001 -6.056733e+001 -6.455246e+000 -6.505276e+001
18266412500 -8.151153e+000 -1.505791e+002 -2.229132e+001 -6.171567e+001 -2.251122e+001 -6.273482e+001 -6.426452e+000 -6.586147e+001
18285156250 -8.115750e+000 -1.509234e+002 -2.247025e+001 -6.389615e+001 -2.269276e+001 -6.494528e+001 -6.396944e+000 -6.665601e+001
18303900000 -8.070828e+000 -1.513023e+002 -2.265407e+001 -6.617133e+001 -2.288062e+001 -6.716412e+001 -6.370650e+000 -6.745642e+001
18322643750 -8.020960e+000 -1.516444e+002 -2.282941e+001 -6.838556e+001 -2.307350e+001 -6.940508e+001 -6.342094e+000 -6.826209e+001
18341387500 -7.969877e+000 -1.520165e+002 -2.301807e+001 -7.053704e+001 -2.326610e+001 -7.159879e+001 -6.312710e+000 -6.904719e+001
18360131250 -7.917517e+000 -1.523479e+002 -2.320166e+001 -7.271725e+001 -2.345018e+001 -7.373373e+001 -6.282959e+000 -6.984194e+001
18378875000 -7.870143e+000 -1.526392e+002 -2.339755e+001 -7.493225e+001 -2.364493e+001 -7.591401e+001 -6.255142e+000 -7.065871e+001
18397618750 -7.825783e+000 -1.530016e+002 -2.359581e+001 -7.707236e+001 -2.384560e+001 -7.808713e+001 -6.226563e+000 -7.146367e+001
18416362500 -7.769664e+000 -1.534050e+002 -2.380439e+001 -7.927400e+001 -2.405057e+001 -8.027975e+001 -6.198798e+000 -7.225862e+001
18435106250 -7.713658e+000 -1.537744e+002 -2.400190e+001 -8.141582e+001 -2.426246e+001 -8.245570e+001 -6.171430e+000 -7.305720e+001
18453850000 -7.658624e+000 -1.541793e+002 -2.421549e+001 -8.347059e+001 -2.447624e+001 -8.457027e+001 -6.146613e+000 -7.385750e+001
18472593750 -7.597282e+000 -1.545487e+002 -2.442790e+001 -8.562257e+001 -2.469699e+001 -8.671388e+001 -6.120296e+000 -7.467094e+001
18491337500 -7.542154e+000 -1.548960e+002 -2.463253e+001 -8.776366e+001 -2.492016e+001 -8.882753e+001 -6.094548e+000 -7.546497e+001
18510081250 -7.489055e+000 -1.553179e+002 -2.486259e+001 -8.988766e+001 -2.513137e+001 -9.096878e+001 -6.071010e+000 -7.628284e+001
18528825000 -7.429915e+000 -1.557529e+002 -2.508424e+001 -9.205560e+001 -2.536698e+001 -9.305797e+001 -6.047726e+000 -7.708043e+001
18547568750 -7.369823e+000 -1.561879e+002 -2.530993e+001 -9.410511e+001 -2.558960e+001 -9.512456e+001 -6.021596e+000 -7.787970e+001
18566312500 -7.307594e+000 -1.566514e+002 -2.555177e+001 -9.624660e+001 -2.582575e+001 -9.724913e+001 -5.998298e+000 -7.867434e+001
18585056250 -7.244071e+000 -1.570822e+002 -2.577619e+001 -9.843602e+001 -2.607083e+001 -9.935194e+001 -5.978001e+000 -7.948883e+001
18603800000 -7.188084e+000 -1.575278e+002 -2.602675e+001 -1.005061e+002 -2.633195e+001 -1.014195e+002 -5.957033e+000 -8.029192e+001
18622543750 -7.127048e+000 -1.580286e+002 -2.627919e+001 -1.025644e+002 -2.656318e+001 -1.034780e+002 -5.934080e+000 -8.109470e+001
18641287500 -7.066889e+000 -1.585441e+002 -2.652094e+001 -1.045870e+002 -2.680803e+001 -1.055906e+002 -5.914189e+000 -8.191851e+001
18660031250 -7.005968e+000 -1.590716e+002 -2.674880e+001 -1.065938e+002 -2.706207e+001 -1.075712e+002 -5.892285e+000 -8.271438e+001
18678775000 -6.938672e+000 -1.596017e+002 -2.699611e+001 -1.085978e+002 -2.732378e+001 -1.095851e+002 -5.874986e+000 -8.352439e+001
18697518750 -6.872582e+000 -1.600941e+002 -2.723447e+001 -1.106219e+002 -2.759315e+001 -1.115592e+002 -5.855871e+000 -8.433877e+001
18716262500 -6.814395e+000 -1.606059e+002 -2.749558e+001 -1.126401e+002 -2.785653e+001 -1.135922e+002 -5.835988e+000 -8.512676e+001
18735006250 -6.757736e+000 -1.611741e+002 -2.775053e+001 -1.146932e+002 -2.810792e+001 -1.154788e+002 -5.816991e+000 -8.591235e+001
18753750000 -6.698240e+000 -1.617397e+002 -2.801555e+001 -1.166301e+002 -2.836933e+001 -1.175233e+002 -5.801802e+000 -8.672066e+001
18772493750 -6.638347e+000 -1.623293e+002 -2.829084e+001 -1.186423e+002 -2.864298e+001 -1.194491e+002 -5.785332e+000 -8.752625e+001
18791237500 -6.572603e+000 -1.629269e+002 -2.856938e+001 -1.206545e+002 -2.893287e+001 -1.214033e+002 -5.772842e+000 -8.834188e+001
18809981250 -6.509776e+000 -1.634891e+002 -2.883741e+001 -1.226028e+002 -2.921276e+001 -1.233555e+002 -5.761065e+000 -8.914375e+001
18828725000 -6.454337e+000 -1.640671e+002 -2.912143e+001 -1.245034e+002 -2.948087e+001 -1.252424e+002 -5.747663e+000 -8.994360e+001
18847468750 -6.399668e+000 -1.646755e+002 -2.940105e+001 -1.264530e+002 -2.976809e+001 -1.271221e+002 -5.737303e+000 -9.075699e+001
18866212500 -6.346889e+000 -1.653033e+002 -2.967343e+001 -1.282870e+002 -3.003391e+001 -1.290338e+002 -5.725245e+000 -9.158211e+001
18884956250 -6.290845e+000 -1.659540e+002 -2.996142e+001 -1.302368e+002 -3.030199e+001 -1.309664e+002 -5.713351e+000 -9.237083e+001
18903700000 -6.229492e+000 -1.665820e+002 -3.024521e+001 -1.320715e+002 -3.059323e+001 -1.327668e+002 -5.707292e+000 -9.317647e+001
18922443750 -6.173910e+000 -1.671797e+002 -3.054831e+001 -1.339308e+002 -3.089623e+001 -1.346248e+002 -5.699068e+000 -9.398851e+001
18941187500 -6.124335e+000 -1.678098e+002 -3.083212e+001 -1.356729e+002 -3.120912e+001 -1.365847e+002 -5.690999e+000 -9.477341e+001
18959931250 -6.073603e+000 -1.684547e+002 -3.112816e+001 -1.375751e+002 -3.151365e+001 -1.383700e+002 -5.684466e+000 -9.558401e+001
18978675000 -6.024892e+000 -1.691066e+002 -3.142116e+001 -1.394630e+002 -3.182477e+001 -1.402146e+002 -5.680890e+000 -9.640116e+001
18997418750 -5.973766e+000 -1.697995e+002 -3.173516e+001 -1.411633e+002 -3.212488e+001 -1.419949e+002 -5.676461e+000 -9.720358e+001
19016162500 -5.918547e+000 -1.704595e+002 -3.203127e+001 -1.429804e+002 -3.242152e+001 -1.435484e+002 -5.671965e+000 -9.801488e+001
19034906250 -5.869362e+000 -1.711032e+002 -3.235543e+001 -1.448116e+002 -3.269329e+001 -1.455156e+002 -5.668539e+000 -9.881580e+001
19053650000 -5.827286e+000 -1.717640e+002 -3.266165e+001 -1.467406e+002 -3.303671e+001 -1.472877e+002 -5.668365e+000 -9.961434e+001
19072393750 -5.781990e+000 -1.724325e+002 -3.297837e+001 -1.485567e+002 -3.335179e+001 -1.489879e+002 -5.668527e+000 -1.004149e+002
19091137500 -5.740168e+000 -1.731046e+002 -3.333047e+001 -1.503192e+002 -3.367266e+001 -1.508269e+002 -5.668201e+000 -1.012286e+002
19109881250 -5.695309e+000 -1.738251e+002 -3.364746e+001 -1.521627e+002 -3.397951e+001 -1.525138e+002 -5.668272e+000 -1.020178e+002
19128625000 -5.648785e+000 -1.745076e+002 -3.399471e+001 -1.539111e+002 -3.430424e+001 -1.543998e+002 -5.670619e+000 -1.028209e+002
19147368750 -5.609055e+000 -1.751736e+002 -3.433380e+001 -1.556516e+002 -3.463814e+001 -1.561085e+002 -5.674703e+000 -1.036457e+002
19166112500 -5.570349e+000 -1.758701e+002 -3.466444e+001 -1.573539e+002 -3.501612e+001 -1.579151e+002 -5.680022e+000 -1.044489e+002
19184856250 -5.531793e+000 -1.765706e+002 -3.501863e+001 -1.592046e+002 -3.539110e+001 -1.595967e+002 -5.684385e+000 -1.052532e+002
19203600000 -5.498142e+000 -1.772969e+002 -3.536420e+001 -1.609448e+002 -3.572929e+001 -1.613268e+002 -5.690564e+000 -1.060563e+002
19222343750 -5.459596e+000 -1.780426e+002 -3.567920e+001 -1.626531e+002 -3.607766e+001 -1.630222e+002 -5.699430e+000 -1.068407e+002
19241087500 -5.416883e+000 -1.787341e+002 -3.606884e+001 -1.643400e+002 -3.644032e+001 -1.648738e+002 -5.710950e+000 -1.076604e+002
19259831250 -5.383791e+000 -1.794271e+002 -3.646585e+001 -1.657960e+002 -3.681768e+001 -1.668216e+002 -5.719903e+000 -1.084498e+002
19278575000 -5.350497e+000 1.798584e+002 -3.683623e+001 -1.673725e+002 -3.718262e+001 -1.682386e+002 -5.731245e+000 -1.092493e+002
19297318750 -5.316722e+000 1.791579e+002 -3.719759e+001 -1.689451e+002 -3.755793e+001 -1.693150e+002 -5.742961e+000 -1.100460e+002
19316062500 -5.288263e+000 1.784263e+002 -3.758870e+001 -1.704165e+002 -3.790221e+001 -1.712402e+002 -5.755393e+000 -1.108579e+002
19334806250 -5.255069e+000 1.776708e+002 -3.798466e+001 -1.721731e+002 -3.827320e+001 -1.730480e+002 -5.770757e+000 -1.116632e+002
19353550000 -5.221418e+000 1.769645e+002 -3.834502e+001 -1.742487e+002 -3.864754e+001 -1.750581e+002 -5.786009e+000 -1.124830e+002
19372293750 -5.194680e+000 1.762369e+002 -3.870607e+001 -1.759643e+002 -3.901280e+001 -1.764341e+002 -5.801247e+000 -1.132938e+002
19391037500 -5.165902e+000 1.755199e+002 -3.908562e+001 -1.776624e+002 -3.939418e+001 -1.781952e+002 -5.816735e+000 -1.141055e+002
19409781250 -5.140934e+000 1.748071e+002 -3.948440e+001 -1.792167e+002 -3.977578e+001 -1.798895e+002 -5.833247e+000 -1.149169e+002
19428525000 -5.116519e+000 1.740588e+002 -3.981638e+001 1.792506e+002 -4.013088e+001 1.789132e+002 -5.849145e+000 -1.157290e+002
19447268750 -5.086226e+000 1.733187e+002 -4.022783e+001 1.776131e+002 -4.050144e+001 1.770053e+002 -5.869791e+000 -1.165440e+002
19466012500 -5.057902e+000 1.726407e+002 -4.056431e+001 1.754487e+002 -4.084683e+001 1.751064e+002 -5.890615e+000 -1.173751e+002
19484756250 -5.035483e+000 1.719265e+002 -4.094976e+001 1.736003e+002 -4.126835e+001 1.730964e+002 -5.915261e+000 -1.182171e+002
19503500000 -5.011417e+000 1.712009e+002 -4.132644e+001 1.713875e+002 -4.163911e+001 1.709609e+002 -5.940972e+000 -1.190573e+002
19522243750 -4.989607e+000 1.704863e+002 -4.164046e+001 1.694667e+002 -4.196109e+001 1.687347e+002 -5.966033e+000 -1.199130e+002
19540987500 -4.972231e+000 1.697531e+002 -4.202953e+001 1.673880e+002 -4.227951e+001 1.671565e+002 -5.994379e+000 -1.207586e+002
19559731250 -4.942326e+000 1.690302e+002 -4.232032e+001 1.660323e+002 -4.261658e+001 1.648927e+002 -6.025931e+000 -1.216299e+002
19578475000 -4.920584e+000 1.683481e+002 -4.269328e+001 1.638850e+002 -4.299475e+001 1.632154e+002 -6.056872e+000 -1.225068e+002
19597218750 -4.901246e+000 1.676514e+002 -4.301640e+001 1.618184e+002 -4.337154e+001 1.606171e+002 -6.090948e+000 -1.233894e+002
19615962500 -4.880558e+000 1.669452e+002 -4.338293e+001 1.593761e+002 -4.363486e+001 1.587157e+002 -6.126522e+000 -1.242841e+002
19634706250 -4.866471e+000 1.662540e+002 -4.370530e+001 1.567530e+002 -4.403629e+001 1.560269e+002 -6.162356e+000 -1.251978e+002
19653450000 -4.847929e+000 1.655174e+002 -4.401429e+001 1.537045e+002 -4.436424e+001 1.536507e+002 -6.200844e+000 -1.261081e+002
19672193750 -4.825580e+000 1.648015e+002 -4.437015e+001 1.508914e+002 -4.467675e+001 1.506298e+002 -6.241829e+000 -1.270257e+002
19690937500 -4.808143e+000 1.641402e+002 -4.460669e+001 1.476376e+002 -4.491171e+001 1.477506e+002 -6.285121e+000 -1.279600e+002
19709681250 -4.793812e+000 1.634210e+002 -4.481065e+001 1.446987e+002 -4.522828e+001 1.443426e+002 -6.334533e+000 -1.288962e+002
19728425000 -4.776794e+000 1.627341e+002 -4.511506e+001 1.413028e+002 -4.544970e+001 1.403672e+002 -6.385357e+000 -1.298315e+002
19747168750 -4.767940e+000 1.620310e+002 -4.539227e+001 1.370489e+002 -4.573843e+001 1.372615e+002 -6.434476e+000 -1.308023e+002
19765912500 -4.752919e+000 1.612896e+002 -4.570992e+001 1.335144e+002 -4.591489e+001 1.342041e+002 -6.485383e+000 -1.317577e+002
19784656250 -4.731222e+000 1.606006e+002 -4.594428e+001 1.303849e+002 -4.612208e+001 1.303202e+002 -6.543580e+000 -1.327244e+002
19803400000 -4.711100e+000 1.599644e+002 -4.633900e+001 1.255104e+002 -4.640945e+001 1.264721e+002 -6.604897e+000 -1.337119e+002
19822143750 -4.705097e+000 1.592587e+002 -4.642178e+001 1.215121e+002 -4.657439e+001 1.235113e+002 -6.669485e+000 -1.347045e+002
19840887500 -4.689212e+000 1.585298e+002 -4.664788e+001 1.168241e+002 -4.650882e+001 1.189555e+002 -6.737979e+000 -1.357191e+002
19859631250 -4.677891e+000 1.578602e+002 -4.686890e+001 1.119858e+002 -4.659866e+001 1.142906e+002 -6.806142e+000 -1.367310e+002
19878375000 -4.664740e+000 1.571488e+002 -4.692961e+001 1.092287e+002 -4.675604e+001 1.083822e+002 -6.881481e+000 -1.377605e+002
19897118750 -4.650681e+000 1.564259e+002 -4.694750e+001 1.042539e+002 -4.672702e+001 1.039523e+002 -6.965718e+000 -1.388089e+002
19915862500 -4.638213e+000 1.557504e+002 -4.693414e+001 9.901318e+001 -4.659050e+001 9.851797e+001 -7.049872e+000 -1.398495e+002
19934606250 -4.629083e+000 1.550840e+002 -4.693596e+001 9.418526e+001 -4.666522e+001 9.284493e+001 -7.136579e+000 -1.408839e+002
19953350000 -4.622026e+000 1.543816e+002 -4.706611e+001 8.775587e+001 -4.646877e+001 8.829808e+001 -7.231880e+000 -1.419304e+002
19972093750 -4.612409e+000 1.536261e+002 -4.700430e+001 8.179319e+001 -4.651834e+001 8.326751e+001 -7.331396e+000 -1.430007e+002
19990837500 -4.598655e+000 1.528905e+002 -4.695538e+001 7.646305e+001 -4.658099e+001 7.832216e+001 -7.434906e+000 -1.440699e+002
20009581250 -4.587840e+000 1.522061e+002 -4.680285e+001 7.154819e+001 -4.653459e+001 7.182375e+001 -7.551692e+000 -1.451621e+002
20028325000 -4.577613e+000 1.514795e+002 -4.677244e+001 6.589333e+001 -4.653875e+001 6.732037e+001 -7.671368e+000 -1.462661e+002
20047068750 -4.567854e+000 1.508125e+002 -4.660978e+001 6.090737e+001 -4.645359e+001 6.270855e+001 -7.802478e+000 -1.473940e+002
20065812500 -4.563271e+000 1.501174e+002 -4.654238e+001 5.634791e+001 -4.636551e+001 5.743571e+001 -7.938352e+000 -1.485566e+002
20084556250 -4.558050e+000 1.494035e+002 -4.649909e+001 5.139563e+001 -4.621898e+001 5.153636e+001 -8.078716e+000 -1.497144e+002
20103300000 -4.548265e+000 1.486968e+002 -4.637226e+001 4.685601e+001 -4.601172e+001 4.718659e+001 -8.230371e+000 -1.508201e+002
20122043750 -4.541472e+000 1.479791e+002 -4.608495e+001 4.190597e+001 -4.594498e+001 4.175068e+001 -8.402150e+000 -1.520110e+002
20140787500 -4.531254e+000 1.472900e+002 -4.592676e+001 3.749053e+001 -4.576027e+001 3.678254e+001 -8.572993e+000 -1.532251e+002
20159531250 -4.527271e+000 1.466099e+002 -4.570041e+001 3.264629e+001 -4.562032e+001 3.217535e+001 -8.759760e+000 -1.544368e+002
20178275000 -4.520943e+000 1.458847e+002 -4.553399e+001 2.771434e+001 -4.538580e+001 2.845380e+001 -8.961551e+000 -1.556615e+002
20197018750 -4.515278e+000 1.451759e+002 -4.526474e+001 2.357129e+001 -4.523353e+001 2.371177e+001 -9.174465e+000 -1.568607e+002
20215762500 -4.509393e+000 1.444529e+002 -4.490458e+001 1.953551e+001 -4.495473e+001 1.928629e+001 -9.402093e+000 -1.580819e+002
20234506250 -4.507997e+000 1.437250e+002 -4.445877e+001 1.615991e+001 -4.460102e+001 1.502046e+001 -9.656307e+000 -1.593633e+002
20253250000 -4.493987e+000 1.430221e+002 -4.427585e+001 1.175254e+001 -4.437333e+001 9.587674e+000 -9.926061e+000 -1.606667e+002
20271993750 -4.491637e+000 1.423821e+002 -4.400207e+001 8.448233e+000 -4.429383e+001 5.920365e+000 -1.021735e+001 -1.618908e+002
20290737500 -4.494692e+000 1.416353e+002 -4.368296e+001 4.746869e+000 -4.422999e+001 2.052650e+000 -1.052307e+001 -1.632054e+002
20309481250 -4.489630e+000 1.408690e+002 -4.346918e+001 -4.126477e-001 -4.389343e+001 2.933919e-002 -1.085939e+001 -1.643828e+002
20328225000 -4.483591e+000 1.401820e+002 -4.343617e+001 -3.248657e+000 -4.379772e+001 -3.262866e+000 -1.122238e+001 -1.655354e+002
20346968750 -4.480601e+000 1.394662e+002 -4.326428e+001 -5.999375e+000 -4.385918e+001 -5.589829e+000 -1.162157e+001 -1.667154e+002
20365712500 -4.472568e+000 1.387340e+002 -4.319378e+001 -9.477886e+000 -4.359880e+001 -8.197196e+000 -1.206102e+001 -1.678780e+002
20384456250 -4.472581e+000 1.380886e+002 -4.313412e+001 -1.096356e+001 -4.360099e+001 -1.099071e+001 -1.254059e+001 -1.690090e+002
20403200000 -4.479798e+000 1.373890e+002 -4.297470e+001 -1.324877e+001 -4.339885e+001 -1.468845e+001 -1.306927e+001 -1.699139e+002
20421943750 -4.480026e+000 1.366396e+002 -4.308846e+001 -1.625747e+001 -4.305732e+001 -1.729730e+001 -1.365264e+001 -1.705505e+002
20440687500 -4.474015e+000 1.359579e+002 -4.311364e+001 -1.854421e+001 -4.282034e+001 -1.945288e+001 -1.431598e+001 -1.708416e+002
20459431250 -4.474202e+000 1.352904e+002 -4.301825e+001 -1.968704e+001 -4.262251e+001 -2.206527e+001 -1.506785e+001 -1.706127e+002
20478175000 -4.469875e+000 1.345966e+002 -4.295778e+001 -2.218802e+001 -4.256651e+001 -2.595071e+001 -1.587012e+001 -1.692886e+002
20496918750 -4.473530e+000 1.339276e+002 -4.282322e+001 -2.481046e+001 -4.227718e+001 -2.829625e+001 -1.665536e+001 -1.670909e+002
20515662500 -4.477716e+000 1.331868e+002 -4.267585e+001 -2.676149e+001 -4.223191e+001 -3.018748e+001 -1.735600e+001 -1.640841e+002
20534406250 -4.477325e+000 1.324451e+002 -4.243245e+001 -2.884238e+001 -4.214241e+001 -3.215334e+001 -1.794860e+001 -1.605130e+002
20553150000 -4.473374e+000 1.317132e+002 -4.243188e+001 -3.045161e+001 -4.202017e+001 -3.300420e+001 -1.844365e+001 -1.564315e+002
20571893750 -4.471936e+000 1.310005e+002 -4.234500e+001 -3.355651e+001 -4.186484e+001 -3.505225e+001 -1.887329e+001 -1.520229e+002
20590637500 -4.469359e+000 1.303227e+002 -4.228848e+001 -3.537314e+001 -4.169786e+001 -3.697663e+001 -1.924965e+001 -1.476052e+002
20609381250 -4.477929e+000 1.296776e+002 -4.216275e+001 -3.670000e+001 -4.167610e+001 -3.935424e+001 -1.954725e+001 -1.431306e+002
20628125000 -4.486539e+000 1.289197e+002 -4.192710e+001 -3.878653e+001 -4.164763e+001 -4.130730e+001 -1.977567e+001 -1.386403e+002
20646868750 -4.485782e+000 1.281765e+002 -4.200782e+001 -4.112474e+001 -4.171699e+001 -4.217945e+001 -1.993669e+001 -1.340273e+002
20665612500 -4.490138e+000 1.274673e+002 -4.194254e+001 -4.362557e+001 -4.162038e+001 -4.388059e+001 -2.002476e+001 -1.293145e+002
20684356250 -4.491584e+000 1.267351e+002 -4.187644e+001 -4.516979e+001 -4.163095e+001 -4.531549e+001 -2.007871e+001 -1.245205e+002
20703100000 -4.490966e+000 1.260712e+002 -4.178273e+001 -4.735769e+001 -4.159684e+001 -4.659547e+001 -2.008573e+001 -1.198201e+002
20721843750 -4.503528e+000 1.253772e+002 -4.176495e+001 -4.918967e+001 -4.145228e+001 -4.889531e+001 -2.005947e+001 -1.151114e+002
20740587500 -4.517731e+000 1.246315e+002 -4.182351e+001 -5.101896e+001 -4.149994e+001 -5.120707e+001 -1.995889e+001 -1.104627e+002
20759331250 -4.515237e+000 1.238751e+002 -4.164579e+001 -5.227278e+001 -4.155095e+001 -5.277850e+001 -1.979688e+001 -1.057812e+002
20778075000 -4.520366e+000 1.231629e+002 -4.162441e+001 -5.399541e+001 -4.145134e+001 -5.452179e+001 -1.957123e+001 -1.010267e+002
20796818750 -4.523365e+000 1.224537e+002 -4.146039e+001 -5.501565e+001 -4.141228e+001 -5.513749e+001 -1.928399e+001 -9.622964e+001
20815562500 -4.519794e+000 1.217702e+002 -4.122093e+001 -5.743518e+001 -4.141976e+001 -5.773698e+001 -1.894427e+001 -9.146875e+001
20834306250 -4.527754e+000 1.210972e+002 -4.111915e+001 -5.917450e+001 -4.146347e+001 -5.967179e+001 -1.852004e+001 -8.700789e+001
20853050000 -4.539489e+000 1.203691e+002 -4.096948e+001 -6.156993e+001 -4.167759e+001 -6.170594e+001 -1.801464e+001 -8.275568e+001
20871793750 -4.539801e+000 1.196077e+002 -4.080209e+001 -6.432989e+001 -4.166135e+001 -6.347097e+001 -1.739714e+001 -7.883112e+001
20890537500 -4.546963e+000 1.188706e+002 -4.066967e+001 -6.735040e+001 -4.157072e+001 -6.541592e+001 -1.666524e+001 -7.539900e+001
20909281250 -4.550414e+000 1.181119e+002 -4.067172e+001 -6.957603e+001 -4.150959e+001 -6.746954e+001 -1.585811e+001 -7.297214e+001
20928025000 -4.548829e+000 1.174475e+002 -4.062751e+001 -7.168196e+001 -4.152240e+001 -6.939845e+001 -1.505014e+001 -7.140923e+001
20946768750 -4.565437e+000 1.167727e+002 -4.065452e+001 -7.313178e+001 -4.141233e+001 -7.170872e+001 -1.430387e+001 -7.072645e+001
20965512500 -4.576886e+000 1.160142e+002 -4.079055e+001 -7.537148e+001 -4.148553e+001 -7.439006e+001 -1.362936e+001 -7.061825e+001
20984256250 -4.582019e+000 1.153291e+002 -4.088019e+001 -7.772230e+001 -4.155094e+001 -7.651247e+001 -1.301627e+001 -7.095390e+001
21003000000 -4.592457e+000 1.145772e+002 -4.089794e+001 -7.901219e+001 -4.161801e+001 -7.816254e+001 -1.245033e+001 -7.158267e+001
21021743750 -4.598806e+000 1.138339e+002 -4.092999e+001 -8.089857e+001 -4.164465e+001 -8.032285e+001 -1.190983e+001 -7.222535e+001
21040487500 -4.597910e+000 1.131648e+002 -4.088612e+001 -8.278487e+001 -4.166039e+001 -8.193822e+001 -1.142505e+001 -7.295359e+001
21059231250 -4.610096e+000 1.124517e+002 -4.115651e+001 -8.421684e+001 -4.165907e+001 -8.372918e+001 -1.098043e+001 -7.374253e+001
21077975000 -4.622920e+000 1.117047e+002 -4.129772e+001 -8.523509e+001 -4.163560e+001 -8.605424e+001 -1.057611e+001 -7.462903e+001
21096718750 -4.628096e+000 1.109829e+002 -4.134190e+001 -8.646083e+001 -4.185910e+001 -8.902534e+001 -1.020113e+001 -7.555638e+001
21115462500 -4.636291e+000 1.102524e+002 -4.161397e+001 -8.804556e+001 -4.190147e+001 -9.063714e+001 -9.833291e+000 -7.650767e+001
21134206250 -4.637414e+000 1.095229e+002 -4.173975e+001 -9.028017e+001 -4.208221e+001 -9.233041e+001 -9.483539e+000 -7.743004e+001
21152950000 -4.645996e+000 1.088458e+002 -4.195219e+001 -9.205075e+001 -4.216837e+001 -9.365208e+001 -9.140589e+000 -7.838647e+001
21171693750 -4.660321e+000 1.081405e+002 -4.200441e+001 -9.420962e+001 -4.224483e+001 -9.497593e+001 -8.825480e+000 -7.937022e+001
21190437500 -4.672799e+000 1.074147e+002 -4.217096e+001 -9.716705e+001 -4.240571e+001 -9.666111e+001 -8.526076e+000 -8.042286e+001
21209181250 -4.683377e+000 1.066762e+002 -4.223798e+001 -9.813656e+001 -4.259746e+001 -9.730417e+001 -8.241683e+000 -8.150968e+001
21227925000 -4.690104e+000 1.058975e+002 -4.250792e+001 -9.907753e+001 -4.276354e+001 -9.903353e+001 -7.974705e+000 -8.265080e+001
21246668750 -4.699960e+000 1.051640e+002 -4.262899e+001 -9.924146e+001 -4.310326e+001 -1.000205e+002 -7.707678e+000 -8.380058e+001
21265412500 -4.708479e+000 1.044632e+002 -4.286028e+001 -9.868252e+001 -4.325383e+001 -1.008399e+002 -7.459462e+000 -8.492015e+001
21284156250 -4.725566e+000 1.037074e+002 -4.286378e+001 -9.862805e+001 -4.332182e+001 -1.024888e+002 -7.224498e+000 -8.605956e+001
21302900000 -4.738482e+000 1.029560e+002 -4.311348e+001 -9.879282e+001 -4.341676e+001 -1.028425e+002 -7.002035e+000 -8.720953e+001
21321643750 -4.746668e+000 1.022186e+002 -4.341462e+001 -9.895461e+001 -4.355849e+001 -1.033335e+002 -6.789545e+000 -8.837461e+001
21340387500 -4.760331e+000 1.014771e+002 -4.345322e+001 -9.874778e+001 -4.396479e+001 -1.043345e+002 -6.591273e+000 -8.957878e+001
21359131250 -4.762144e+000 1.007356e+002 -4.355672e+001 -1.000698e+002 -4.399039e+001 -1.048039e+002 -6.400713e+000 -9.079147e+001
21377875000 -4.769462e+000 1.000452e+002 -4.364524e+001 -1.008183e+002 -4.411610e+001 -1.046024e+002 -6.219196e+000 -9.197298e+001
21396618750 -4.785932e+000 9.928044e+001 -4.360390e+001 -1.010971e+002 -4.414648e+001 -1.045724e+002 -6.048750e+000 -9.317179e+001
21415362500 -4.796003e+000 9.851223e+001 -4.368959e+001 -1.011980e+002 -4.415105e+001 -1.051661e+002 -5.888399e+000 -9.436498e+001
21434106250 -4.810595e+000 9.778480e+001 -4.389344e+001 -1.017870e+002 -4.430713e+001 -1.045045e+002 -5.735316e+000 -9.552656e+001
21452850000 -4.817785e+000 9.699487e+001 -4.383910e+001 -1.017617e+002 -4.468350e+001 -1.038141e+002 -5.594332e+000 -9.671419e+001
21471593750 -4.826694e+000 9.627800e+001 -4.401777e+001 -1.015773e+002 -4.473573e+001 -1.043443e+002 -5.457149e+000 -9.783619e+001
21490337500 -4.843971e+000 9.558651e+001 -4.401463e+001 -1.026564e+002 -4.480320e+001 -1.049378e+002 -5.331538e+000 -9.894908e+001
21509081250 -4.856690e+000 9.478727e+001 -4.415516e+001 -1.045876e+002 -4.488176e+001 -1.055554e+002 -5.200575e+000 -1.000572e+002
21527825000 -4.866937e+000 9.401838e+001 -4.435586e+001 -1.040746e+002 -4.500820e+001 -1.053836e+002 -5.077879e+000 -1.011659e+002
21546568750 -4.882622e+000 9.326614e+001 -4.432601e+001 -1.043781e+002 -4.533061e+001 -1.037691e+002 -4.966679e+000 -1.022520e+002
21565312500 -4.895432e+000 9.245730e+001 -4.438601e+001 -1.040854e+002 -4.541562e+001 -1.042186e+002 -4.849574e+000 -1.033722e+002
21584056250 -4.898264e+000 9.177103e+001 -4.429114e+001 -1.036233e+002 -4.543715e+001 -1.033709e+002 -4.745902e+000 -1.044100e+002
21602800000 -4.910884e+000 9.104742e+001 -4.424733e+001 -1.040811e+002 -4.548595e+001 -1.032035e+002 -4.644220e+000 -1.054456e+002
21621543750 -4.923315e+000 9.025195e+001 -4.430399e+001 -1.030157e+002 -4.540461e+001 -1.028636e+002 -4.546065e+000 -1.064937e+002
21640287500 -4.937030e+000 8.948979e+001 -4.445775e+001 -1.043158e+002 -4.522704e+001 -1.037046e+002 -4.450769e+000 -1.075164e+002
21659031250 -4.957781e+000 8.874197e+001 -4.439219e+001 -1.044229e+002 -4.518431e+001 -1.043832e+002 -4.356972e+000 -1.085501e+002
21677775000 -4.967176e+000 8.795543e+001 -4.451621e+001 -1.056778e+002 -4.491882e+001 -1.038844e+002 -4.264405e+000 -1.095830e+002
21696518750 -4.978554e+000 8.722410e+001 -4.440899e+001 -1.077902e+002 -4.480560e+001 -1.041883e+002 -4.176707e+000 -1.105792e+002
21715262500 -4.995067e+000 8.651319e+001 -4.446820e+001 -1.094843e+002 -4.491481e+001 -1.012126e+002 -4.097564e+000 -1.115784e+002
21734006250 -5.010520e+000 8.570113e+001 -4.437761e+001 -1.103324e+002 -4.487469e+001 -1.018932e+002 -4.015364e+000 -1.125947e+002
21752750000 -5.026306e+000 8.490290e+001 -4.428226e+001 -1.113224e+002 -4.486057e+001 -1.038160e+002 -3.941308e+000 -1.135723e+002
21771493750 -5.041054e+000 8.410481e+001 -4.421814e+001 -1.116684e+002 -4.456265e+001 -1.036394e+002 -3.865226e+000 -1.145523e+002
21790237500 -5.053877e+000 8.331772e+001 -4.425363e+001 -1.113173e+002 -4.473754e+001 -1.038744e+002 -3.790741e+000 -1.155202e+002
21808981250 -5.067782e+000 8.256475e+001 -4.431600e+001 -1.111986e+002 -4.472813e+001 -1.052279e+002 -3.718765e+000 -1.164755e+002
21827725000 -5.086580e+000 8.183743e+001 -4.445755e+001 -1.121320e+002 -4.483114e+001 -1.070955e+002 -3.653331e+000 -1.174186e+002
21846468750 -5.101187e+000 8.105820e+001 -4.454478e+001 -1.123029e+002 -4.489465e+001 -1.093569e+002 -3.588383e+000 -1.183616e+002
21865212500 -5.116623e+000 8.027274e+001 -4.447368e+001 -1.126106e+002 -4.474910e+001 -1.107905e+002 -3.528465e+000 -1.193019e+002
21883956250 -5.134642e+000 7.947666e+001 -4.456552e+001 -1.143058e+002 -4.470295e+001 -1.129342e+002 -3.469661e+000 -1.202525e+002
21902700000 -5.149571e+000 7.864611e+001 -4.446410e+001 -1.150332e+002 -4.491648e+001 -1.152806e+002 -3.409636e+000 -1.211999e+002
21921443750 -5.162964e+000 7.785988e+001 -4.456309e+001 -1.160593e+002 -4.488470e+001 -1.150797e+002 -3.350909e+000 -1.221249e+002
21940187500 -5.187092e+000 7.710083e+001 -4.435814e+001 -1.154463e+002 -4.482695e+001 -1.162843e+002 -3.300615e+000 -1.230585e+002
21958931250 -5.205280e+000 7.628436e+001 -4.432938e+001 -1.167013e+002 -4.471800e+001 -1.159555e+002 -3.250031e+000 -1.239564e+002
21977675000 -5.224225e+000 7.548572e+001 -4.435653e+001 -1.172960e+002 -4.438165e+001 -1.190054e+002 -3.201287e+000 -1.248915e+002
21996418750 -5.243397e+000 7.467735e+001 -4.430175e+001 -1.178069e+002 -4.430361e+001 -1.197780e+002 -3.159799e+000 -1.257888e+002
22015162500 -5.257304e+000 7.385658e+001 -4.435089e+001 -1.190678e+002 -4.440554e+001 -1.233973e+002 -3.111223e+000 -1.266863e+002
22033906250 -5.279597e+000 7.307610e+001 -4.441933e+001 -1.196716e+002 -4.446345e+001 -1.237428e+002 -3.069985e+000 -1.275889e+002
22052650000 -5.305475e+000 7.228462e+001 -4.433915e+001 -1.212315e+002 -4.435350e+001 -1.247044e+002 -3.030132e+000 -1.284801e+002
22071393750 -5.325526e+000 7.144892e+001 -4.437468e+001 -1.211219e+002 -4.436549e+001 -1.251649e+002 -2.991183e+000 -1.293686e+002
22090137500 -5.345389e+000 7.062103e+001 -4.431298e+001 -1.227343e+002 -4.444530e+001 -1.241981e+002 -2.954539e+000 -1.302251e+002
22108881250 -5.367095e+000 6.979764e+001 -4.427432e+001 -1.224823e+002 -4.475626e+001 -1.259375e+002 -2.921228e+000 -1.310617e+002
22127625000 -5.379888e+000 6.902018e+001 -4.430503e+001 -1.224919e+002 -4.484052e+001 -1.251800e+002 -2.885069e+000 -1.319051e+002
22146368750 -5.404349e+000 6.818885e+001 -4.439463e+001 -1.234282e+002 -4.458679e+001 -1.284648e+002 -2.849294e+000 -1.327354e+002
22165112500 -5.432658e+000 6.739678e+001 -4.455077e+001 -1.243506e+002 -4.462798e+001 -1.296838e+002 -2.813561e+000 -1.335612e+002
22183856250 -5.451874e+000 6.655419e+001 -4.455262e+001 -1.245605e+002 -4.463202e+001 -1.290104e+002 -2.781237e+000 -1.343737e+002
22202600000 -5.471300e+000 6.570355e+001 -4.466111e+001 -1.252355e+002 -4.463807e+001 -1.285005e+002 -2.750733e+000 -1.352151e+002
22221343750 -5.494362e+000 6.481689e+001 -4.472340e+001 -1.257013e+002 -4.461461e+001 -1.284617e+002 -2.717782e+000 -1.360560e+002
22240087500 -5.513868e+000 6.398838e+001 -4.472126e+001 -1.269994e+002 -4.481557e+001 -1.285313e+002 -2.686995e+000 -1.368548e+002
22258831250 -5.535299e+000 6.314733e+001 -4.505662e+001 -1.293294e+002 -4.484557e+001 -1.280115e+002 -2.657180e+000 -1.376718e+002
22277575000 -5.567122e+000 6.226913e+001 -4.494110e+001 -1.308946e+002 -4.486221e+001 -1.268008e+002 -2.626733e+000 -1.384850e+002
22296318750 -5.588657e+000 6.141725e+001 -4.499415e+001 -1.312123e+002 -4.515765e+001 -1.280096e+002 -2.596940e+000 -1.392850e+002
22315062500 -5.612695e+000 6.055847e+001 -4.522094e+001 -1.304231e+002 -4.500816e+001 -1.287029e+002 -2.568931e+000 -1.400582e+002
22333806250 -5.629787e+000 5.968010e+001 -4.533552e+001 -1.310190e+002 -4.491263e+001 -1.275988e+002 -2.543728e+000 -1.408773e+002
22352550000 -5.650353e+000 5.883002e+001 -4.539465e+001 -1.319897e+002 -4.488537e+001 -1.298163e+002 -2.516388e+000 -1.416585e+002
22371293750 -5.677198e+000 5.802867e+001 -4.573872e+001 -1.349305e+002 -4.489656e+001 -1.298501e+002 -2.490438e+000 -1.424673e+002
22390037500 -5.705117e+000 5.717485e+001 -4.593032e+001 -1.351844e+002 -4.513630e+001 -1.317553e+002 -2.465992e+000 -1.432747e+002
22408781250 -5.731009e+000 5.628920e+001 -4.601490e+001 -1.368188e+002 -4.531248e+001 -1.314228e+002 -2.441284e+000 -1.440595e+002
22427525000 -5.758284e+000 5.540818e+001 -4.607680e+001 -1.375816e+002 -4.561099e+001 -1.329710e+002 -2.414597e+000 -1.448474e+002
22446268750 -5.779639e+000 5.446415e+001 -4.604034e+001 -1.384688e+002 -4.572979e+001 -1.311646e+002 -2.392678e+000 -1.456466e+002
22465012500 -5.797033e+000 5.360421e+001 -4.618819e+001 -1.383605e+002 -4.577996e+001 -1.329105e+002 -2.368248e+000 -1.464259e+002
22483756250 -5.825710e+000 5.277407e+001 -4.671397e+001 -1.379902e+002 -4.597004e+001 -1.345343e+002 -2.344288e+000 -1.472161e+002
22502500000 -5.848211e+000 5.185136e+001 -4.659280e+001 -1.394270e+002 -4.612209e+001 -1.345018e+002 -2.320142e+000 -1.479822e+002
22521243750 -5.869817e+000 5.091886e+001 -4.673706e+001 -1.400552e+002 -4.637580e+001 -1.360106e+002 -2.296751e+000 -1.487421e+002
22539987500 -5.891372e+000 4.996828e+001 -4.683324e+001 -1.422159e+002 -4.631820e+001 -1.356816e+002 -2.275290e+000 -1.495260e+002
22558731250 -5.916687e+000 4.901312e+001 -4.713115e+001 -1.425037e+002 -4.650502e+001 -1.373687e+002 -2.254143e+000 -1.502851e+002
22577475000 -5.933659e+000 4.814962e+001 -4.723260e+001 -1.419461e+002 -4.657858e+001 -1.375768e+002 -2.233433e+000 -1.510484e+002
22596218750 -5.958237e+000 4.726333e+001 -4.720167e+001 -1.426663e+002 -4.689005e+001 -1.379412e+002 -2.214916e+000 -1.518015e+002
22614962500 -5.986959e+000 4.634860e+001 -4.726814e+001 -1.432357e+002 -4.690307e+001 -1.386368e+002 -2.194665e+000 -1.525643e+002
22633706250 -6.015731e+000 4.542701e+001 -4.720763e+001 -1.439547e+002 -4.694471e+001 -1.409034e+002 -2.174980e+000 -1.533049e+002
22652450000 -6.041624e+000 4.450808e+001 -4.713550e+001 -1.449889e+002 -4.686834e+001 -1.418543e+002 -2.159101e+000 -1.540279e+002
22671193750 -6.062597e+000 4.359382e+001 -4.719512e+001 -1.457256e+002 -4.669492e+001 -1.420642e+002 -2.146012e+000 -1.547616e+002
22689937500 -6.090113e+000 4.268535e+001 -4.683135e+001 -1.457962e+002 -4.663499e+001 -1.422860e+002 -2.130842e+000 -1.555125e+002
22708681250 -6.112567e+000 4.175714e+001 -4.714841e+001 -1.479788e+002 -4.664403e+001 -1.427336e+002 -2.117421e+000 -1.562115e+002
22727425000 -6.139919e+000 4.086294e+001 -4.705681e+001 -1.493564e+002 -4.645089e+001 -1.416866e+002 -2.107680e+000 -1.569258e+002
22746168750 -6.168425e+000 3.983797e+001 -4.696510e+001 -1.506081e+002 -4.642919e+001 -1.405005e+002 -2.091157e+000 -1.576663e+002
22764912500 -6.189291e+000 3.889679e+001 -4.696852e+001 -1.507343e+002 -4.644831e+001 -1.422355e+002 -2.078190e+000 -1.583438e+002
22783656250 -6.213573e+000 3.802058e+001 -4.700317e+001 -1.507290e+002 -4.660324e+001 -1.427234e+002 -2.073732e+000 -1.590667e+002
22802400000 -6.237113e+000 3.703141e+001 -4.688095e+001 -1.491017e+002 -4.690089e+001 -1.431224e+002 -2.060228e+000 -1.597603e+002
22821143750 -6.256390e+000 3.610131e+001 -4.684300e+001 -1.507127e+002 -4.690018e+001 -1.441314e+002 -2.048824e+000 -1.604274e+002
22839887500 -6.281507e+000 3.514608e+001 -4.685854e+001 -1.504648e+002 -4.702019e+001 -1.433582e+002 -2.040762e+000 -1.611241e+002
22858631250 -6.307951e+000 3.410263e+001 -4.679370e+001 -1.506909e+002 -4.678319e+001 -1.436483e+002 -2.030044e+000 -1.618265e+002
22877375000 -6.324816e+000 3.315316e+001 -4.693655e+001 -1.507412e+002 -4.664570e+001 -1.443791e+002 -2.022974e+000 -1.624602e+002
22896118750 -6.352096e+000 3.220530e+001 -4.678217e+001 -1.527751e+002 -4.659229e+001 -1.460927e+002 -2.016230e+000 -1.631695e+002
22914862500 -6.374198e+000 3.120948e+001 -4.647227e+001 -1.558406e+002 -4.653893e+001 -1.456819e+002 -2.004799e+000 -1.638291e+002
22933606250 -6.400626e+000 3.031885e+001 -4.668158e+001 -1.563375e+002 -4.659938e+001 -1.479038e+002 -1.999038e+000 -1.644605e+002
22952350000 -6.440072e+000 2.935305e+001 -4.668582e+001 -1.564524e+002 -4.648513e+001 -1.499122e+002 -1.996532e+000 -1.651529e+002
22971093750 -6.465692e+000 2.830925e+001 -4.661714e+001 -1.558804e+002 -4.654406e+001 -1.500389e+002 -1.985821e+000 -1.657890e+002
22989837500 -6.481908e+000 2.733774e+001 -4.655016e+001 -1.566476e+002 -4.656720e+001 -1.525372e+002 -1.984516e+000 -1.664299e+002
23008581250 -6.512623e+000 2.632374e+001 -4.660598e+001 -1.561331e+002 -4.673499e+001 -1.536657e+002 -1.982516e+000 -1.671174e+002
23027325000 -6.532094e+000 2.530121e+001 -4.657918e+001 -1.578485e+002 -4.653232e+001 -1.548553e+002 -1.973427e+000 -1.677492e+002
23046068750 -6.557303e+000 2.434725e+001 -4.665170e+001 -1.600626e+002 -4.665020e+001 -1.551714e+002 -1.973225e+000 -1.683772e+002
23064812500 -6.592299e+000 2.332139e+001 -4.682328e+001 -1.630236e+002 -4.698096e+001 -1.550207e+002 -1.968552e+000 -1.690374e+002
23083556250 -6.613471e+000 2.223423e+001 -4.691935e+001 -1.630778e+002 -4.739566e+001 -1.576218e+002 -1.960574e+000 -1.696458e+002
23102300000 -6.633632e+000 2.120087e+001 -4.691412e+001 -1.655789e+002 -4.748130e+001 -1.588701e+002 -1.959248e+000 -1.702452e+002
23121043750 -6.655888e+000 2.018468e+001 -4.694051e+001 -1.663799e+002 -4.749337e+001 -1.617401e+002 -1.956833e+000 -1.708790e+002
23139787500 -6.674830e+000 1.918192e+001 -4.697276e+001 -1.660372e+002 -4.750453e+001 -1.628670e+002 -1.949896e+000 -1.714847e+002
23158531250 -6.704010e+000 1.815557e+001 -4.730957e+001 -1.705279e+002 -4.782413e+001 -1.672008e+002 -1.949732e+000 -1.721086e+002
23177275000 -6.736992e+000 1.715540e+001 -4.728533e+001 -1.722379e+002 -4.792393e+001 -1.693521e+002 -1.946481e+000 -1.727269e+002
23196018750 -6.761467e+000 1.605077e+001 -4.740493e+001 -1.734022e+002 -4.805403e+001 -1.696722e+002 -1.939396e+000 -1.733103e+002
23214762500 -6.777593e+000 1.496845e+001 -4.723141e+001 -1.739641e+002 -4.834095e+001 -1.700615e+002 -1.933915e+000 -1.739121e+002
23233506250 -6.799139e+000 1.394236e+001 -4.737620e+001 -1.761205e+002 -4.827021e+001 -1.695182e+002 -1.929817e+000 -1.745293e+002
23252250000 -6.821347e+000 1.293807e+001 -4.777227e+001 -1.763248e+002 -4.816882e+001 -1.690247e+002 -1.926596e+000 -1.751119e+002
23270993750 -6.853486e+000 1.193284e+001 -4.779992e+001 -1.765900e+002 -4.832390e+001 -1.722301e+002 -1.925757e+000 -1.756951e+002
23289737500 -6.885960e+000 1.087627e+001 -4.796055e+001 -1.782951e+002 -4.851292e+001 -1.742675e+002 -1.921080e+000 -1.762819e+002
23308481250 -6.911426e+000 9.781219e+000 -4.816471e+001 -1.785940e+002 -4.864519e+001 -1.754437e+002 -1.917268e+000 -1.768502e+002
23327225000 -6.929222e+000 8.709760e+000 -4.891378e+001 1.788516e+002 -4.897419e+001 -1.793731e+002 -1.917328e+000 -1.774119e+002
23345968750 -6.950460e+000 7.619825e+000 -4.886701e+001 -1.788507e+002 -4.909012e+001 1.785130e+002 -1.911669e+000 -1.779992e+002
23364712500 -6.969202e+000 6.561512e+000 -4.929050e+001 -1.764514e+002 -4.908423e+001 -1.797676e+002 -1.906001e+000 -1.785665e+002
23383456250 -6.990954e+000 5.573392e+000 -4.953361e+001 -1.788026e+002 -4.930495e+001 1.755754e+002 -1.903179e+000 -1.791333e+002
23402200000 -7.021728e+000 4.485476e+000 -4.985164e+001 -1.756750e+002 -4.932410e+001 1.738884e+002 -1.900042e+000 -1.797086e+002
23420943750 -7.043526e+000 3.362535e+000 -4.982249e+001 -1.743127e+002 -4.931762e+001 1.739561e+002 -1.895368e+000 1.797586e+002
23439687500 -7.064316e+000 2.305859e+000 -4.994693e+001 -1.721406e+002 -4.937254e+001 1.731918e+002 -1.893966e+000 1.792130e+002
23458431250 -7.083410e+000 1.176752e+000 -5.031335e+001 -1.697569e+002 -4.991087e+001 1.758161e+002 -1.892215e+000 1.786428e+002
23477175000 -7.102179e+000 1.283609e-001 -5.039626e+001 -1.701190e+002 -5.041603e+001 1.742213e+002 -1.885903e+000 1.780991e+002
23495918750 -7.122445e+000 -9.271675e-001 -5.073970e+001 -1.689814e+002 -5.029583e+001 1.740681e+002 -1.885356e+000 1.775500e+002
23514662500 -7.154062e+000 -2.031377e+000 -5.110136e+001 -1.702357e+002 -5.051672e+001 1.780109e+002 -1.880197e+000 1.769842e+002
23533406250 -7.175262e+000 -3.159436e+000 -5.134793e+001 -1.681301e+002 -5.109539e+001 -1.767110e+002 -1.876101e+000 1.764570e+002
23552150000 -7.193311e+000 -4.279455e+000 -5.155991e+001 -1.685995e+002 -5.141455e+001 -1.730093e+002 -1.876248e+000 1.758916e+002
23570893750 -7.212751e+000 -5.396394e+000 -5.154153e+001 -1.658884e+002 -5.180078e+001 -1.709570e+002 -1.871290e+000 1.753270e+002
23589637500 -7.225892e+000 -6.483728e+000 -5.183693e+001 -1.595682e+002 -5.178640e+001 -1.683980e+002 -1.866422e+000 1.748150e+002
23608381250 -7.250341e+000 -7.559287e+000 -5.221833e+001 -1.566120e+002 -5.221020e+001 -1.707946e+002 -1.869112e+000 1.742818e+002
23627125000 -7.277617e+000 -8.719811e+000 -5.229003e+001 -1.595364e+002 -5.240740e+001 -1.698371e+002 -1.864038e+000 1.737271e+002
23645868750 -7.297459e+000 -9.860746e+000 -5.275137e+001 -1.595557e+002 -5.259546e+001 -1.686493e+002 -1.864427e+000 1.732146e+002
23664612500 -7.317036e+000 -1.098390e+001 -5.311470e+001 -1.582796e+002 -5.269231e+001 -1.707150e+002 -1.866125e+000 1.726707e+002
23683356250 -7.339373e+000 -1.214880e+001 -5.296412e+001 -1.543864e+002 -5.275358e+001 -1.708108e+002 -1.857077e+000 1.721079e+002
23702100000 -7.353315e+000 -1.325250e+001 -5.336992e+001 -1.531722e+002 -5.292932e+001 -1.695875e+002 -1.854233e+000 1.716009e+002
23720843750 -7.371837e+000 -1.433012e+001 -5.377710e+001 -1.519070e+002 -5.351404e+001 -1.742066e+002 -1.853681e+000 1.710354e+002
23739587500 -7.393919e+000 -1.551755e+001 -5.367908e+001 -1.531481e+002 -5.343891e+001 1.717550e+002 -1.846210e+000 1.705037e+002
23758331250 -7.406770e+000 -1.668039e+001 -5.349412e+001 -1.457818e+002 -5.345396e+001 1.583892e+002 -1.847169e+000 1.699939e+002
23777075000 -7.426919e+000 -1.781802e+001 -5.399937e+001 -1.471055e+002 -5.362235e+001 1.460685e+002 -1.848865e+000 1.694407e+002
23795818750 -7.440830e+000 -1.896701e+001 -5.361976e+001 -1.481539e+002 -5.377542e+001 1.253308e+002 -1.845500e+000 1.689052e+002
23814562500 -7.451653e+000 -2.010813e+001 -5.361782e+001 -1.457225e+002 -5.373380e+001 1.142218e+002 -1.848395e+000 1.683774e+002
23833306250 -7.472082e+000 -2.121021e+001 -5.381044e+001 -1.497363e+002 -5.381297e+001 9.782098e+001 -1.845425e+000 1.678153e+002
23852050000 -7.491368e+000 -2.240316e+001 -5.423962e+001 -1.518773e+002 -5.370230e+001 8.574066e+001 -1.838184e+000 1.672747e+002
23870793750 -7.498462e+000 -2.357634e+001 -5.463800e+001 -1.574301e+002 -5.361611e+001 7.155649e+001 -1.837583e+000 1.667548e+002
23889537500 -7.515649e+000 -2.470949e+001 -5.521485e+001 -1.643309e+002 -5.352665e+001 5.404441e+001 -1.834306e+000 1.661912e+002
23908281250 -7.528698e+000 -2.586883e+001 -5.524273e+001 -1.632869e+002 -5.327834e+001 3.691212e+001 -1.830179e+000 1.656855e+002
23927025000 -7.542670e+000 -2.700290e+001 -5.480615e+001 -1.616102e+002 -5.323002e+001 2.282438e+001 -1.835133e+000 1.651550e+002
23945768750 -7.559598e+000 -2.814963e+001 -5.473925e+001 -1.582539e+002 -5.291073e+001 4.010843e+000 -1.836630e+000 1.645809e+002
23964512500 -7.571043e+000 -2.934850e+001 -5.462918e+001 -1.580552e+002 -5.290431e+001 -9.616985e+000 -1.829664e+000 1.640443e+002
23983256250 -7.578958e+000 -3.052363e+001 -5.453953e+001 -1.552302e+002 -5.299059e+001 -2.608285e+001 -1.831974e+000 1.635355e+002
24002000000 -7.589322e+000 -3.168628e+001 -5.441907e+001 -1.584904e+002 -5.280825e+001 -4.284006e+001 -1.829188e+000 1.629647e+002
24020743750 -7.600538e+000 -3.286571e+001 -5.415696e+001 -1.606068e+002 -5.268530e+001 -6.048230e+001 -1.827271e+000 1.624523e+002
24039487500 -7.607065e+000 -3.399516e+001 -5.402509e+001 -1.611933e+002 -5.294042e+001 -7.280875e+001 -1.829766e+000 1.618968e+002
24058231250 -7.620597e+000 -3.513343e+001 -5.435378e+001 -1.560329e+002 -5.332400e+001 -9.049404e+001 -1.831272e+000 1.613315e+002
24076975000 -7.629901e+000 -3.632862e+001 -5.400784e+001 -1.562415e+002 -5.317363e+001 -1.056680e+002 -1.827754e+000 1.608224e+002
24095718750 -7.628622e+000 -3.751935e+001 -5.356221e+001 -1.551125e+002 -5.314699e+001 -1.189679e+002 -1.832610e+000 1.602947e+002
24114462500 -7.633745e+000 -3.870610e+001 -5.385506e+001 -1.612469e+002 -5.317123e+001 -1.342003e+002 -1.838887e+000 1.597506e+002
24133206250 -7.633181e+000 -3.987414e+001 -5.371515e+001 -1.609389e+002 -5.266367e+001 -1.501827e+002 -1.837316e+000 1.592451e+002
24151950000 -7.639675e+000 -4.103798e+001 -5.344769e+001 -1.600058e+002 -5.205061e+001 -1.562496e+002 -1.845839e+000 1.587175e+002
24170693750 -7.654468e+000 -4.221913e+001 -5.366285e+001 -1.589339e+002 -5.245309e+001 -1.571666e+002 -1.845776e+000 1.581683e+002
24189437500 -7.660512e+000 -4.344508e+001 -5.340329e+001 -1.631788e+002 -5.231727e+001 -1.532404e+002 -1.845726e+000 1.576744e+002
24208181250 -7.659367e+000 -4.464738e+001 -5.316246e+001 -1.611355e+002 -5.251784e+001 -1.572354e+002 -1.851824e+000 1.571457e+002
24226925000 -7.662033e+000 -4.587617e+001 -5.329334e+001 -1.638413e+002 -5.257578e+001 -1.572470e+002 -1.852173e+000 1.566035e+002
24245668750 -7.662181e+000 -4.707039e+001 -5.341680e+001 -1.653914e+002 -5.248005e+001 -1.572513e+002 -1.851814e+000 1.561086e+002
24264412500 -7.663957e+000 -4.824430e+001 -5.318855e+001 -1.634648e+002 -5.268624e+001 -1.556489e+002 -1.860686e+000 1.555718e+002
24283156250 -7.667799e+000 -4.944429e+001 -5.303887e+001 -1.651707e+002 -5.302610e+001 -1.548095e+002 -1.859832e+000 1.550444e+002
24301900000 -7.666275e+000 -5.065269e+001 -5.321652e+001 -1.618716e+002 -5.313027e+001 -1.572252e+002 -1.863574e+000 1.545750e+002
24320643750 -7.659182e+000 -5.187024e+001 -5.237734e+001 -1.565039e+002 -5.329146e+001 -1.567710e+002 -1.873881e+000 1.540487e+002
24339387500 -7.654215e+000 -5.306859e+001 -5.249475e+001 -1.568767e+002 -5.356223e+001 -1.548586e+002 -1.875715e+000 1.535117e+002
24358131250 -7.649181e+000 -5.424687e+001 -5.291581e+001 -1.568185e+002 -5.351366e+001 -1.549261e+002 -1.878473e+000 1.530594e+002
24376875000 -7.647822e+000 -5.541727e+001 -5.330950e+001 -1.652524e+002 -5.360164e+001 -1.550460e+002 -1.885715e+000 1.525410e+002
24395618750 -7.651511e+000 -5.666721e+001 -5.330368e+001 -1.651078e+002 -5.356065e+001 -1.614305e+002 -1.883463e+000 1.519996e+002
24414362500 -7.647255e+000 -5.789289e+001 -5.354543e+001 -1.659495e+002 -5.334298e+001 -1.616855e+002 -1.884902e+000 1.515225e+002
24433106250 -7.645776e+000 -5.907335e+001 -5.395382e+001 -1.625277e+002 -5.371259e+001 -1.640867e+002 -1.891393e+000 1.509987e+002
24451850000 -7.635541e+000 -6.030114e+001 -5.402341e+001 -1.619198e+002 -5.402414e+001 -1.606253e+002 -1.888138e+000 1.504754e+002
24470593750 -7.625295e+000 -6.149678e+001 -5.377626e+001 -1.614848e+002 -5.371466e+001 -1.629944e+002 -1.892695e+000 1.500309e+002
24489337500 -7.621444e+000 -6.267562e+001 -5.351820e+001 -1.656018e+002 -5.314121e+001 -1.621816e+002 -1.896824e+000 1.494981e+002
24508081250 -7.616357e+000 -6.390965e+001 -5.411237e+001 -1.649352e+002 -5.310267e+001 -1.616776e+002 -1.895725e+000 1.489988e+002
24526825000 -7.608419e+000 -6.515844e+001 -5.439543e+001 -1.688514e+002 -5.320970e+001 -1.591727e+002 -1.900230e+000 1.485223e+002
24545568750 -7.598188e+000 -6.636238e+001 -5.390058e+001 -1.644895e+002 -5.324963e+001 -1.576059e+002 -1.902380e+000 1.479949e+002
24564312500 -7.588142e+000 -6.759924e+001 -5.376385e+001 -1.670130e+002 -5.345244e+001 -1.611414e+002 -1.897972e+000 1.474844e+002
24583056250 -7.578971e+000 -6.879940e+001 -5.396750e+001 -1.673588e+002 -5.362465e+001 -1.625313e+002 -1.897412e+000 1.470106e+002
24601800000 -7.567228e+000 -6.995591e+001 -5.375071e+001 -1.681116e+002 -5.379136e+001 -1.616288e+002 -1.898869e+000 1.464455e+002
24620543750 -7.559763e+000 -7.119773e+001 -5.383927e+001 -1.672719e+002 -5.436416e+001 -1.566056e+002 -1.892908e+000 1.459370e+002
24639287500 -7.544839e+000 -7.239467e+001 -5.381584e+001 -1.690880e+002 -5.411376e+001 -1.512437e+002 -1.897359e+000 1.454793e+002
24658031250 -7.531736e+000 -7.357291e+001 -5.369201e+001 -1.671375e+002 -5.422792e+001 -1.464604e+002 -1.901778e+000 1.449161e+002
24676775000 -7.520331e+000 -7.481056e+001 -5.340767e+001 -1.661015e+002 -5.408296e+001 -1.430491e+002 -1.896402e+000 1.444403e+002
24695518750 -7.504283e+000 -7.598898e+001 -5.332296e+001 -1.637489e+002 -5.385412e+001 -1.436622e+002 -1.900697e+000 1.439574e+002
24714262500 -7.497878e+000 -7.717867e+001 -5.327190e+001 -1.565449e+002 -5.354620e+001 -1.468341e+002 -1.903595e+000 1.434018e+002
24733006250 -7.484350e+000 -7.842735e+001 -5.279176e+001 -1.593110e+002 -5.355647e+001 -1.430217e+002 -1.893798e+000 1.428964e+002
24751750000 -7.472122e+000 -7.961143e+001 -5.287664e+001 -1.568112e+002 -5.313267e+001 -1.414639e+002 -1.897148e+000 1.424407e+002
24770493750 -7.462507e+000 -8.079675e+001 -5.288150e+001 -1.539224e+002 -5.253683e+001 -1.396862e+002 -1.894866e+000 1.419232e+002
24789237500 -7.448714e+000 -8.201388e+001 -5.277769e+001 -1.542023e+002 -5.254289e+001 -1.393426e+002 -1.892327e+000 1.414518e+002
24807981250 -7.427487e+000 -8.318697e+001 -5.247236e+001 -1.473182e+002 -5.246498e+001 -1.332131e+002 -1.900089e+000 1.409691e+002
24826725000 -7.416503e+000 -8.434120e+001 -5.281237e+001 -1.463832e+002 -5.205162e+001 -1.322254e+002 -1.901282e+000 1.404283e+002
24845468750 -7.402268e+000 -8.554023e+001 -5.292966e+001 -1.491006e+002 -5.214846e+001 -1.323639e+002 -1.899761e+000 1.399891e+002
24864212500 -7.379901e+000 -8.674781e+001 -5.254506e+001 -1.490583e+002 -5.193748e+001 -1.309765e+002 -1.905738e+000 1.394939e+002
24882956250 -7.365997e+000 -8.791974e+001 -5.260276e+001 -1.485864e+002 -5.177232e+001 -1.287063e+002 -1.901944e+000 1.389822e+002
24901700000 -7.349733e+000 -8.910168e+001 -5.274689e+001 -1.500397e+002 -5.148538e+001 -1.258274e+002 -1.895171e+000 1.385307e+002
24920443750 -7.333423e+000 -9.025626e+001 -5.270818e+001 -1.456564e+002 -5.215245e+001 -1.252690e+002 -1.901262e+000 1.380307e+002
24939187500 -7.319767e+000 -9.145636e+001 -5.223799e+001 -1.433463e+002 -5.247686e+001 -1.274244e+002 -1.890237e+000 1.374920e+002
24957931250 -7.303241e+000 -9.264292e+001 -5.194854e+001 -1.389468e+002 -5.259892e+001 -1.287791e+002 -1.879750e+000 1.370056e+002
24976675000 -7.281780e+000 -9.379926e+001 -5.208517e+001 -1.413320e+002 -5.255492e+001 -1.280744e+002 -1.882686e+000 1.364967e+002
24995418750 -7.261709e+000 -9.497183e+001 -5.184669e+001 -1.387178e+002 -5.250761e+001 -1.235455e+002 -1.876498e+000 1.359372e+002
25014162500 -7.235545e+000 -9.610648e+001 -5.159729e+001 -1.388476e+002 -5.234368e+001 -1.211009e+002 -1.879408e+000 1.354402e+002
25032906250 -7.218593e+000 -9.725809e+001 -5.192883e+001 -1.355548e+002 -5.190446e+001 -1.199985e+002 -1.882953e+000 1.348882e+002
25051650000 -7.198847e+000 -9.838478e+001 -5.176836e+001 -1.353636e+002 -5.130280e+001 -1.235605e+002 -1.873516e+000 1.343016e+002
25070393750 -7.176064e+000 -9.955186e+001 -5.167789e+001 -1.350770e+002 -5.133348e+001 -1.262634e+002 -1.870939e+000 1.338020e+002
25089137500 -7.156521e+000 -1.007087e+002 -5.188745e+001 -1.355415e+002 -5.160793e+001 -1.261372e+002 -1.869200e+000 1.332818e+002
25107881250 -7.136684e+000 -1.018312e+002 -5.207134e+001 -1.336921e+002 -5.158576e+001 -1.284378e+002 -1.863300e+000 1.327544e+002
25126625000 -7.111629e+000 -1.029480e+002 -5.196642e+001 -1.363093e+002 -5.147111e+001 -1.280528e+002 -1.863787e+000 1.322599e+002
25145368750 -7.091715e+000 -1.040602e+002 -5.179881e+001 -1.403992e+002 -5.132979e+001 -1.276888e+002 -1.870454e+000 1.317076e+002
25164112500 -7.073697e+000 -1.051986e+002 -5.141121e+001 -1.389629e+002 -5.121597e+001 -1.309855e+002 -1.869333e+000 1.311355e+002
25182856250 -7.049833e+000 -1.063167e+002 -5.127537e+001 -1.418067e+002 -5.105245e+001 -1.333198e+002 -1.871360e+000 1.306124e+002
25201600000 -7.023713e+000 -1.074474e+002 -5.107170e+001 -1.445444e+002 -5.102498e+001 -1.349342e+002 -1.874833e+000 1.300287e+002
25220343750 -6.998604e+000 -1.085445e+002 -5.080612e+001 -1.453158e+002 -5.121244e+001 -1.368311e+002 -1.870923e+000 1.294849e+002
25239087500 -6.976598e+000 -1.096311e+002 -5.054641e+001 -1.472694e+002 -5.139210e+001 -1.405362e+002 -1.873922e+000 1.289982e+002
25257831250 -6.954472e+000 -1.107132e+002 -5.029985e+001 -1.491239e+002 -5.146637e+001 -1.424159e+002 -1.885011e+000 1.284317e+002
25276575000 -6.932299e+000 -1.118249e+002 -4.989053e+001 -1.453448e+002 -5.126714e+001 -1.419525e+002 -1.878637e+000 1.278796e+002
25295318750 -6.905627e+000 -1.129192e+002 -4.986211e+001 -1.484098e+002 -5.100358e+001 -1.436007e+002 -1.885254e+000 1.273723e+002
25314062500 -6.882045e+000 -1.139938e+002 -4.958597e+001 -1.496427e+002 -5.073932e+001 -1.476069e+002 -1.891917e+000 1.268004e+002
25332806250 -6.853702e+000 -1.150708e+002 -4.958080e+001 -1.503501e+002 -5.084676e+001 -1.490445e+002 -1.893536e+000 1.262953e+002
25351550000 -6.828314e+000 -1.161260e+002 -4.945420e+001 -1.537843e+002 -4.988502e+001 -1.502415e+002 -1.903686e+000 1.258147e+002
25370293750 -6.812585e+000 -1.171435e+002 -4.918792e+001 -1.573021e+002 -4.964364e+001 -1.499994e+002 -1.917890e+000 1.252809e+002
25389037500 -6.790104e+000 -1.181973e+002 -4.909655e+001 -1.597521e+002 -4.952592e+001 -1.503278e+002 -1.931581e+000 1.247585e+002
25407781250 -6.767221e+000 -1.192846e+002 -4.919081e+001 -1.561747e+002 -4.984444e+001 -1.568808e+002 -1.934190e+000 1.243086e+002
25426525000 -6.742019e+000 -1.203193e+002 -4.918062e+001 -1.581446e+002 -5.006445e+001 -1.593167e+002 -1.957193e+000 1.238523e+002
25445268750 -6.718410e+000 -1.213731e+002 -4.932389e+001 -1.591695e+002 -5.038523e+001 -1.657666e+002 -1.959099e+000 1.233668e+002
25464012500 -6.691548e+000 -1.223862e+002 -4.895049e+001 -1.649049e+002 -5.009104e+001 -1.707752e+002 -1.971151e+000 1.229845e+002
25482756250 -6.670308e+000 -1.234680e+002 -4.936738e+001 -1.693586e+002 -5.038563e+001 -1.751083e+002 -1.998305e+000 1.225804e+002
25501500000 -6.648547e+000 -1.244929e+002 -4.920992e+001 -1.717619e+002 -5.061829e+001 -1.732262e+002 -2.004641e+000 1.220345e+002
25520243750 -6.625978e+000 -1.255134e+002 -4.884526e+001 -1.726065e+002 -5.036725e+001 -1.647916e+002 -2.007794e+000 1.216608e+002
25538987500 -6.591860e+000 -1.265766e+002 -4.888080e+001 1.798034e+002 -5.051422e+001 -1.511994e+002 -2.032580e+000 1.212181e+002
25557731250 -6.566693e+000 -1.275788e+002 -4.945080e+001 1.751880e+002 -5.044157e+001 -1.391927e+002 -2.040168e+000 1.207331e+002
25576475000 -6.546010e+000 -1.286030e+002 -4.955775e+001 1.727852e+002 -5.109975e+001 -1.262489e+002 -2.042991e+000 1.203754e+002
25595218750 -6.520078e+000 -1.296207e+002 -5.076098e+001 1.699733e+002 -5.143436e+001 -1.070862e+002 -2.068386e+000 1.199552e+002
25613962500 -6.498666e+000 -1.306284e+002 -5.102170e+001 1.717470e+002 -5.172246e+001 -9.114089e+001 -2.075188e+000 1.194563e+002
25632706250 -6.473941e+000 -1.317057e+002 -5.104298e+001 1.704474e+002 -5.196295e+001 -7.178752e+001 -2.082779e+000 1.190956e+002
25651450000 -6.436824e+000 -1.327083e+002 -5.139503e+001 1.718323e+002 -5.202735e+001 -5.983553e+001 -2.106769e+000 1.186555e+002
25670193750 -6.409284e+000 -1.336499e+002 -5.154930e+001 1.720392e+002 -5.205768e+001 -5.152948e+001 -2.110365e+000 1.181860e+002
25688937500 -6.389420e+000 -1.346750e+002 -5.187936e+001 1.759044e+002 -5.237236e+001 -3.644946e+001 -2.119081e+000 1.178739e+002
25707681250 -6.359686e+000 -1.356799e+002 -5.249756e+001 -1.765022e+002 -5.335640e+001 -2.844415e+001 -2.146532e+000 1.173888e+002
25726425000 -6.341593e+000 -1.366692e+002 -5.273021e+001 -1.618562e+002 -5.356609e+001 -1.631518e+001 -2.154946e+000 1.169296e+002
25745168750 -6.313990e+000 -1.377297e+002 -5.372063e+001 -1.416022e+002 -5.373389e+001 -1.880947e+000 -2.168854e+000 1.165743e+002
25763912500 -6.277891e+000 -1.387212e+002 -5.409954e+001 -1.154551e+002 -5.361914e+001 1.329105e+001 -2.192444e+000 1.160991e+002
25782656250 -6.253874e+000 -1.396510e+002 -5.424677e+001 -8.475554e+001 -5.444798e+001 2.518147e+001 -2.196736e+000 1.156761e+002
25801400000 -6.227890e+000 -1.406420e+002 -5.511279e+001 -5.875861e+001 -5.452526e+001 3.773956e+001 -2.214620e+000 1.153028e+002
25820143750 -6.201095e+000 -1.416188e+002 -5.534131e+001 -2.652186e+001 -5.456780e+001 5.042633e+001 -2.234171e+000 1.148504e+002
25838887500 -6.179472e+000 -1.425863e+002 -5.579337e+001 8.013493e+000 -5.441163e+001 6.996989e+001 -2.247230e+000 1.143773e+002
25857631250 -6.153536e+000 -1.436089e+002 -5.650922e+001 3.867664e+001 -5.422013e+001 8.857690e+001 -2.252851e+000 1.139594e+002
25876375000 -6.122088e+000 -1.445335e+002 -5.706640e+001 7.669490e+001 -5.380576e+001 1.058670e+002 -2.275085e+000 1.135391e+002
25895118750 -6.105518e+000 -1.454530e+002 -5.716114e+001 1.117276e+002 -5.456796e+001 1.236202e+002 -2.285851e+000 1.130821e+002
25913862500 -6.086999e+000 -1.463850e+002 -5.714578e+001 1.518084e+002 -5.417892e+001 1.417773e+002 -2.293478e+000 1.126624e+002
25932606250 -6.060355e+000 -1.473333e+002 -5.736364e+001 -1.766376e+002 -5.436459e+001 1.566701e+002 -2.316694e+000 1.122778e+002
25951350000 -6.039133e+000 -1.483169e+002 -5.840710e+001 -1.458121e+002 -5.416002e+001 1.617802e+002 -2.337710e+000 1.117732e+002
25970093750 -6.014494e+000 -1.492797e+002 -5.868630e+001 -1.127528e+002 -5.395738e+001 1.646380e+002 -2.346188e+000 1.113562e+002
25988837500 -5.985336e+000 -1.501984e+002 -5.819868e+001 -7.886617e+001 -5.424056e+001 1.692188e+002 -2.366779e+000 1.109490e+002
26007581250 -5.962540e+000 -1.510872e+002 -5.813218e+001 -4.761909e+001 -5.391252e+001 1.699013e+002 -2.388510e+000 1.104538e+002
26026325000 -5.938972e+000 -1.520326e+002 -5.703056e+001 -1.273018e+001 -5.355428e+001 1.649141e+002 -2.396134e+000 1.100247e+002
26045068750 -5.912335e+000 -1.529284e+002 -5.757657e+001 1.371002e+001 -5.364859e+001 1.653934e+002 -2.419771e+000 1.095907e+002
26063812500 -5.891963e+000 -1.538245e+002 -5.751704e+001 4.447238e+001 -5.365571e+001 1.578305e+002 -2.438616e+000 1.091140e+002
26082556250 -5.865782e+000 -1.547952e+002 -5.737479e+001 7.323949e+001 -5.411905e+001 1.523455e+002 -2.447030e+000 1.087202e+002
26101300000 -5.840810e+000 -1.556730e+002 -5.732451e+001 1.027271e+002 -5.418099e+001 1.560023e+002 -2.471000e+000 1.082944e+002
26120043750 -5.819501e+000 -1.565457e+002 -5.697889e+001 1.291809e+002 -5.397609e+001 1.525903e+002 -2.487710e+000 1.078090e+002
26138787500 -5.800542e+000 -1.574325e+002 -5.680016e+001 1.477632e+002 -5.332074e+001 1.612170e+002 -2.500068e+000 1.074298e+002
26157531250 -5.777538e+000 -1.583336e+002 -5.675857e+001 1.648799e+002 -5.358554e+001 1.620386e+002 -2.523328e+000 1.070089e+002
26176275000 -5.760397e+000 -1.591803e+002 -5.572169e+001 1.771401e+002 -5.433974e+001 1.652142e+002 -2.535644e+000 1.065274e+002
26195018750 -5.733251e+000 -1.600686e+002 -5.546600e+001 -1.798987e+002 -5.457166e+001 1.693470e+002 -2.552170e+000 1.061308e+002
26213762500 -5.707433e+000 -1.609292e+002 -5.539549e+001 -1.794560e+002 -5.434105e+001 1.757834e+002 -2.579354e+000 1.056774e+002
26232506250 -5.691082e+000 -1.617789e+002 -5.487936e+001 -1.743899e+002 -5.448622e+001 1.797196e+002 -2.592994e+000 1.052072e+002
26251250000 -5.665857e+000 -1.626648e+002 -5.501222e+001 -1.731056e+002 -5.443093e+001 1.798696e+002 -2.606159e+000 1.047840e+002
26269993750 -5.645491e+000 -1.635130e+002 -5.442952e+001 -1.794581e+002 -5.460207e+001 -1.777460e+002 -2.627805e+000 1.043212e+002
26288737500 -5.623846e+000 -1.644051e+002 -5.379265e+001 -1.790899e+002 -5.462132e+001 -1.786408e+002 -2.641402e+000 1.038543e+002
26307481250 -5.593808e+000 -1.652915e+002 -5.343598e+001 1.769458e+002 -5.497513e+001 -1.762844e+002 -2.658723e+000 1.034400e+002
26326225000 -5.566554e+000 -1.661068e+002 -5.342000e+001 1.752467e+002 -5.458996e+001 -1.748527e+002 -2.682506e+000 1.029672e+002
26344968750 -5.545534e+000 -1.669218e+002 -5.297894e+001 1.704366e+002 -5.514374e+001 -1.745135e+002 -2.699276e+000 1.024822e+002
26363712500 -5.522986e+000 -1.677764e+002 -5.312304e+001 1.735562e+002 -5.483243e+001 -1.773363e+002 -2.716561e+000 1.020304e+002
26382456250 -5.501935e+000 -1.685709e+002 -5.274153e+001 1.739731e+002 -5.474683e+001 -1.785744e+002 -2.740171e+000 1.015450e+002
26401200000 -5.480981e+000 -1.694032e+002 -5.224782e+001 1.749150e+002 -5.497174e+001 -1.773362e+002 -2.750618e+000 1.010501e+002
26419943750 -5.451915e+000 -1.702430e+002 -5.241376e+001 1.753211e+002 -5.463361e+001 1.797985e+002 -2.772439e+000 1.006185e+002
26438687500 -5.430672e+000 -1.710023e+002 -5.255164e+001 1.751423e+002 -5.458999e+001 1.786612e+002 -2.797369e+000 1.001508e+002
26457431250 -5.417768e+000 -1.717690e+002 -5.269106e+001 1.719676e+002 -5.471967e+001 -1.798394e+002 -2.818056e+000 9.966887e+001
26476175000 -5.398304e+000 -1.726132e+002 -5.201799e+001 1.752455e+002 -5.457990e+001 -1.769651e+002 -2.840463e+000 9.923425e+001
26494918750 -5.380592e+000 -1.734211e+002 -5.223559e+001 1.796337e+002 -5.440610e+001 -1.723433e+002 -2.864514e+000 9.871727e+001
26513662500 -5.363927e+000 -1.742539e+002 -5.229502e+001 1.782893e+002 -5.391763e+001 -1.622875e+002 -2.882259e+000 9.818270e+001
26532406250 -5.337597e+000 -1.750875e+002 -5.224381e+001 -1.795067e+002 -5.355203e+001 -1.600847e+002 -2.901338e+000 9.774099e+001
26551150000 -5.314703e+000 -1.758169e+002 -5.234243e+001 -1.780031e+002 -5.346950e+001 -1.549114e+002 -2.923756e+000 9.724537e+001
26569893750 -5.297038e+000 -1.766269e+002 -5.238997e+001 -1.714502e+002 -5.323535e+001 -1.585810e+002 -2.944626e+000 9.674274e+001
26588637500 -5.276168e+000 -1.773884e+002 -5.220546e+001 -1.712679e+002 -5.292599e+001 -1.571117e+002 -2.967979e+000 9.627888e+001
26607381250 -5.257465e+000 -1.781707e+002 -5.227410e+001 -1.728167e+002 -5.241832e+001 -1.595656e+002 -2.996609e+000 9.573665e+001
26626125000 -5.240280e+000 -1.790149e+002 -5.222880e+001 -1.729430e+002 -5.215533e+001 -1.632281e+002 -3.012237e+000 9.520534e+001
26644868750 -5.216741e+000 -1.797916e+002 -5.313665e+001 -1.785978e+002 -5.194968e+001 -1.655832e+002 -3.033293e+000 9.474999e+001
26663612500 -5.193715e+000 1.794734e+002 -5.297373e+001 -1.785995e+002 -5.158200e+001 -1.671521e+002 -3.056791e+000 9.421763e+001
26682356250 -5.181265e+000 1.787125e+002 -5.285888e+001 1.749783e+002 -5.158155e+001 -1.677891e+002 -3.074576e+000 9.374287e+001
26701100000 -5.160954e+000 1.779486e+002 -5.267928e+001 1.745090e+002 -5.131229e+001 -1.705191e+002 -3.103359e+000 9.327093e+001
26719843750 -5.146889e+000 1.772053e+002 -5.298682e+001 1.735480e+002 -5.119462e+001 -1.732629e+002 -3.126177e+000 9.270858e+001
26738587500 -5.128700e+000 1.764092e+002 -5.306653e+001 1.687919e+002 -5.090939e+001 -1.792976e+002 -3.139535e+000 9.221215e+001
26757331250 -5.101551e+000 1.756830e+002 -5.311496e+001 1.673220e+002 -5.077671e+001 1.776593e+002 -3.162432e+000 9.169362e+001
26776075000 -5.081010e+000 1.749578e+002 -5.385151e+001 1.678285e+002 -5.051451e+001 1.744463e+002 -3.184278e+000 9.116628e+001
26794818750 -5.066227e+000 1.742019e+002 -5.350820e+001 1.666039e+002 -5.048497e+001 1.734433e+002 -3.198917e+000 9.066446e+001
26813562500 -5.046054e+000 1.734644e+002 -5.379021e+001 1.697878e+002 -5.044672e+001 1.737311e+002 -3.221109e+000 9.016632e+001
26832306250 -5.029864e+000 1.727075e+002 -5.396662e+001 -1.780861e+002 -5.060468e+001 1.693356e+002 -3.242509e+000 8.962019e+001
26851050000 -5.011726e+000 1.719446e+002 -5.384853e+001 -1.661828e+002 -5.073838e+001 1.725643e+002 -3.254778e+000 8.912403e+001
26869793750 -4.985329e+000 1.712195e+002 -5.376851e+001 -1.529613e+002 -5.084339e+001 1.752550e+002 -3.275522e+000 8.863353e+001
26888537500 -4.970750e+000 1.705062e+002 -5.413945e+001 -1.421873e+002 -5.082360e+001 1.730397e+002 -3.293111e+000 8.810496e+001
26907281250 -4.952599e+000 1.698027e+002 -5.429890e+001 -1.295217e+002 -5.100554e+001 1.642191e+002 -3.306170e+000 8.759921e+001
26926025000 -4.931797e+000 1.691228e+002 -5.468727e+001 -1.177670e+002 -5.153689e+001 1.593597e+002 -3.329550e+000 8.709539e+001
26944768750 -4.919447e+000 1.684194e+002 -5.541770e+001 -9.765862e+001 -5.138515e+001 1.539661e+002 -3.344682e+000 8.656025e+001
26963512500 -4.894323e+000 1.676903e+002 -5.557588e+001 -8.581628e+001 -5.168675e+001 1.478304e+002 -3.359671e+000 8.604279e+001
26982256250 -4.873070e+000 1.670205e+002 -5.565853e+001 -7.426408e+001 -5.213019e+001 1.478109e+002 -3.380228e+000 8.551171e+001
27001000000 -4.858959e+000 1.663469e+002 -5.594991e+001 -6.032586e+001 -5.267118e+001 1.510686e+002 -3.395232e+000 8.497446e+001
27019743750 -4.839983e+000 1.656335e+002 -5.648515e+001 -5.090611e+001 -5.310968e+001 1.617158e+002 -3.408996e+000 8.446583e+001
27038487500 -4.822353e+000 1.649310e+002 -5.668705e+001 -3.516064e+001 -5.297998e+001 1.633394e+002 -3.427341e+000 8.396730e+001
27057231250 -4.810764e+000 1.642339e+002 -5.685113e+001 -1.716645e+001 -5.296178e+001 1.588068e+002 -3.434914e+000 8.342880e+001
27075975000 -4.784077e+000 1.635448e+002 -5.649089e+001 2.713048e+000 -5.286436e+001 1.565322e+002 -3.449502e+000 8.291432e+001
27094718750 -4.764016e+000 1.628968e+002 -5.693631e+001 2.382601e+001 -5.290533e+001 1.557966e+002 -3.465746e+000 8.239816e+001
27113462500 -4.747592e+000 1.622386e+002 -5.717585e+001 4.113643e+001 -5.310626e+001 1.605466e+002 -3.476913e+000 8.186990e+001
27132206250 -4.733322e+000 1.615563e+002 -5.742542e+001 5.117960e+001 -5.300504e+001 1.591376e+002 -3.491365e+000 8.135342e+001
27150950000 -4.716990e+000 1.608920e+002 -5.768583e+001 6.433929e+001 -5.343840e+001 1.583133e+002 -3.513463e+000 8.083533e+001
27169693750 -4.698823e+000 1.601877e+002 -5.736146e+001 7.999969e+001 -5.384758e+001 1.591630e+002 -3.524775e+000 8.028990e+001
27188437500 -4.677516e+000 1.594856e+002 -5.766523e+001 9.904342e+001 -5.447311e+001 1.616821e+002 -3.539878e+000 7.982386e+001
27207181250 -4.663193e+000 1.588796e+002 -5.699626e+001 1.114441e+002 -5.488953e+001 1.631357e+002 -3.555105e+000 7.927193e+001
27225925000 -4.650265e+000 1.582077e+002 -5.713539e+001 1.226707e+002 -5.500877e+001 1.600934e+002 -3.566196e+000 7.874181e+001
27244668750 -4.633359e+000 1.575445e+002 -5.629239e+001 1.314863e+002 -5.544436e+001 1.583204e+002 -3.582643e+000 7.823770e+001
27263412500 -4.620859e+000 1.569128e+002 -5.630644e+001 1.351580e+002 -5.588561e+001 1.620627e+002 -3.599309e+000 7.770486e+001
27282156250 -4.603470e+000 1.561953e+002 -5.622201e+001 1.388299e+002 -5.601960e+001 1.585409e+002 -3.606808e+000 7.715751e+001
27300900000 -4.577302e+000 1.555622e+002 -5.657259e+001 1.402105e+002 -5.592449e+001 1.527297e+002 -3.620665e+000 7.664924e+001
27319643750 -4.559100e+000 1.549444e+002 -5.637931e+001 1.449438e+002 -5.613377e+001 1.564585e+002 -3.634404e+000 7.612998e+001
27338387500 -4.545790e+000 1.542578e+002 -5.667952e+001 1.454536e+002 -5.604424e+001 1.583075e+002 -3.641624e+000 7.564259e+001
27357131250 -4.532284e+000 1.535843e+002 -5.609842e+001 1.451288e+002 -5.564339e+001 1.597977e+002 -3.654152e+000 7.516763e+001
27375875000 -4.521306e+000 1.529251e+002 -5.531382e+001 1.393556e+002 -5.595040e+001 1.654649e+002 -3.667064e+000 7.463869e+001
27394618750 -4.508968e+000 1.522105e+002 -5.500293e+001 1.414436e+002 -5.574746e+001 1.692562e+002 -3.676044e+000 7.415018e+001
27413362500 -4.484695e+000 1.515551e+002 -5.471064e+001 1.444579e+002 -5.534120e+001 1.655400e+002 -3.693599e+000 7.368189e+001
27432106250 -4.472351e+000 1.509651e+002 -5.461903e+001 1.431695e+002 -5.531822e+001 1.623096e+002 -3.703292e+000 7.316530e+001
27450850000 -4.461861e+000 1.503090e+002 -5.408538e+001 1.448743e+002 -5.466438e+001 1.523679e+002 -3.708916e+000 7.267031e+001
27469593750 -4.447154e+000 1.496803e+002 -5.413071e+001 1.411539e+002 -5.467883e+001 1.500207e+002 -3.725664e+000 7.215125e+001
27488337500 -4.436466e+000 1.490206e+002 -5.410094e+001 1.344708e+002 -5.471017e+001 1.532978e+002 -3.741768e+000 7.159959e+001
27507081250 -4.420013e+000 1.483340e+002 -5.365070e+001 1.328363e+002 -5.486692e+001 1.534871e+002 -3.749216e+000 7.115544e+001
27525825000 -4.395417e+000 1.477239e+002 -5.327830e+001 1.263935e+002 -5.471850e+001 1.507310e+002 -3.763243e+000 7.067485e+001
27544568750 -4.389232e+000 1.471198e+002 -5.299107e+001 1.274816e+002 -5.427873e+001 1.437407e+002 -3.774594e+000 7.016141e+001
27563312500 -4.371656e+000 1.465028e+002 -5.276366e+001 1.310177e+002 -5.425339e+001 1.415887e+002 -3.777056e+000 6.973440e+001
27582056250 -4.358582e+000 1.458885e+002 -5.228095e+001 1.304891e+002 -5.397868e+001 1.410477e+002 -3.783332e+000 6.928160e+001
27600800000 -4.357683e+000 1.452359e+002 -5.242992e+001 1.268789e+002 -5.375155e+001 1.376395e+002 -3.791121e+000 6.876576e+001
27619543750 -4.336785e+000 1.445478e+002 -5.208955e+001 1.229286e+002 -5.313344e+001 1.324408e+002 -3.794564e+000 6.830685e+001
27638287500 -4.312373e+000 1.439553e+002 -5.216442e+001 1.175281e+002 -5.246663e+001 1.283513e+002 -3.803369e+000 6.784290e+001
27657031250 -4.306210e+000 1.433593e+002 -5.229408e+001 1.212779e+002 -5.219490e+001 1.278627e+002 -3.807039e+000 6.736592e+001
27675775000 -4.293386e+000 1.427272e+002 -5.226521e+001 1.213063e+002 -5.180780e+001 1.275455e+002 -3.808750e+000 6.693375e+001
27694518750 -4.285783e+000 1.421232e+002 -5.228552e+001 1.129187e+002 -5.110989e+001 1.214961e+002 -3.815964e+000 6.646464e+001
27713262500 -4.281411e+000 1.415011e+002 -5.228920e+001 1.082227e+002 -5.126448e+001 1.181863e+002 -3.820572e+000 6.598513e+001
27732006250 -4.264966e+000 1.408157e+002 -5.187056e+001 1.060052e+002 -5.118779e+001 1.181050e+002 -3.821509e+000 6.556020e+001
27750750000 -4.247926e+000 1.402585e+002 -5.168127e+001 1.025141e+002 -5.139668e+001 1.132589e+002 -3.826896e+000 6.507523e+001
27769493750 -4.243715e+000 1.396605e+002 -5.135947e+001 1.001031e+002 -5.122213e+001 1.139277e+002 -3.826328e+000 6.458118e+001
27788237500 -4.226103e+000 1.390757e+002 -5.144889e+001 9.167029e+001 -5.124459e+001 1.066536e+002 -3.829460e+000 6.413101e+001
27806981250 -4.218416e+000 1.385055e+002 -5.166304e+001 8.968189e+001 -5.118649e+001 1.000438e+002 -3.835338e+000 6.363719e+001
27825725000 -4.210434e+000 1.378542e+002 -5.184795e+001 8.480943e+001 -5.162808e+001 9.842594e+001 -3.836795e+000 6.314240e+001
27844468750 -4.188942e+000 1.372256e+002 -5.241653e+001 8.273877e+001 -5.172171e+001 9.558434e+001 -3.837313e+000 6.265113e+001
27863212500 -4.173581e+000 1.366821e+002 -5.196805e+001 7.645148e+001 -5.132143e+001 9.419528e+001 -3.838358e+000 6.215554e+001
27881956250 -4.166281e+000 1.360995e+002 -5.231104e+001 8.177366e+001 -5.136887e+001 9.096716e+001 -3.838764e+000 6.164427e+001
27900700000 -4.152427e+000 1.355020e+002 -5.246918e+001 9.322147e+001 -5.138694e+001 8.516491e+001 -3.837020e+000 6.123206e+001
27919443750 -4.150394e+000 1.349401e+002 -5.273740e+001 1.050347e+002 -5.163746e+001 7.655955e+001 -3.841688e+000 6.077729e+001
27938187500 -4.144411e+000 1.342765e+002 -5.250491e+001 1.175183e+002 -5.192490e+001 7.246382e+001 -3.839276e+000 6.024392e+001
27956931250 -4.128463e+000 1.336660e+002 -5.240675e+001 1.281855e+002 -5.180746e+001 7.048625e+001 -3.843414e+000 5.975909e+001
27975675000 -4.112370e+000 1.331223e+002 -5.262537e+001 1.372849e+002 -5.210416e+001 6.634942e+001 -3.848410e+000 5.926305e+001
27994418750 -4.104751e+000 1.325057e+002 -5.279757e+001 1.498722e+002 -5.197215e+001 6.291712e+001 -3.849631e+000 5.871767e+001
28013162500 -4.094510e+000 1.319533e+002 -5.305754e+001 1.613621e+002 -5.194182e+001 6.154922e+001 -3.855524e+000 5.823217e+001
28031906250 -4.088694e+000 1.313901e+002 -5.323521e+001 1.737308e+002 -5.173940e+001 6.307757e+001 -3.863215e+000 5.775349e+001
28050650000 -4.080768e+000 1.307508e+002 -5.377863e+001 -1.750195e+002 -5.202492e+001 5.799043e+001 -3.868688e+000 5.725509e+001
28069393750 -4.063664e+000 1.301249e+002 -5.390100e+001 -1.593930e+002 -5.237127e+001 5.339820e+001 -3.880179e+000 5.675781e+001
28088137500 -4.050216e+000 1.296033e+002 -5.369894e+001 -1.495193e+002 -5.254292e+001 4.835340e+001 -3.891441e+000 5.621688e+001
28106881250 -4.040944e+000 1.290067e+002 -5.392984e+001 -1.411482e+002 -5.254559e+001 4.607396e+001 -3.895411e+000 5.566378e+001
28125625000 -4.028434e+000 1.284334e+002 -5.435515e+001 -1.229803e+002 -5.279316e+001 4.664170e+001 -3.905100e+000 5.516413e+001
28144368750 -4.025126e+000 1.278499e+002 -5.445127e+001 -1.080506e+002 -5.269646e+001 4.520878e+001 -3.917214e+000 5.461046e+001
28163112500 -4.015198e+000 1.272133e+002 -5.454452e+001 -9.477076e+001 -5.297231e+001 4.383135e+001 -3.927864e+000 5.408059e+001
28181856250 -3.995484e+000 1.266317e+002 -5.489210e+001 -8.261945e+001 -5.249960e+001 4.106137e+001 -3.944835e+000 5.356882e+001
28200600000 -3.983127e+000 1.261190e+002 -5.479076e+001 -7.025505e+001 -5.311686e+001 3.889846e+001 -3.961040e+000 5.301413e+001
28219343750 -3.977056e+000 1.255332e+002 -5.496973e+001 -5.081488e+001 -5.298282e+001 4.002708e+001 -3.970450e+000 5.247180e+001
28238087500 -3.966989e+000 1.249692e+002 -5.505403e+001 -3.718531e+001 -5.278600e+001 4.007622e+001 -3.982609e+000 5.194723e+001
28256831250 -3.965620e+000 1.244257e+002 -5.521432e+001 -2.470281e+001 -5.228855e+001 3.484977e+001 -3.996717e+000 5.140928e+001
28275575000 -3.959727e+000 1.238015e+002 -5.468701e+001 -1.535333e+001 -5.206678e+001 3.434676e+001 -4.012037e+000 5.086708e+001
28294318750 -3.943858e+000 1.232380e+002 -5.459140e+001 -2.633182e-001 -5.215727e+001 3.079762e+001 -4.032454e+000 5.030898e+001
28313062500 -3.937193e+000 1.227121e+002 -5.435518e+001 5.772521e+000 -5.241222e+001 3.018279e+001 -4.048972e+000 4.973242e+001
28331806250 -3.932398e+000 1.221795e+002 -5.455890e+001 1.236530e+000 -5.240099e+001 2.653914e+001 -4.061893e+000 4.913423e+001
28350550000 -3.923138e+000 1.216676e+002 -5.440471e+001 3.866881e+000 -5.236031e+001 2.855660e+001 -4.081209e+000 4.857137e+001
28369293750 -3.924215e+000 1.211140e+002 -5.488580e+001 3.862041e-001 -5.201639e+001 2.669186e+001 -4.104634e+000 4.798308e+001
28388037500 -3.912273e+000 1.205050e+002 -5.511643e+001 1.436636e+000 -5.239255e+001 2.416415e+001 -4.128746e+000 4.740718e+001
28406781250 -3.899635e+000 1.199533e+002 -5.485907e+001 1.536073e+000 -5.215965e+001 2.326672e+001 -4.157926e+000 4.679572e+001
28425525000 -3.889050e+000 1.194581e+002 -5.498660e+001 -1.594675e+000 -5.248946e+001 2.051247e+001 -4.181633e+000 4.616381e+001
28444268750 -3.881048e+000 1.189273e+002 -5.489379e+001 -1.964845e+000 -5.229283e+001 1.632025e+001 -4.204537e+000 4.554448e+001
28463012500 -3.879852e+000 1.184331e+002 -5.439371e+001 -1.763293e+000 -5.216390e+001 1.260979e+001 -4.229164e+000 4.495649e+001
28481756250 -3.882991e+000 1.178869e+002 -5.392011e+001 -4.644139e+000 -5.216658e+001 1.221330e+001 -4.256151e+000 4.434143e+001
28500500000 -3.876761e+000 1.173361e+002 -5.392912e+001 -5.049806e+000 -5.186983e+001 1.155809e+001 -4.283264e+000 4.375535e+001
28519243750 -3.866007e+000 1.168183e+002 -5.458379e+001 -6.960629e+000 -5.150408e+001 1.258275e+001 -4.312346e+000 4.313383e+001
28537987500 -3.859251e+000 1.163433e+002 -5.449729e+001 -6.433932e+000 -5.157984e+001 1.013809e+001 -4.344491e+000 4.249519e+001
28556731250 -3.851605e+000 1.158584e+002 -5.416549e+001 -7.985226e+000 -5.128928e+001 4.789572e+000 -4.370171e+000 4.183653e+001
28575475000 -3.847364e+000 1.153589e+002 -5.430712e+001 -1.128966e+001 -5.133199e+001 2.908845e+000 -4.401204e+000 4.122176e+001
28594218750 -3.849343e+000 1.148199e+002 -5.430771e+001 -1.319695e+001 -5.106286e+001 2.519392e+000 -4.434680e+000 4.057317e+001
28612962500 -3.842871e+000 1.142617e+002 -5.394249e+001 -1.367193e+001 -5.126881e+001 5.089359e-001 -4.464349e+000 3.992903e+001
28631706250 -3.832127e+000 1.137727e+002 -5.382768e+001 -1.575398e+001 -5.091925e+001 -3.975277e+000 -4.500733e+000 3.926394e+001
28650450000 -3.824877e+000 1.132923e+002 -5.410894e+001 -1.734253e+001 -5.124748e+001 -3.013326e+000 -4.534268e+000 3.855956e+001
28669193750 -3.817636e+000 1.128279e+002 -5.395480e+001 -1.734374e+001 -5.129306e+001 -5.893950e+000 -4.568378e+000 3.791787e+001
28687937500 -3.813180e+000 1.123516e+002 -5.370908e+001 -1.665881e+001 -5.141183e+001 -7.356013e+000 -4.608377e+000 3.723013e+001
28706681250 -3.814382e+000 1.118217e+002 -5.381122e+001 -1.745889e+001 -5.165575e+001 -1.121423e+001 -4.646864e+000 3.657208e+001
28725425000 -3.806740e+000 1.112922e+002 -5.366317e+001 -1.987998e+001 -5.206981e+001 -1.590549e+001 -4.689653e+000 3.590100e+001
28744168750 -3.796146e+000 1.107999e+002 -5.371577e+001 -2.067331e+001 -5.175932e+001 -2.010183e+001 -4.732333e+000 3.522114e+001
28762912500 -3.788703e+000 1.103178e+002 -5.316534e+001 -1.777433e+001 -5.166253e+001 -1.997790e+001 -4.772365e+000 3.451585e+001
28781656250 -3.781145e+000 1.098373e+002 -5.289038e+001 -1.963034e+001 -5.167176e+001 -2.283867e+001 -4.807194e+000 3.384272e+001
28800400000 -3.777668e+000 1.093455e+002 -5.254453e+001 -1.867390e+001 -5.164841e+001 -2.365123e+001 -4.850827e+000 3.317318e+001
28819143750 -3.777192e+000 1.088169e+002 -5.248867e+001 -2.220007e+001 -5.144082e+001 -2.360976e+001 -4.894530e+000 3.246879e+001
28837887500 -3.767946e+000 1.083109e+002 -5.258419e+001 -2.542954e+001 -5.137383e+001 -2.636749e+001 -4.935707e+000 3.179060e+001
28856631250 -3.760447e+000 1.078015e+002 -5.254663e+001 -2.616695e+001 -5.105542e+001 -2.551971e+001 -4.985884e+000 3.105105e+001
28875375000 -3.750824e+000 1.073237e+002 -5.233687e+001 -2.720338e+001 -5.160100e+001 -3.079762e+001 -5.029323e+000 3.030320e+001
28894118750 -3.742953e+000 1.068564e+002 -5.272579e+001 -2.792046e+001 -5.159350e+001 -3.174094e+001 -5.075303e+000 2.955765e+001
28912862500 -3.738199e+000 1.063774e+002 -5.262396e+001 -2.877480e+001 -5.144603e+001 -3.387002e+001 -5.123403e+000 2.882863e+001
28931606250 -3.732718e+000 1.058442e+002 -5.243884e+001 -3.172108e+001 -5.138733e+001 -3.320695e+001 -5.174740e+000 2.806654e+001
28950350000 -3.722852e+000 1.053288e+002 -5.182037e+001 -3.372732e+001 -5.166239e+001 -3.408554e+001 -5.229177e+000 2.734786e+001
28969093750 -3.709897e+000 1.048445e+002 -5.167862e+001 -3.240281e+001 -5.145239e+001 -3.539506e+001 -5.281881e+000 2.657361e+001
28987837500 -3.699716e+000 1.043717e+002 -5.138132e+001 -3.191189e+001 -5.140633e+001 -3.712341e+001 -5.336590e+000 2.581263e+001
29006581250 -3.694613e+000 1.039058e+002 -5.117059e+001 -3.473168e+001 -5.107078e+001 -3.933972e+001 -5.390522e+000 2.504857e+001
29025325000 -3.691270e+000 1.034287e+002 -5.100826e+001 -3.510475e+001 -5.106512e+001 -4.219900e+001 -5.447721e+000 2.424273e+001
29044068750 -3.685910e+000 1.028905e+002 -5.091676e+001 -3.614774e+001 -5.094199e+001 -4.418594e+001 -5.504223e+000 2.341635e+001
29062812500 -3.676932e+000 1.023346e+002 -5.140622e+001 -3.840728e+001 -5.081967e+001 -4.488222e+001 -5.563396e+000 2.264962e+001
29081556250 -3.667309e+000 1.018251e+002 -5.118366e+001 -4.094293e+001 -5.066842e+001 -4.915132e+001 -5.623643e+000 2.182225e+001
29100300000 -3.658424e+000 1.013388e+002 -5.085151e+001 -4.329583e+001 -5.057312e+001 -5.170748e+001 -5.680213e+000 2.099614e+001
29119043750 -3.655634e+000 1.008668e+002 -5.074008e+001 -4.426680e+001 -5.057680e+001 -5.306624e+001 -5.737829e+000 2.020245e+001
29137787500 -3.653007e+000 1.003338e+002 -5.056062e+001 -4.571002e+001 -5.045159e+001 -5.362727e+001 -5.799910e+000 1.937124e+001
29156531250 -3.650409e+000 9.976300e+001 -5.066399e+001 -4.799279e+001 -4.985389e+001 -5.420180e+001 -5.864057e+000 1.855619e+001
29175275000 -3.641644e+000 9.920654e+001 -5.076329e+001 -4.938472e+001 -4.970716e+001 -5.657848e+001 -5.936003e+000 1.771520e+001
29194018750 -3.631669e+000 9.868382e+001 -5.095705e+001 -5.114577e+001 -4.963564e+001 -5.647738e+001 -6.007833e+000 1.684360e+001
29212762500 -3.625026e+000 9.818303e+001 -5.095509e+001 -5.329798e+001 -4.946346e+001 -5.601589e+001 -6.073067e+000 1.595789e+001
29231506250 -3.620898e+000 9.769167e+001 -5.095206e+001 -5.566883e+001 -4.919044e+001 -5.657242e+001 -6.139568e+000 1.509957e+001
29250250000 -3.624473e+000 9.716403e+001 -5.058059e+001 -5.668328e+001 -4.906870e+001 -5.725051e+001 -6.208084e+000 1.421167e+001
29268993750 -3.623649e+000 9.658204e+001 -5.024387e+001 -5.669984e+001 -4.898914e+001 -5.779440e+001 -6.279028e+000 1.334581e+001
29287737500 -3.619745e+000 9.602750e+001 -5.007465e+001 -5.942122e+001 -4.893823e+001 -5.967790e+001 -6.356586e+000 1.252400e+001
29306481250 -3.617860e+000 9.550258e+001 -4.990079e+001 -5.977692e+001 -4.844209e+001 -5.657198e+001 -6.436464e+000 1.164471e+001
29325225000 -3.611463e+000 9.497391e+001 -4.951942e+001 -6.140572e+001 -4.841059e+001 -5.836552e+001 -6.509011e+000 1.075177e+001
29343968750 -3.618352e+000 9.447087e+001 -4.936861e+001 -6.063301e+001 -4.863833e+001 -5.478921e+001 -6.588252e+000 9.860610e+000
29362712500 -3.626878e+000 9.393354e+001 -4.917635e+001 -6.112610e+001 -4.871805e+001 -5.759013e+001 -6.660286e+000 8.974771e+000
29381456250 -3.628107e+000 9.334448e+001 -4.913323e+001 -6.228586e+001 -4.851358e+001 -5.947992e+001 -6.736953e+000 8.095557e+000
29400200000 -3.633314e+000 9.276770e+001 -4.910575e+001 -6.423052e+001 -4.862515e+001 -6.055982e+001 -6.826946e+000 7.244211e+000
29418943750 -3.636106e+000 9.221199e+001 -4.893515e+001 -6.547232e+001 -4.859804e+001 -6.100631e+001 -6.912852e+000 6.347855e+000
29437687500 -3.639548e+000 9.170544e+001 -4.870945e+001 -6.535471e+001 -4.847716e+001 -6.181625e+001 -6.998358e+000 5.494514e+000
29456431250 -3.651964e+000 9.120409e+001 -4.857558e+001 -6.834803e+001 -4.829389e+001 -6.341423e+001 -7.095691e+000 4.609769e+000
29475175000 -3.666229e+000 9.066996e+001 -4.840067e+001 -6.964985e+001 -4.795526e+001 -6.424063e+001 -7.194772e+000 3.757971e+000
29493918750 -3.676616e+000 9.012460e+001 -4.769053e+001 -6.882991e+001 -4.758266e+001 -6.650751e+001 -7.297077e+000 2.872434e+000
29512662500 -3.686700e+000 8.960080e+001 -4.713584e+001 -7.060063e+001 -4.718324e+001 -6.602406e+001 -7.405702e+000 1.990632e+000
29531406250 -3.697953e+000 8.909532e+001 -4.710505e+001 -7.255869e+001 -4.696676e+001 -6.661583e+001 -7.509823e+000 1.116663e+000
29550150000 -3.712651e+000 8.862244e+001 -4.698501e+001 -7.506099e+001 -4.660232e+001 -6.733404e+001 -7.615734e+000 2.776655e-001
29568893750 -3.733860e+000 8.818005e+001 -4.690472e+001 -7.551823e+001 -4.619289e+001 -6.884098e+001 -7.730241e+000 -5.454772e-001
29587637500 -3.750804e+000 8.769357e+001 -4.651802e+001 -7.646738e+001 -4.582914e+001 -7.000473e+001 -7.843719e+000 -1.364509e+000
29606381250 -3.763834e+000 8.721135e+001 -4.600131e+001 -7.848668e+001 -4.574200e+001 -7.022935e+001 -7.964034e+000 -2.122785e+000
29625125000 -3.778998e+000 8.673776e+001 -4.542736e+001 -8.006120e+001 -4.543725e+001 -7.320663e+001 -8.092558e+000 -2.898014e+000
29643868750 -3.791203e+000 8.630968e+001 -4.513454e+001 -8.147485e+001 -4.516499e+001 -7.572130e+001 -8.223974e+000 -3.647130e+000
29662612500 -3.812344e+000 8.592632e+001 -4.486766e+001 -8.279572e+001 -4.496600e+001 -7.908620e+001 -8.357278e+000 -4.364024e+000
29681356250 -3.837821e+000 8.549737e+001 -4.483787e+001 -8.528492e+001 -4.474134e+001 -8.321600e+001 -8.492518e+000 -5.024417e+000
29700100000 -3.863883e+000 8.505807e+001 -4.466077e+001 -8.717815e+001 -4.460416e+001 -8.603132e+001 -8.630745e+000 -5.621368e+000
29718843750 -3.889522e+000 8.463586e+001 -4.438564e+001 -8.924931e+001 -4.447598e+001 -8.878763e+001 -8.773026e+000 -6.186625e+000
29737587500 -3.907808e+000 8.421326e+001 -4.423716e+001 -9.302075e+001 -4.426344e+001 -9.208648e+001 -8.919448e+000 -6.711898e+000
29756331250 -3.929664e+000 8.387177e+001 -4.401615e+001 -9.593408e+001 -4.412670e+001 -9.424555e+001 -9.075627e+000 -7.161773e+000
29775075000 -3.952022e+000 8.353448e+001 -4.378928e+001 -9.981519e+001 -4.337482e+001 -9.995148e+001 -9.231108e+000 -7.564456e+000
29793818750 -3.981038e+000 8.320303e+001 -4.365709e+001 -1.026338e+002 -4.306676e+001 -1.027744e+002 -9.391694e+000 -7.915196e+000
29812562500 -4.014747e+000 8.291429e+001 -4.341841e+001 -1.052093e+002 -4.292682e+001 -1.053790e+002 -9.547946e+000 -8.232313e+000
29831306250 -4.047255e+000 8.261630e+001 -4.323996e+001 -1.078248e+002 -4.264643e+001 -1.095348e+002 -9.693352e+000 -8.494808e+000
29850050000 -4.079580e+000 8.230806e+001 -4.317137e+001 -1.114563e+002 -4.254736e+001 -1.133856e+002 -9.843028e+000 -8.720186e+000
29868793750 -4.102976e+000 8.202175e+001 -4.310351e+001 -1.141980e+002 -4.250900e+001 -1.166597e+002 -9.986583e+000 -8.974022e+000
29887537500 -4.123516e+000 8.178995e+001 -4.304126e+001 -1.164686e+002 -4.239159e+001 -1.193134e+002 -1.010974e+001 -9.138425e+000
29906281250 -4.148290e+000 8.160405e+001 -4.297832e+001 -1.189873e+002 -4.240790e+001 -1.222244e+002 -1.023045e+001 -9.267479e+000
29925025000 -4.175336e+000 8.143361e+001 -4.295824e+001 -1.213486e+002 -4.235077e+001 -1.246489e+002 -1.034547e+001 -9.349100e+000
29943768750 -4.202839e+000 8.124247e+001 -4.296223e+001 -1.232334e+002 -4.236465e+001 -1.277109e+002 -1.045506e+001 -9.349094e+000
29962512500 -4.224419e+000 8.102859e+001 -4.284258e+001 -1.258625e+002 -4.229002e+001 -1.311648e+002 -1.057200e+001 -9.377500e+000
29981256250 -4.237320e+000 8.083455e+001 -4.280405e+001 -1.276457e+002 -4.225118e+001 -1.335466e+002 -1.067788e+001 -9.437374e+000
30000000000 -4.248846e+000 8.071171e+001 -4.265140e+001 -1.304533e+002 -4.226938e+001 -1.365028e+002 -1.076606e+001 -9.440259e+000
