!Agilent Technologies,E8364B,MY43040894,A.07.50.67
!Agilent E8364B: A.07.50.67
!Date: Tuesday, May 12, 2020 09:51:08
!Correction: S11(Full 2 Port(1,2)) 
!S21(Full 2 Port(1,2)) 
!S12(Full 2 Port(1,2)) 
!S22(Full 2 Port(1,2)) 
!S2P File: Measurements: S11, S21, S12, S22:
# Hz S  dB   R 50
10000000 -2.358432e-001 -6.488099e+000 -4.915184e+001 1.678123e+002 -5.315880e+001 4.245819e+001 -1.354843e-002 -1.585459e+000
28743750 -2.481268e-001 -7.378921e+000 -4.968939e+001 1.607068e+002 -5.369768e+001 5.414733e+001 -1.601711e-002 -1.920100e+000
47487500 -2.605497e-001 -8.367552e+000 -5.032692e+001 1.600797e+002 -5.404935e+001 6.986706e+001 -1.764299e-002 -2.276788e+000
66231250 -2.710446e-001 -9.400050e+000 -5.086223e+001 1.663174e+002 -5.460413e+001 8.818523e+001 -1.955546e-002 -2.646397e+000
84975000 -2.861608e-001 -1.050856e+001 -5.142435e+001 1.739745e+002 -5.515018e+001 1.085004e+002 -2.104382e-002 -3.058314e+000
103718750 -3.039781e-001 -1.169891e+001 -5.216849e+001 -1.705569e+002 -5.550241e+001 1.278929e+002 -2.251010e-002 -3.485456e+000
122462500 -3.207802e-001 -1.294887e+001 -5.292734e+001 -1.604782e+002 -5.627061e+001 1.455069e+002 -2.175286e-002 -3.929314e+000
141206250 -3.385846e-001 -1.427486e+001 -5.347073e+001 -1.508273e+002 -5.689516e+001 1.701214e+002 -2.352438e-002 -4.395112e+000
159950000 -3.580219e-001 -1.567019e+001 -5.461577e+001 -1.386870e+002 -5.742847e+001 -1.601835e+002 -2.343537e-002 -4.884195e+000
178693750 -3.785371e-001 -1.713840e+001 -5.592588e+001 -1.332702e+002 -5.786489e+001 -1.253439e+002 -2.427647e-002 -5.392437e+000
197437500 -3.984837e-001 -1.868332e+001 -5.649908e+001 -1.278355e+002 -5.835223e+001 -8.917683e+001 -2.376718e-002 -5.937306e+000
216181250 -4.231958e-001 -2.028967e+001 -5.700436e+001 -1.192701e+002 -5.872291e+001 -5.664295e+001 -2.312779e-002 -6.493624e+000
234925000 -4.462134e-001 -2.197439e+001 -5.753439e+001 -1.117488e+002 -5.922465e+001 -2.364965e+001 -2.236133e-002 -7.081535e+000
253668750 -4.706675e-001 -2.364653e+001 -5.790950e+001 -1.106435e+002 -5.970440e+001 7.538807e+000 -1.856567e-002 -7.617503e+000
272412500 -4.925896e-001 -2.529674e+001 -5.845386e+001 -1.118077e+002 -6.071774e+001 3.265339e+001 -1.168452e-002 -8.149437e+000
291156250 -5.164310e-001 -2.696218e+001 -5.903650e+001 -1.137685e+002 -6.050344e+001 6.204398e+001 -8.926724e-003 -8.676832e+000
309900000 -5.383635e-001 -2.862700e+001 -5.936091e+001 -1.092360e+002 -6.088277e+001 8.954789e+001 -4.091687e-003 -9.219276e+000
328643750 -5.623987e-001 -3.024417e+001 -5.964407e+001 -1.057419e+002 -6.129345e+001 1.219454e+002 8.100523e-004 -9.766328e+000
347387500 -5.874038e-001 -3.188095e+001 -5.994259e+001 -1.049257e+002 -6.125151e+001 1.512868e+002 6.704273e-003 -1.031274e+001
366131250 -6.110643e-001 -3.348771e+001 -6.064958e+001 -9.214621e+001 -6.148506e+001 1.692822e+002 9.715703e-003 -1.085336e+001
384875000 -6.386595e-001 -3.507981e+001 -6.095003e+001 -7.031897e+001 -6.182767e+001 -1.754977e+002 1.222890e-002 -1.138958e+001
403618750 -6.650314e-001 -3.668847e+001 -6.094674e+001 -5.333272e+001 -6.277891e+001 -1.576937e+002 1.672924e-002 -1.192539e+001
422362500 -6.908705e-001 -3.828573e+001 -6.171461e+001 -3.787416e+001 -6.325243e+001 -1.392304e+002 2.279323e-002 -1.246577e+001
441106250 -7.163648e-001 -3.986399e+001 -6.156745e+001 -3.112678e+001 -6.331217e+001 -1.229675e+002 2.803481e-002 -1.301008e+001
459850000 -7.411463e-001 -4.145065e+001 -6.187942e+001 -1.452649e+001 -6.342822e+001 -1.027160e+002 3.353678e-002 -1.354717e+001
478593750 -7.673298e-001 -4.300449e+001 -6.242181e+001 -4.619566e+000 -6.357957e+001 -8.188947e+001 3.803737e-002 -1.408205e+001
497337500 -7.964717e-001 -4.457862e+001 -6.294257e+001 -5.784311e+000 -6.397282e+001 -7.031766e+001 4.247954e-002 -1.462845e+001
516081250 -8.221136e-001 -4.612208e+001 -6.349846e+001 -3.898256e+000 -6.388637e+001 -6.047346e+001 4.561308e-002 -1.516569e+001
534825000 -8.462260e-001 -4.766649e+001 -6.354860e+001 -8.967340e+000 -6.384604e+001 -4.790244e+001 4.796921e-002 -1.570456e+001
553568750 -8.718880e-001 -4.920375e+001 -6.373814e+001 -1.338364e+001 -6.354811e+001 -3.294669e+001 4.877200e-002 -1.625851e+001
572312500 -8.970845e-001 -5.073210e+001 -6.419917e+001 -1.656516e+001 -6.359193e+001 -2.476389e+001 5.255658e-002 -1.681468e+001
591056250 -9.220942e-001 -5.225660e+001 -6.412923e+001 -1.791177e+001 -6.381404e+001 -1.896755e+001 5.281364e-002 -1.736248e+001
609800000 -9.478154e-001 -5.377106e+001 -6.353205e+001 -1.805459e+001 -6.401092e+001 -1.903339e+001 5.388052e-002 -1.792118e+001
628543750 -9.742798e-001 -5.525855e+001 -6.369359e+001 -1.714858e+001 -6.408598e+001 -2.421580e+001 5.525424e-002 -1.846554e+001
647287500 -9.973449e-001 -5.676656e+001 -6.402976e+001 -1.660405e+001 -6.432786e+001 -3.312568e+001 5.565263e-002 -1.902485e+001
666031250 -1.022732e+000 -5.824763e+001 -6.470102e+001 -1.306967e+001 -6.446307e+001 -3.934396e+001 5.649357e-002 -1.957613e+001
684775000 -1.047281e+000 -5.972570e+001 -6.489786e+001 -1.271301e+001 -6.444370e+001 -4.171875e+001 5.477975e-002 -2.013832e+001
703518750 -1.072898e+000 -6.121169e+001 -6.482584e+001 -7.076746e+000 -6.414767e+001 -4.712497e+001 5.291406e-002 -2.070575e+001
722262500 -1.098059e+000 -6.266927e+001 -6.516824e+001 -7.012316e+000 -6.440052e+001 -5.735293e+001 5.339171e-002 -2.126072e+001
741006250 -1.123631e+000 -6.411935e+001 -6.511560e+001 -8.674514e+000 -6.462329e+001 -5.677342e+001 5.175430e-002 -2.183411e+001
759750000 -1.148173e+000 -6.559442e+001 -6.513181e+001 -9.467750e+000 -6.477145e+001 -6.044063e+001 4.807839e-002 -2.239257e+001
778493750 -1.170464e+000 -6.703429e+001 -6.499127e+001 -6.145304e+000 -6.471330e+001 -6.376564e+001 4.263402e-002 -2.295267e+001
797237500 -1.193763e+000 -6.848908e+001 -6.495068e+001 -1.003570e+001 -6.448689e+001 -5.899858e+001 3.945145e-002 -2.351216e+001
815981250 -1.217519e+000 -6.993594e+001 -6.541744e+001 -1.657751e+001 -6.494935e+001 -6.025694e+001 3.668547e-002 -2.407807e+001
834725000 -1.237987e+000 -7.135716e+001 -6.592866e+001 -2.262816e+001 -6.405540e+001 -6.409306e+001 3.473976e-002 -2.464646e+001
853468750 -1.261902e+000 -7.277629e+001 -6.623991e+001 -2.781238e+001 -6.405093e+001 -6.033701e+001 3.087331e-002 -2.521552e+001
872212500 -1.284733e+000 -7.419972e+001 -6.623961e+001 -2.668553e+001 -6.393770e+001 -5.858266e+001 2.528401e-002 -2.579567e+001
890956250 -1.309291e+000 -7.560983e+001 -6.643498e+001 -3.455027e+001 -6.370132e+001 -5.426427e+001 1.974769e-002 -2.637305e+001
909700000 -1.331457e+000 -7.701199e+001 -6.621861e+001 -3.939837e+001 -6.380962e+001 -5.406407e+001 1.276308e-002 -2.695786e+001
928443750 -1.353369e+000 -7.841514e+001 -6.604977e+001 -3.756386e+001 -6.351323e+001 -5.058524e+001 6.799713e-003 -2.752876e+001
947187500 -1.375502e+000 -7.982662e+001 -6.586036e+001 -4.107049e+001 -6.351312e+001 -4.794544e+001 1.792560e-003 -2.809134e+001
965931250 -1.396682e+000 -8.121851e+001 -6.583830e+001 -4.169462e+001 -6.378959e+001 -4.426468e+001 -3.244081e-003 -2.865283e+001
984675000 -1.420248e+000 -8.261260e+001 -6.581319e+001 -3.839075e+001 -6.420758e+001 -4.378569e+001 -9.454838e-003 -2.922468e+001
1003418750 -1.442321e+000 -8.398576e+001 -6.546376e+001 -3.706647e+001 -6.399233e+001 -4.282173e+001 -1.612791e-002 -2.979848e+001
1022162500 -1.463281e+000 -8.535640e+001 -6.528366e+001 -3.948166e+001 -6.372191e+001 -4.506687e+001 -2.096608e-002 -3.038200e+001
1040906250 -1.483398e+000 -8.672182e+001 -6.561480e+001 -3.741736e+001 -6.368083e+001 -4.840736e+001 -2.769891e-002 -3.096018e+001
1059650000 -1.503528e+000 -8.809751e+001 -6.647906e+001 -3.533403e+001 -6.397396e+001 -4.807984e+001 -3.544949e-002 -3.153124e+001
1078393750 -1.525086e+000 -8.944975e+001 -6.717196e+001 -2.897189e+001 -6.401239e+001 -3.677137e+001 -4.275324e-002 -3.210260e+001
1097137500 -1.546651e+000 -9.080016e+001 -6.669275e+001 -3.040676e+001 -6.404478e+001 -3.016811e+001 -4.913905e-002 -3.266710e+001
1115881250 -1.568470e+000 -9.213981e+001 -6.660535e+001 -3.254559e+001 -6.415434e+001 -2.846578e+001 -5.639614e-002 -3.322272e+001
1134625000 -1.588050e+000 -9.348674e+001 -6.769914e+001 -3.092257e+001 -6.412272e+001 -2.451189e+001 -6.163429e-002 -3.379359e+001
1153368750 -1.607432e+000 -9.482499e+001 -6.748676e+001 -3.143412e+001 -6.393016e+001 -1.577284e+001 -6.803636e-002 -3.437350e+001
1172112500 -1.627798e+000 -9.615415e+001 -6.767159e+001 -3.237906e+001 -6.400831e+001 -8.373451e+000 -7.514790e-002 -3.493084e+001
1190856250 -1.650201e+000 -9.747169e+001 -6.780392e+001 -3.089398e+001 -6.385685e+001 -7.733874e+000 -7.941325e-002 -3.550407e+001
1209600000 -1.670650e+000 -9.878465e+001 -6.802930e+001 -3.393531e+001 -6.363521e+001 -4.859237e+000 -8.421916e-002 -3.607335e+001
1228343750 -1.691363e+000 -1.001106e+002 -6.791164e+001 -3.480406e+001 -6.377812e+001 -3.543863e+000 -9.008284e-002 -3.664780e+001
1247087500 -1.710413e+000 -1.014221e+002 -6.760461e+001 -3.352315e+001 -6.375948e+001 -4.193112e+000 -9.449374e-002 -3.721926e+001
1265831250 -1.729380e+000 -1.027307e+002 -6.791525e+001 -3.156003e+001 -6.394236e+001 -3.845078e+000 -1.001445e-001 -3.777457e+001
1284575000 -1.748951e+000 -1.040321e+002 -6.694781e+001 -2.999549e+001 -6.489117e+001 -1.242193e+001 -1.064816e-001 -3.834103e+001
1303318750 -1.769748e+000 -1.053187e+002 -6.708177e+001 -3.056631e+001 -6.500965e+001 -2.484942e+001 -1.103487e-001 -3.890144e+001
1322062500 -1.788307e+000 -1.066102e+002 -6.711356e+001 -2.423252e+001 -6.503465e+001 -4.730000e+001 -1.122051e-001 -3.945166e+001
1340806250 -1.807583e+000 -1.079046e+002 -6.700743e+001 -2.049625e+001 -6.517507e+001 -7.691908e+001 -1.141101e-001 -3.999817e+001
1359550000 -1.827182e+000 -1.091853e+002 -6.711514e+001 -1.987433e+001 -6.524092e+001 -1.107237e+002 -1.168325e-001 -4.055011e+001
1378293750 -1.848483e+000 -1.104669e+002 -6.700703e+001 -1.614200e+001 -6.524905e+001 -1.445953e+002 -1.173705e-001 -4.111287e+001
1397037500 -1.868389e+000 -1.117216e+002 -6.705842e+001 -2.140150e+001 -6.528294e+001 1.775921e+002 -1.190141e-001 -4.169014e+001
1415781250 -1.886816e+000 -1.129883e+002 -6.678089e+001 -2.394523e+001 -6.518351e+001 1.437325e+002 -1.208207e-001 -4.223755e+001
1434525000 -1.905856e+000 -1.142423e+002 -6.704116e+001 -1.827581e+001 -6.526182e+001 1.105110e+002 -1.216321e-001 -4.278418e+001
1453268750 -1.923391e+000 -1.154968e+002 -6.722027e+001 -2.032211e+001 -6.530413e+001 7.690654e+001 -1.246625e-001 -4.332215e+001
1472012500 -1.942870e+000 -1.167565e+002 -6.704768e+001 -1.805886e+001 -6.534737e+001 4.584827e+001 -1.234428e-001 -4.386042e+001
1490756250 -1.963743e+000 -1.180073e+002 -6.607813e+001 -2.022867e+001 -6.509037e+001 1.385044e+001 -1.221638e-001 -4.440813e+001
1509500000 -1.982788e+000 -1.192519e+002 -6.577168e+001 -3.474231e+001 -6.570293e+001 -1.586059e+001 -1.207299e-001 -4.497258e+001
1528243750 -2.003187e+000 -1.204875e+002 -6.710561e+001 -3.769657e+001 -6.607333e+001 -4.500482e+001 -1.201419e-001 -4.554865e+001
1546987500 -2.021369e+000 -1.217141e+002 -6.724139e+001 -3.223552e+001 -6.590162e+001 -7.462874e+001 -1.184808e-001 -4.611098e+001
1565731250 -2.040617e+000 -1.229405e+002 -6.628448e+001 -3.964524e+001 -6.609348e+001 -1.081460e+002 -1.202456e-001 -4.666618e+001
1584475000 -2.057192e+000 -1.241700e+002 -6.665678e+001 -3.719963e+001 -6.637199e+001 -1.353691e+002 -1.191224e-001 -4.719860e+001
1603218750 -2.074878e+000 -1.254019e+002 -6.682038e+001 -3.543819e+001 -6.615359e+001 -1.728532e+002 -1.147187e-001 -4.774936e+001
1621962500 -2.093694e+000 -1.266164e+002 -6.671526e+001 -3.531919e+001 -6.605472e+001 1.523129e+002 -1.137479e-001 -4.829710e+001
1640706250 -2.112298e+000 -1.278240e+002 -6.665071e+001 -3.436649e+001 -6.606697e+001 1.185660e+002 -1.104703e-001 -4.885157e+001
1659450000 -2.129707e+000 -1.290009e+002 -6.638046e+001 -3.444752e+001 -6.601748e+001 8.380655e+001 -1.091043e-001 -4.941076e+001
1678193750 -2.145534e+000 -1.301917e+002 -6.600233e+001 -3.828235e+001 -6.555334e+001 5.193298e+001 -1.068556e-001 -4.996593e+001
1696937500 -2.161139e+000 -1.313880e+002 -6.564792e+001 -4.042722e+001 -6.572448e+001 2.217381e+001 -1.041350e-001 -5.051268e+001
1715681250 -2.177156e+000 -1.325927e+002 -6.625809e+001 -3.821297e+001 -6.513648e+001 3.210283e-001 -9.910578e-002 -5.104850e+001
1734425000 -2.194391e+000 -1.338026e+002 -6.621949e+001 -3.615410e+001 -6.503572e+001 -1.686977e+001 -9.496082e-002 -5.157381e+001
1753168750 -2.213019e+000 -1.349865e+002 -6.586805e+001 -3.999067e+001 -6.506763e+001 -2.575358e+001 -9.524612e-002 -5.212747e+001
1771912500 -2.232864e+000 -1.361450e+002 -6.594377e+001 -4.432819e+001 -6.497077e+001 -3.186240e+001 -9.377944e-002 -5.268603e+001
1790656250 -2.250125e+000 -1.373059e+002 -6.585304e+001 -4.075447e+001 -6.503403e+001 -3.503076e+001 -9.354990e-002 -5.324347e+001
1809400000 -2.262259e+000 -1.384678e+002 -6.607072e+001 -4.721577e+001 -6.499890e+001 -3.373451e+001 -9.467319e-002 -5.379022e+001
1828143750 -2.276186e+000 -1.396528e+002 -6.642738e+001 -4.183734e+001 -6.544877e+001 -3.063985e+001 -9.144180e-002 -5.432409e+001
1846887500 -2.292332e+000 -1.408241e+002 -6.661143e+001 -4.258812e+001 -6.532262e+001 -3.127112e+001 -8.792127e-002 -5.486639e+001
1865631250 -2.309515e+000 -1.420022e+002 -6.668002e+001 -4.887325e+001 -6.513106e+001 -3.540195e+001 -8.486127e-002 -5.541639e+001
1884375000 -2.329723e+000 -1.431595e+002 -6.688618e+001 -4.166107e+001 -6.497713e+001 -3.364542e+001 -8.212103e-002 -5.597568e+001
1903118750 -2.346428e+000 -1.442877e+002 -6.684874e+001 -3.359739e+001 -6.496138e+001 -3.445732e+001 -8.162729e-002 -5.652823e+001
1921862500 -2.362195e+000 -1.454178e+002 -6.735290e+001 -2.565186e+001 -6.510061e+001 -3.195313e+001 -8.220804e-002 -5.707939e+001
1940606250 -2.374889e+000 -1.465627e+002 -6.693640e+001 -1.720393e+001 -6.470725e+001 -3.560643e+001 -8.030155e-002 -5.760008e+001
1959350000 -2.388281e+000 -1.477194e+002 -6.593874e+001 -2.139836e+001 -6.479945e+001 -4.078799e+001 -7.807062e-002 -5.812582e+001
1978093750 -2.404807e+000 -1.488641e+002 -6.586364e+001 -3.021715e+001 -6.481477e+001 -4.341092e+001 -7.462446e-002 -5.867494e+001
1996837500 -2.423170e+000 -1.499938e+002 -6.591432e+001 -3.595264e+001 -6.493250e+001 -4.316836e+001 -7.150896e-002 -5.922360e+001
2015581250 -2.442817e+000 -1.511144e+002 -6.528391e+001 -3.856492e+001 -6.462423e+001 -4.800335e+001 -7.477900e-002 -5.979073e+001
2034325000 -2.458353e+000 -1.522236e+002 -6.530238e+001 -3.901908e+001 -6.444305e+001 -4.918013e+001 -8.005299e-002 -6.034173e+001
2053068750 -2.469392e+000 -1.533555e+002 -6.523597e+001 -3.943402e+001 -6.422325e+001 -3.848481e+001 -8.254287e-002 -6.087583e+001
2071812500 -2.482019e+000 -1.544937e+002 -6.532260e+001 -3.935917e+001 -6.479488e+001 -2.196295e+001 -8.541041e-002 -6.140938e+001
2090556250 -2.497856e+000 -1.556324e+002 -6.574687e+001 -3.918895e+001 -6.527306e+001 -1.338782e+001 -8.405522e-002 -6.194249e+001
2109300000 -2.515507e+000 -1.567633e+002 -6.596552e+001 -4.236362e+001 -6.607779e+001 2.288417e+000 -8.902136e-002 -6.249790e+001
2128043750 -2.537122e+000 -1.578687e+002 -6.585746e+001 -3.925716e+001 -6.559897e+001 1.040394e+001 -9.424032e-002 -6.306809e+001
2146787500 -2.555078e+000 -1.589574e+002 -6.534536e+001 -4.057320e+001 -6.552055e+001 2.458061e+001 -1.014515e-001 -6.362965e+001
2165531250 -2.567881e+000 -1.600504e+002 -6.539824e+001 -4.337564e+001 -6.586270e+001 3.955048e+001 -1.103789e-001 -6.418679e+001
2184275000 -2.580388e+000 -1.611620e+002 -6.552964e+001 -4.717117e+001 -6.604012e+001 5.561850e+001 -1.120402e-001 -6.472226e+001
2203018750 -2.590925e+000 -1.622771e+002 -6.559415e+001 -4.591348e+001 -6.600585e+001 7.312200e+001 -1.139252e-001 -6.526592e+001
2221762500 -2.606445e+000 -1.633875e+002 -6.572655e+001 -4.650540e+001 -6.556223e+001 8.973813e+001 -1.139150e-001 -6.581287e+001
2240506250 -2.623679e+000 -1.644884e+002 -6.541266e+001 -4.191034e+001 -6.570430e+001 1.094347e+002 -1.167241e-001 -6.637040e+001
2259250000 -2.641040e+000 -1.655575e+002 -6.513273e+001 -4.623460e+001 -6.543520e+001 1.223088e+002 -1.252417e-001 -6.692484e+001
2277993750 -2.653089e+000 -1.666384e+002 -6.506102e+001 -4.439303e+001 -6.550819e+001 1.390393e+002 -1.322006e-001 -6.746323e+001
2296737500 -2.665496e+000 -1.677241e+002 -6.552866e+001 -5.126845e+001 -6.566724e+001 1.587366e+002 -1.378075e-001 -6.799506e+001
2315481250 -2.676617e+000 -1.688169e+002 -6.524684e+001 -5.692959e+001 -6.589932e+001 1.678904e+002 -1.409945e-001 -6.853505e+001
2334225000 -2.690352e+000 -1.699224e+002 -6.530950e+001 -6.857170e+001 -6.561302e+001 -1.785444e+002 -1.433951e-001 -6.909055e+001
2352968750 -2.705512e+000 -1.710113e+002 -6.503502e+001 -7.923090e+001 -6.676691e+001 -1.726818e+002 -1.462605e-001 -6.966068e+001
2371712500 -2.722476e+000 -1.720831e+002 -6.503151e+001 -8.214822e+001 -6.683135e+001 -1.729966e+002 -1.531098e-001 -7.022514e+001
2390456250 -2.734322e+000 -1.731387e+002 -6.501021e+001 -7.245134e+001 -6.648988e+001 -1.638455e+002 -1.612194e-001 -7.077153e+001
2409200000 -2.745885e+000 -1.742095e+002 -6.498530e+001 -7.115358e+001 -6.636910e+001 -1.566750e+002 -1.720529e-001 -7.130109e+001
2427943750 -2.754928e+000 -1.752872e+002 -6.513973e+001 -6.510972e+001 -6.581715e+001 -1.545180e+002 -1.779567e-001 -7.184122e+001
2446687500 -2.767680e+000 -1.763602e+002 -6.585458e+001 -6.495014e+001 -6.580946e+001 -1.485960e+002 -1.769520e-001 -7.239189e+001
2465431250 -2.780502e+000 -1.774367e+002 -6.582101e+001 -7.139772e+001 -6.590549e+001 -1.346784e+002 -1.783373e-001 -7.293106e+001
2484175000 -2.797939e+000 -1.784852e+002 -6.626322e+001 -7.843760e+001 -6.599580e+001 -1.266029e+002 -1.833206e-001 -7.350480e+001
2502918750 -2.814553e+000 -1.795299e+002 -6.647227e+001 -8.860581e+001 -6.548735e+001 -1.241073e+002 -1.890630e-001 -7.405508e+001
2521662500 -2.825681e+000 1.794268e+002 -6.648202e+001 -9.981550e+001 -6.493257e+001 -1.198847e+002 -1.969167e-001 -7.458608e+001
2540406250 -2.836414e+000 1.783792e+002 -6.627200e+001 -1.159556e+002 -6.435834e+001 -1.201613e+002 -1.979321e-001 -7.511266e+001
2559150000 -2.844639e+000 1.773103e+002 -6.663406e+001 -1.293378e+002 -6.476704e+001 -1.208218e+002 -1.985563e-001 -7.563364e+001
2577893750 -2.856143e+000 1.762380e+002 -6.669762e+001 -1.441036e+002 -6.445229e+001 -1.258452e+002 -1.988214e-001 -7.617505e+001
2596637500 -2.871407e+000 1.751885e+002 -6.688754e+001 -1.535099e+002 -6.461983e+001 -1.321878e+002 -1.987963e-001 -7.673636e+001
2615381250 -2.885981e+000 1.741552e+002 -6.690339e+001 -1.602630e+002 -6.453302e+001 -1.352593e+002 -2.051093e-001 -7.727499e+001
2634125000 -2.900511e+000 1.731159e+002 -6.700159e+001 -1.773813e+002 -6.471179e+001 -1.375546e+002 -2.132190e-001 -7.779987e+001
2652868750 -2.910161e+000 1.720712e+002 -6.704849e+001 1.568008e+002 -6.497269e+001 -1.364352e+002 -2.190500e-001 -7.833953e+001
2671612500 -2.921654e+000 1.710379e+002 -6.701180e+001 1.353102e+002 -6.470638e+001 -1.414718e+002 -2.207382e-001 -7.885806e+001
2690356250 -2.932938e+000 1.699672e+002 -6.784854e+001 1.216390e+002 -6.469547e+001 -1.473349e+002 -2.190373e-001 -7.941103e+001
2709100000 -2.948240e+000 1.689220e+002 -6.835091e+001 9.962280e+001 -6.458182e+001 -1.576102e+002 -2.190074e-001 -7.997089e+001
2727843750 -2.961271e+000 1.678858e+002 -6.774030e+001 8.702426e+001 -6.466512e+001 -1.750993e+002 -2.244102e-001 -8.052896e+001
2746587500 -2.974562e+000 1.668572e+002 -6.761218e+001 6.903541e+001 -6.442463e+001 1.720278e+002 -2.300361e-001 -8.108195e+001
2765331250 -2.986382e+000 1.658298e+002 -6.788603e+001 5.568484e+001 -6.478239e+001 1.587506e+002 -2.375421e-001 -8.160339e+001
2784075000 -2.995206e+000 1.647791e+002 -6.836131e+001 4.939037e+001 -6.339830e+001 1.493136e+002 -2.412298e-001 -8.213200e+001
2802818750 -3.005690e+000 1.637412e+002 -6.841502e+001 4.769946e+001 -6.292900e+001 1.467808e+002 -2.444274e-001 -8.266769e+001
2821562500 -3.018960e+000 1.626978e+002 -6.829644e+001 3.856072e+001 -6.255761e+001 1.370794e+002 -2.478796e-001 -8.320544e+001
2840306250 -3.030983e+000 1.616768e+002 -6.852676e+001 3.975456e+001 -6.278035e+001 1.221238e+002 -2.477168e-001 -8.374585e+001
2859050000 -3.043001e+000 1.606565e+002 -6.865663e+001 4.112189e+001 -6.307364e+001 1.103450e+002 -2.508424e-001 -8.428029e+001
2877793750 -3.051892e+000 1.596234e+002 -6.802544e+001 4.042501e+001 -6.342226e+001 9.337759e+001 -2.590413e-001 -8.479034e+001
2896537500 -3.065391e+000 1.585793e+002 -6.768215e+001 4.320961e+001 -6.349281e+001 7.513941e+001 -2.628716e-001 -8.536899e+001
2915281250 -3.072666e+000 1.575464e+002 -6.797700e+001 5.138378e+001 -6.373680e+001 5.003664e+001 -2.600922e-001 -8.589283e+001
2934025000 -3.082769e+000 1.565257e+002 -6.809509e+001 5.859511e+001 -6.389433e+001 1.633215e+001 -2.650647e-001 -8.641385e+001
2952768750 -3.095386e+000 1.554686e+002 -6.786002e+001 7.267509e+001 -6.445263e+001 -1.454103e+001 -2.685913e-001 -8.698477e+001
2971512500 -3.104267e+000 1.544390e+002 -6.835864e+001 9.465246e+001 -6.429543e+001 -4.505745e+001 -2.726832e-001 -8.752879e+001
2990256250 -3.117084e+000 1.534445e+002 -6.796677e+001 1.176349e+002 -6.405131e+001 -7.022411e+001 -2.824029e-001 -8.806616e+001
3009000000 -3.127498e+000 1.524184e+002 -6.853487e+001 1.355803e+002 -6.426633e+001 -1.006093e+002 -2.865973e-001 -8.863331e+001
3027743750 -3.134488e+000 1.514028e+002 -6.807592e+001 1.434354e+002 -6.401255e+001 -1.264109e+002 -2.912522e-001 -8.916965e+001
3046487500 -3.144162e+000 1.503998e+002 -6.796165e+001 1.522436e+002 -6.407965e+001 -1.606664e+002 -2.966064e-001 -8.970802e+001
3065231250 -3.153552e+000 1.493571e+002 -6.816846e+001 1.712386e+002 -6.401463e+001 1.635427e+002 -2.932530e-001 -9.027930e+001
3083975000 -3.161247e+000 1.483456e+002 -6.786720e+001 -1.683088e+002 -6.406440e+001 1.311458e+002 -2.970507e-001 -9.080710e+001
3102718750 -3.172880e+000 1.473340e+002 -6.829663e+001 -1.534069e+002 -6.466579e+001 9.858815e+001 -3.088223e-001 -9.134243e+001
3121462500 -3.182785e+000 1.463061e+002 -6.741434e+001 -1.436733e+002 -6.512016e+001 6.899429e+001 -3.109640e-001 -9.189375e+001
3140206250 -3.189739e+000 1.452922e+002 -6.720276e+001 -1.257446e+002 -6.510708e+001 4.681821e+001 -3.181807e-001 -9.240517e+001
3158950000 -3.201564e+000 1.442908e+002 -6.723282e+001 -1.091549e+002 -6.519810e+001 2.699297e+001 -3.255910e-001 -9.294510e+001
3177693750 -3.212869e+000 1.432597e+002 -6.714407e+001 -9.651366e+001 -6.624427e+001 2.697249e+000 -3.238823e-001 -9.349355e+001
3196437500 -3.221204e+000 1.422365e+002 -6.682884e+001 -8.530933e+001 -6.606358e+001 -2.240232e+001 -3.285832e-001 -9.401979e+001
3215181250 -3.229507e+000 1.412356e+002 -6.691863e+001 -7.376176e+001 -6.634785e+001 -5.241490e+001 -3.417659e-001 -9.456492e+001
3233925000 -3.239432e+000 1.402221e+002 -6.736585e+001 -7.417024e+001 -6.647290e+001 -8.528281e+001 -3.384542e-001 -9.513892e+001
3252668750 -3.246460e+000 1.392072e+002 -6.756532e+001 -7.487291e+001 -6.635149e+001 -1.146101e+002 -3.464587e-001 -9.564054e+001
3271412500 -3.252359e+000 1.381703e+002 -6.727820e+001 -8.172941e+001 -6.663032e+001 -1.470638e+002 -3.558494e-001 -9.619759e+001
3290156250 -3.263893e+000 1.371475e+002 -6.690586e+001 -9.334074e+001 -6.682031e+001 -1.728225e+002 -3.551109e-001 -9.676138e+001
3308900000 -3.272143e+000 1.361334e+002 -6.697150e+001 -9.647789e+001 -6.699174e+001 1.634332e+002 -3.602677e-001 -9.726608e+001
3327643750 -3.276580e+000 1.351329e+002 -6.725647e+001 -1.044311e+002 -6.751048e+001 1.399223e+002 -3.700332e-001 -9.778668e+001
3346387500 -3.289524e+000 1.341345e+002 -6.707715e+001 -1.138754e+002 -6.762473e+001 1.152113e+002 -3.741300e-001 -9.834555e+001
3365131250 -3.298798e+000 1.331081e+002 -6.670117e+001 -1.133600e+002 -6.750359e+001 9.021249e+001 -3.785815e-001 -9.885915e+001
3383875000 -3.302175e+000 1.321017e+002 -6.663683e+001 -1.171373e+002 -6.700119e+001 7.069769e+001 -3.873042e-001 -9.940627e+001
3402618750 -3.316325e+000 1.311081e+002 -6.618233e+001 -1.240777e+002 -6.743662e+001 4.711889e+001 -3.897707e-001 -9.996214e+001
3421362500 -3.323945e+000 1.300773e+002 -6.592568e+001 -1.407545e+002 -6.745185e+001 2.816942e+001 -3.930640e-001 -1.004691e+002
3440106250 -3.330227e+000 1.290644e+002 -6.550320e+001 -1.506870e+002 -6.739371e+001 9.385136e+000 -4.013016e-001 -1.009859e+002
3458850000 -3.342162e+000 1.280676e+002 -6.595436e+001 -1.517987e+002 -6.715910e+001 -1.639297e+001 -4.041506e-001 -1.015248e+002
3477593750 -3.346136e+000 1.270121e+002 -6.648454e+001 -1.485934e+002 -6.732969e+001 -4.025687e+001 -4.089045e-001 -1.020408e+002
3496337500 -3.349941e+000 1.260095e+002 -6.639833e+001 -1.522453e+002 -6.727950e+001 -6.058221e+001 -4.189660e-001 -1.025705e+002
3515081250 -3.362785e+000 1.250074e+002 -6.629949e+001 -1.550896e+002 -6.689561e+001 -7.770989e+001 -4.231363e-001 -1.031134e+002
3533825000 -3.366614e+000 1.239775e+002 -6.594429e+001 -1.527594e+002 -6.652937e+001 -9.575785e+001 -4.240552e-001 -1.036403e+002
3552568750 -3.373880e+000 1.229874e+002 -6.622938e+001 -1.502300e+002 -6.587537e+001 -1.077287e+002 -4.323388e-001 -1.041722e+002
3571312500 -3.384401e+000 1.219747e+002 -6.638184e+001 -1.478824e+002 -6.569295e+001 -1.233268e+002 -4.336634e-001 -1.047333e+002
3590056250 -3.388405e+000 1.209509e+002 -6.631972e+001 -1.470300e+002 -6.573239e+001 -1.380793e+002 -4.335259e-001 -1.052704e+002
3608800000 -3.392397e+000 1.199468e+002 -6.668311e+001 -1.478530e+002 -6.501908e+001 -1.404557e+002 -4.426209e-001 -1.057769e+002
3627543750 -3.399411e+000 1.189350e+002 -6.690260e+001 -1.524644e+002 -6.490506e+001 -1.463358e+002 -4.453937e-001 -1.063298e+002
3646287500 -3.407768e+000 1.179221e+002 -6.657661e+001 -1.569369e+002 -6.491080e+001 -1.464914e+002 -4.423238e-001 -1.068498e+002
3665031250 -3.411302e+000 1.169149e+002 -6.616776e+001 -1.546274e+002 -6.506010e+001 -1.397683e+002 -4.541549e-001 -1.073390e+002
3683775000 -3.415842e+000 1.158903e+002 -6.601283e+001 -1.440001e+002 -6.520071e+001 -1.305870e+002 -4.569683e-001 -1.079070e+002
3702518750 -3.424221e+000 1.149118e+002 -6.597821e+001 -1.271072e+002 -6.469132e+001 -1.131483e+002 -4.562238e-001 -1.084341e+002
3721262500 -3.427610e+000 1.138652e+002 -6.603531e+001 -9.906100e+001 -6.460643e+001 -1.018763e+002 -4.625568e-001 -1.089425e+002
3740006250 -3.432312e+000 1.128579e+002 -6.658843e+001 -7.160826e+001 -6.408923e+001 -8.811652e+001 -4.659120e-001 -1.095032e+002
3758750000 -3.437884e+000 1.118601e+002 -6.655111e+001 -3.469688e+001 -6.355943e+001 -7.562189e+001 -4.651650e-001 -1.100359e+002
3777493750 -3.441613e+000 1.108172e+002 -6.618214e+001 1.499167e-001 -6.377462e+001 -5.629234e+001 -4.726691e-001 -1.105399e+002
3796237500 -3.442592e+000 1.097966e+002 -6.620340e+001 2.246277e+001 -6.386706e+001 -3.759341e+001 -4.759370e-001 -1.111049e+002
3814981250 -3.451179e+000 1.087748e+002 -6.625878e+001 4.186304e+001 -6.384480e+001 -1.965960e+001 -4.747973e-001 -1.116234e+002
3833725000 -3.451919e+000 1.077317e+002 -6.628361e+001 7.026171e+001 -6.362240e+001 -4.581090e+000 -4.790924e-001 -1.121241e+002
3852468750 -3.456570e+000 1.066982e+002 -6.651914e+001 1.022635e+002 -6.358305e+001 7.340132e+000 -4.810582e-001 -1.126939e+002
3871212500 -3.461313e+000 1.056898e+002 -6.620638e+001 1.355007e+002 -6.359974e+001 1.785315e+001 -4.805479e-001 -1.132205e+002
3889956250 -3.460729e+000 1.046260e+002 -6.598505e+001 1.717399e+002 -6.449097e+001 2.626267e+001 -4.870792e-001 -1.137332e+002
3908700000 -3.466621e+000 1.036186e+002 -6.567821e+001 -1.456403e+002 -6.411491e+001 3.216548e+001 -4.911793e-001 -1.142905e+002
3927443750 -3.475575e+000 1.025970e+002 -6.528576e+001 -9.734959e+001 -6.480375e+001 4.272879e+001 -4.946369e-001 -1.147953e+002
3946187500 -3.473575e+000 1.015322e+002 -6.547500e+001 -5.264443e+001 -6.554059e+001 5.519870e+001 -5.019292e-001 -1.153220e+002
3964931250 -3.481370e+000 1.005244e+002 -6.612783e+001 -1.160740e+001 -6.587869e+001 6.089108e+001 -5.041944e-001 -1.158873e+002
3983675000 -3.486044e+000 9.948449e+001 -6.581882e+001 3.332726e+001 -6.589933e+001 6.967540e+001 -5.069645e-001 -1.163789e+002
4002418750 -3.480530e+000 9.844001e+001 -6.557735e+001 7.479103e+001 -6.589544e+001 8.327187e+001 -5.136682e-001 -1.169112e+002
4021162500 -3.485625e+000 9.743188e+001 -6.591257e+001 1.119876e+002 -6.565531e+001 9.656310e+001 -5.182661e-001 -1.174372e+002
4039906250 -3.489027e+000 9.639429e+001 -6.615643e+001 1.475650e+002 -6.614004e+001 1.051798e+002 -5.193215e-001 -1.179487e+002
4058650000 -3.484657e+000 9.534748e+001 -6.685780e+001 -1.694611e+002 -6.634965e+001 1.139751e+002 -5.259408e-001 -1.184822e+002
4077393750 -3.488870e+000 9.434844e+001 -6.665930e+001 -1.278266e+002 -6.627135e+001 1.252077e+002 -5.303985e-001 -1.190242e+002
4096137500 -3.495588e+000 9.329856e+001 -6.670368e+001 -8.649495e+001 -6.668210e+001 1.355076e+002 -5.328443e-001 -1.195453e+002
4114881250 -3.495954e+000 9.226208e+001 -6.665029e+001 -4.804193e+001 -6.700372e+001 1.437327e+002 -5.371364e-001 -1.200791e+002
4133625000 -3.498886e+000 9.124415e+001 -6.675455e+001 -7.856863e+000 -6.771846e+001 1.461858e+002 -5.427263e-001 -1.206099e+002
4152368750 -3.502717e+000 9.021027e+001 -6.694878e+001 2.802096e+001 -6.770589e+001 1.486398e+002 -5.493606e-001 -1.211350e+002
4171112500 -3.498821e+000 8.915867e+001 -6.663227e+001 4.983678e+001 -6.801324e+001 1.486728e+002 -5.535971e-001 -1.217026e+002
4189856250 -3.502189e+000 8.814544e+001 -6.641168e+001 6.815871e+001 -6.836771e+001 1.444650e+002 -5.575305e-001 -1.222421e+002
4208600000 -3.503340e+000 8.709556e+001 -6.621571e+001 8.354070e+001 -6.814172e+001 1.372110e+002 -5.623144e-001 -1.227662e+002
4227343750 -3.501810e+000 8.606122e+001 -6.616655e+001 1.008939e+002 -6.823833e+001 1.406592e+002 -5.648648e-001 -1.232917e+002
4246087500 -3.502738e+000 8.506026e+001 -6.615156e+001 1.253242e+002 -6.837096e+001 1.386364e+002 -5.705596e-001 -1.238095e+002
4264831250 -3.503629e+000 8.399589e+001 -6.600318e+001 1.448567e+002 -6.844536e+001 1.369839e+002 -5.785082e-001 -1.243473e+002
4283575000 -3.495876e+000 8.296147e+001 -6.620864e+001 1.625008e+002 -6.856990e+001 1.256767e+002 -5.843475e-001 -1.248774e+002
4302318750 -3.496026e+000 8.192828e+001 -6.631961e+001 -1.798160e+002 -6.906859e+001 1.237957e+002 -5.923968e-001 -1.254051e+002
4321062500 -3.496270e+000 8.089285e+001 -6.619935e+001 -1.745360e+002 -6.832275e+001 1.240907e+002 -5.964847e-001 -1.259371e+002
4339806250 -3.493518e+000 7.985023e+001 -6.653635e+001 1.769551e+002 -6.839316e+001 1.237152e+002 -5.986499e-001 -1.264655e+002
4358550000 -3.490398e+000 7.881153e+001 -6.644147e+001 1.596493e+002 -6.826333e+001 1.120690e+002 -6.046828e-001 -1.270108e+002
4377293750 -3.493602e+000 7.776546e+001 -6.666779e+001 1.434802e+002 -6.801563e+001 9.847913e+001 -6.085806e-001 -1.275571e+002
4396037500 -3.485590e+000 7.670805e+001 -6.633286e+001 1.307144e+002 -6.761440e+001 8.822146e+001 -6.149693e-001 -1.280882e+002
4414781250 -3.484833e+000 7.568388e+001 -6.664977e+001 1.078263e+002 -6.752721e+001 6.622708e+001 -6.216360e-001 -1.286322e+002
4433525000 -3.488599e+000 7.461914e+001 -6.639125e+001 8.917335e+001 -6.776723e+001 4.104604e+001 -6.284653e-001 -1.291621e+002
4452268750 -3.479470e+000 7.355205e+001 -6.602515e+001 7.795436e+001 -6.812069e+001 2.646854e+001 -6.356013e-001 -1.297088e+002
4471012500 -3.480069e+000 7.250911e+001 -6.543681e+001 7.332218e+001 -6.776636e+001 1.241943e+001 -6.439788e-001 -1.302524e+002
4489756250 -3.481196e+000 7.143338e+001 -6.472234e+001 6.082201e+001 -6.834248e+001 1.570540e+000 -6.489671e-001 -1.307870e+002
4508500000 -3.473874e+000 7.036250e+001 -6.475123e+001 4.528070e+001 -6.850352e+001 -1.746642e+001 -6.545225e-001 -1.313129e+002
4527243750 -3.472233e+000 6.932567e+001 -6.512933e+001 3.022521e+001 -6.842194e+001 -3.524049e+001 -6.611416e-001 -1.318416e+002
4545987500 -3.468339e+000 6.824254e+001 -6.512715e+001 9.219940e+000 -6.819689e+001 -6.345050e+001 -6.662155e-001 -1.323755e+002
4564731250 -3.460517e+000 6.717222e+001 -6.520481e+001 -1.778816e+001 -6.742030e+001 -8.544716e+001 -6.713779e-001 -1.329174e+002
4583475000 -3.462836e+000 6.613877e+001 -6.486266e+001 -4.535200e+001 -6.756965e+001 -1.055790e+002 -6.771807e-001 -1.334355e+002
4602218750 -3.462230e+000 6.508231e+001 -6.468442e+001 -6.719212e+001 -6.763908e+001 -1.212849e+002 -6.819523e-001 -1.339528e+002
4620962500 -3.456455e+000 6.398212e+001 -6.477564e+001 -8.986832e+001 -6.735731e+001 -1.415335e+002 -6.893029e-001 -1.344557e+002
4639706250 -3.449597e+000 6.293580e+001 -6.522095e+001 -1.058264e+002 -6.732154e+001 -1.609384e+002 -6.963482e-001 -1.350014e+002
4658450000 -3.446823e+000 6.185818e+001 -6.538271e+001 -1.135963e+002 -6.720409e+001 1.772893e+002 -7.022138e-001 -1.355430e+002
4677193750 -3.436940e+000 6.080047e+001 -6.592334e+001 -1.282278e+002 -6.758945e+001 1.652337e+002 -7.085592e-001 -1.360997e+002
4695937500 -3.439355e+000 5.976113e+001 -6.596534e+001 -1.451327e+002 -6.740726e+001 1.538428e+002 -7.153891e-001 -1.366312e+002
4714681250 -3.436103e+000 5.864911e+001 -6.585925e+001 -1.613796e+002 -6.726329e+001 1.464265e+002 -7.207045e-001 -1.371693e+002
4733425000 -3.429522e+000 5.760894e+001 -6.612624e+001 1.750273e+002 -6.692718e+001 1.339454e+002 -7.266339e-001 -1.377243e+002
4752168750 -3.433221e+000 5.652951e+001 -6.643549e+001 1.622236e+002 -6.682516e+001 1.265081e+002 -7.329326e-001 -1.382525e+002
4770912500 -3.425832e+000 5.540850e+001 -6.647549e+001 1.560687e+002 -6.689670e+001 1.225994e+002 -7.397518e-001 -1.387908e+002
4789656250 -3.419056e+000 5.436298e+001 -6.653687e+001 1.489238e+002 -6.664346e+001 1.239842e+002 -7.442458e-001 -1.393320e+002
4808400000 -3.417555e+000 5.329712e+001 -6.633742e+001 1.492296e+002 -6.701577e+001 1.185939e+002 -7.498907e-001 -1.398437e+002
4827143750 -3.409843e+000 5.217556e+001 -6.633017e+001 1.423315e+002 -6.706068e+001 1.176558e+002 -7.558352e-001 -1.403897e+002
4845887500 -3.397260e+000 5.111115e+001 -6.596121e+001 1.451825e+002 -6.728658e+001 1.208306e+002 -7.632832e-001 -1.409418e+002
4864631250 -3.395612e+000 5.005016e+001 -6.624596e+001 1.416413e+002 -6.758174e+001 1.237589e+002 -7.676813e-001 -1.414572e+002
4883375000 -3.389755e+000 4.891658e+001 -6.640665e+001 1.403535e+002 -6.749081e+001 1.237629e+002 -7.748884e-001 -1.419834e+002
4902118750 -3.380814e+000 4.785364e+001 -6.624630e+001 1.382541e+002 -6.736806e+001 1.188524e+002 -7.792241e-001 -1.425472e+002
4920862500 -3.380136e+000 4.678671e+001 -6.580134e+001 1.364064e+002 -6.710814e+001 1.142985e+002 -7.844905e-001 -1.430617e+002
4939606250 -3.368362e+000 4.565972e+001 -6.597227e+001 1.340753e+002 -6.674380e+001 1.137306e+002 -7.894361e-001 -1.436179e+002
4958350000 -3.358595e+000 4.458860e+001 -6.567886e+001 1.307068e+002 -6.604265e+001 1.072161e+002 -7.931812e-001 -1.441802e+002
4977093750 -3.357262e+000 4.350497e+001 -6.582764e+001 1.293057e+002 -6.631562e+001 1.068728e+002 -7.972767e-001 -1.446924e+002
4995837500 -3.347917e+000 4.236929e+001 -6.582003e+001 1.291482e+002 -6.621467e+001 1.068596e+002 -8.043596e-001 -1.452409e+002
5014581250 -3.334624e+000 4.130969e+001 -6.578965e+001 1.265196e+002 -6.580918e+001 1.068994e+002 -8.090452e-001 -1.457776e+002
5033325000 -3.327056e+000 4.016067e+001 -6.589662e+001 1.218884e+002 -6.543656e+001 9.995310e+001 -8.188353e-001 -1.463100e+002
5052068750 -3.313597e+000 3.906439e+001 -6.626305e+001 1.181732e+002 -6.539742e+001 9.607307e+001 -8.257203e-001 -1.468725e+002
5070812500 -3.311085e+000 3.799375e+001 -6.634468e+001 1.118594e+002 -6.530808e+001 9.636325e+001 -8.294215e-001 -1.473951e+002
5089556250 -3.302652e+000 3.684562e+001 -6.615054e+001 1.024427e+002 -6.518776e+001 9.654359e+001 -8.384370e-001 -1.479191e+002
5108300000 -3.293125e+000 3.572216e+001 -6.563500e+001 9.248428e+001 -6.496835e+001 8.983264e+001 -8.442658e-001 -1.484505e+002
5127043750 -3.282990e+000 3.462663e+001 -6.582098e+001 8.445974e+001 -6.549963e+001 8.478992e+001 -8.476940e-001 -1.489683e+002
5145787500 -3.273364e+000 3.351321e+001 -6.607402e+001 8.092734e+001 -6.546143e+001 8.569177e+001 -8.554107e-001 -1.494841e+002
5164531250 -3.261629e+000 3.238644e+001 -6.598373e+001 8.290317e+001 -6.540166e+001 8.513279e+001 -8.613952e-001 -1.500286e+002
5183275000 -3.250149e+000 3.131052e+001 -6.586224e+001 7.630176e+001 -6.531863e+001 8.214143e+001 -8.656437e-001 -1.505428e+002
5202018750 -3.240034e+000 3.018861e+001 -6.531730e+001 7.392974e+001 -6.580567e+001 7.111171e+001 -8.741316e-001 -1.510734e+002
5220762500 -3.229416e+000 2.907900e+001 -6.535285e+001 7.601031e+001 -6.541961e+001 5.390299e+001 -8.815438e-001 -1.516222e+002
5239506250 -3.219713e+000 2.797108e+001 -6.508497e+001 7.275500e+001 -6.490393e+001 3.823257e+001 -8.855547e-001 -1.521473e+002
5258250000 -3.209713e+000 2.684014e+001 -6.475062e+001 7.591345e+001 -6.477245e+001 2.355939e+001 -8.942205e-001 -1.526679e+002
5276993750 -3.200420e+000 2.573454e+001 -6.506790e+001 7.830077e+001 -6.449443e+001 1.048347e+001 -8.983504e-001 -1.532255e+002
5295737500 -3.191187e+000 2.462537e+001 -6.519630e+001 8.672939e+001 -6.419927e+001 -5.909560e+000 -9.035438e-001 -1.537431e+002
5314481250 -3.178179e+000 2.349915e+001 -6.496893e+001 8.307114e+001 -6.444911e+001 -2.633642e+001 -9.086967e-001 -1.542702e+002
5333225000 -3.165989e+000 2.237588e+001 -6.581955e+001 7.482723e+001 -6.446390e+001 -4.614741e+001 -9.171023e-001 -1.548109e+002
5351968750 -3.153604e+000 2.126059e+001 -6.611858e+001 6.281052e+001 -6.440820e+001 -6.717908e+001 -9.231248e-001 -1.553302e+002
5370712500 -3.144430e+000 2.011318e+001 -6.600912e+001 4.735552e+001 -6.476235e+001 -7.936273e+001 -9.333182e-001 -1.558538e+002
5389456250 -3.129871e+000 1.899991e+001 -6.577531e+001 3.109439e+001 -6.496945e+001 -9.412135e+001 -9.405259e-001 -1.563924e+002
5408200000 -3.120142e+000 1.788394e+001 -6.555191e+001 1.801193e+001 -6.504617e+001 -1.161221e+002 -9.470530e-001 -1.569145e+002
5426943750 -3.109182e+000 1.672704e+001 -6.548698e+001 4.021221e+000 -6.509162e+001 -1.474974e+002 -9.560006e-001 -1.574446e+002
5445687500 -3.096128e+000 1.558741e+001 -6.566100e+001 -3.018254e+000 -6.556078e+001 -1.789311e+002 -9.606354e-001 -1.579944e+002
5464431250 -3.086884e+000 1.446891e+001 -6.543782e+001 -2.376163e+000 -6.634484e+001 1.484791e+002 -9.640924e-001 -1.585030e+002
5483175000 -3.076590e+000 1.330682e+001 -6.533192e+001 -5.954223e+000 -6.668790e+001 1.138116e+002 -9.737725e-001 -1.590537e+002
5501918750 -3.061104e+000 1.217219e+001 -6.504226e+001 -5.413385e+000 -6.665950e+001 8.060197e+001 -9.772168e-001 -1.595889e+002
5520662500 -3.053889e+000 1.103856e+001 -6.493501e+001 -5.142841e+000 -6.669642e+001 4.863030e+001 -9.819395e-001 -1.600951e+002
5539406250 -3.042169e+000 9.875604e+000 -6.514128e+001 -1.009622e+000 -6.647305e+001 1.446880e+001 -9.924635e-001 -1.606251e+002
5558150000 -3.026291e+000 8.737746e+000 -6.513071e+001 -3.569833e+000 -6.607284e+001 -1.444186e+001 -9.969424e-001 -1.611542e+002
5576893750 -3.019152e+000 7.577404e+000 -6.523039e+001 -1.178186e+001 -6.631076e+001 -4.601847e+001 -1.002516e+000 -1.616756e+002
5595637500 -3.008156e+000 6.398215e+000 -6.517159e+001 -2.363845e+001 -6.627400e+001 -8.081866e+001 -1.012633e+000 -1.622077e+002
5614381250 -2.991392e+000 5.249067e+000 -6.496091e+001 -2.661015e+001 -6.695324e+001 -1.102746e+002 -1.017537e+000 -1.627549e+002
5633125000 -2.984821e+000 4.094788e+000 -6.473723e+001 -3.299159e+001 -6.640118e+001 -1.379942e+002 -1.022602e+000 -1.632694e+002
5651868750 -2.971331e+000 2.912076e+000 -6.457567e+001 -3.465063e+001 -6.631543e+001 -1.656554e+002 -1.031690e+000 -1.637940e+002
5670612500 -2.955913e+000 1.768355e+000 -6.488869e+001 -3.426881e+001 -6.623006e+001 1.606150e+002 -1.034934e+000 -1.643219e+002
5689356250 -2.947193e+000 6.031904e-001 -6.484308e+001 -3.546335e+001 -6.630734e+001 1.283342e+002 -1.041682e+000 -1.648246e+002
5708100000 -2.933770e+000 -5.840700e-001 -6.440871e+001 -4.421634e+001 -6.694566e+001 1.033648e+002 -1.052747e+000 -1.653539e+002
5726843750 -2.918720e+000 -1.740991e+000 -6.415687e+001 -5.056530e+001 -6.695639e+001 8.641875e+001 -1.055502e+000 -1.658939e+002
5745587500 -2.911343e+000 -2.898831e+000 -6.443188e+001 -5.270557e+001 -6.707517e+001 7.138480e+001 -1.063676e+000 -1.663995e+002
5764331250 -2.897578e+000 -4.075502e+000 -6.384129e+001 -4.678979e+001 -6.764542e+001 5.446565e+001 -1.071983e+000 -1.669373e+002
5783075000 -2.886431e+000 -5.246736e+000 -6.377193e+001 -3.830412e+001 -6.739039e+001 3.624900e+001 -1.073757e+000 -1.674564e+002
5801818750 -2.877122e+000 -6.390323e+000 -6.414725e+001 -2.129734e+001 -6.722279e+001 1.349331e+001 -1.078754e+000 -1.679664e+002
5820562500 -2.864306e+000 -7.610673e+000 -6.439998e+001 -1.037805e+001 -6.728524e+001 -4.815526e+000 -1.087293e+000 -1.684792e+002
5839306250 -2.849374e+000 -8.777347e+000 -6.437014e+001 7.884976e-001 -6.697279e+001 -1.242166e+001 -1.092563e+000 -1.690391e+002
5858050000 -2.839933e+000 -9.936322e+000 -6.481770e+001 1.250090e+001 -6.712310e+001 -1.520498e+001 -1.095255e+000 -1.695388e+002
5876793750 -2.827546e+000 -1.116077e+001 -6.443360e+001 1.668751e+001 -6.670020e+001 -1.579075e+001 -1.109513e+000 -1.700284e+002
5895537500 -2.810834e+000 -1.232372e+001 -6.470322e+001 1.419047e+001 -6.573230e+001 -1.587638e+001 -1.120406e+000 -1.706080e+002
5914281250 -2.802736e+000 -1.349013e+001 -6.441470e+001 1.574473e+001 -6.586375e+001 -1.597120e+001 -1.117401e+000 -1.710891e+002
5933025000 -2.788180e+000 -1.471662e+001 -6.406448e+001 1.387606e+001 -6.611343e+001 -2.144761e+001 -1.133969e+000 -1.716062e+002
5951768750 -2.769157e+000 -1.587395e+001 -6.422749e+001 1.327525e+001 -6.624428e+001 -2.585875e+001 -1.143361e+000 -1.722060e+002
5970512500 -2.762655e+000 -1.706157e+001 -6.409211e+001 1.109217e+001 -6.619751e+001 -2.693976e+001 -1.138502e+000 -1.727030e+002
5989256250 -2.747850e+000 -1.829154e+001 -6.375056e+001 1.375132e+001 -6.587519e+001 -3.124465e+001 -1.151398e+000 -1.732221e+002
6008000000 -2.731958e+000 -1.944228e+001 -6.338224e+001 2.087287e+001 -6.580953e+001 -3.564795e+001 -1.161660e+000 -1.737986e+002
6026743750 -2.724491e+000 -2.064259e+001 -6.315350e+001 3.078203e+001 -6.583731e+001 -3.398746e+001 -1.157572e+000 -1.742743e+002
6045487500 -2.711772e+000 -2.187813e+001 -6.327649e+001 3.668204e+001 -6.495802e+001 -3.773423e+001 -1.173153e+000 -1.748042e+002
6064231250 -2.697203e+000 -2.302976e+001 -6.332971e+001 3.741437e+001 -6.512283e+001 -3.212593e+001 -1.182079e+000 -1.753764e+002
6082975000 -2.690668e+000 -2.426018e+001 -6.357909e+001 3.684561e+001 -6.515517e+001 -2.303463e+001 -1.178718e+000 -1.758705e+002
6101718750 -2.673516e+000 -2.550741e+001 -6.348082e+001 3.317624e+001 -6.523454e+001 -6.299306e+000 -1.196779e+000 -1.764182e+002
6120462500 -2.662766e+000 -2.666542e+001 -6.354999e+001 3.364423e+001 -6.549171e+001 6.203633e+000 -1.204540e+000 -1.769900e+002
6139206250 -2.655757e+000 -2.790644e+001 -6.362016e+001 3.554356e+001 -6.493636e+001 1.259139e+001 -1.201419e+000 -1.774792e+002
6157950000 -2.638210e+000 -2.915503e+001 -6.350261e+001 3.484729e+001 -6.498875e+001 1.076731e+001 -1.220086e+000 -1.780257e+002
6176693750 -2.626886e+000 -3.033880e+001 -6.373781e+001 3.350621e+001 -6.433331e+001 7.535605e+000 -1.224474e+000 -1.786159e+002
6195437500 -2.615609e+000 -3.158676e+001 -6.374186e+001 2.991135e+001 -6.414753e+001 8.275811e+000 -1.229254e+000 -1.791149e+002
6214181250 -2.599089e+000 -3.282286e+001 -6.363703e+001 3.041054e+001 -6.420237e+001 8.754275e+000 -1.240417e+000 -1.796874e+002
6232925000 -2.587116e+000 -3.405893e+001 -6.293764e+001 2.354128e+001 -6.406471e+001 8.081814e+000 -1.247000e+000 1.797832e+002
6251668750 -2.575474e+000 -3.529993e+001 -6.291158e+001 2.238117e+001 -6.378926e+001 6.033882e+000 -1.254421e+000 1.792365e+002
6270412500 -2.562422e+000 -3.654852e+001 -6.301729e+001 1.761532e+001 -6.363738e+001 1.564088e+000 -1.267897e+000 1.787036e+002
6289156250 -2.552476e+000 -3.778734e+001 -6.257630e+001 1.420809e+001 -6.362030e+001 -3.510373e+000 -1.274459e+000 1.781495e+002
6307900000 -2.541104e+000 -3.901048e+001 -6.278202e+001 1.488335e+001 -6.363816e+001 -5.514167e+000 -1.276137e+000 1.775758e+002
6326643750 -2.533157e+000 -4.027342e+001 -6.265296e+001 1.429332e+001 -6.405751e+001 -4.734716e+000 -1.284005e+000 1.770887e+002
6345387500 -2.524237e+000 -4.153990e+001 -6.247630e+001 1.268511e+001 -6.347482e+001 -1.595899e+000 -1.295588e+000 1.765064e+002
6364131250 -2.512503e+000 -4.275851e+001 -6.249461e+001 1.002844e+001 -6.330459e+001 4.002914e+000 -1.297426e+000 1.759587e+002
6382875000 -2.505621e+000 -4.401171e+001 -6.303757e+001 -7.221275e-002 -6.353480e+001 6.183730e+000 -1.306560e+000 1.754714e+002
6401618750 -2.494248e+000 -4.528239e+001 -6.294580e+001 -1.453615e+000 -6.367478e+001 4.378075e+000 -1.320132e+000 1.748808e+002
6420362500 -2.482599e+000 -4.651368e+001 -6.306021e+001 -3.496155e+000 -6.365273e+001 3.533774e+000 -1.323041e+000 1.743260e+002
6439106250 -2.477738e+000 -4.778294e+001 -6.277301e+001 -6.723003e+000 -6.406176e+001 7.595773e+000 -1.330877e+000 1.738234e+002
6457850000 -2.467440e+000 -4.905747e+001 -6.268324e+001 -1.068314e+001 -6.386899e+001 7.177530e+000 -1.345824e+000 1.732174e+002
6476593750 -2.453581e+000 -5.030737e+001 -6.245271e+001 -1.710515e+001 -6.416688e+001 6.961097e+000 -1.346986e+000 1.726797e+002
6495337500 -2.447968e+000 -5.157766e+001 -6.247780e+001 -1.876181e+001 -6.420522e+001 3.512662e+000 -1.354557e+000 1.721552e+002
6514081250 -2.437330e+000 -5.285069e+001 -6.220123e+001 -2.185871e+001 -6.418869e+001 3.977354e+000 -1.367723e+000 1.715562e+002
6532825000 -2.428204e+000 -5.410711e+001 -6.227634e+001 -2.571316e+001 -6.395896e+001 7.176665e-001 -1.368322e+000 1.710305e+002
6551568750 -2.422607e+000 -5.539475e+001 -6.234321e+001 -2.687451e+001 -6.363913e+001 5.701852e-001 -1.378834e+000 1.705099e+002
6570312500 -2.413680e+000 -5.669101e+001 -6.241059e+001 -2.883281e+001 -6.344621e+001 3.422912e-001 -1.392439e+000 1.699174e+002
6589056250 -2.405005e+000 -5.794823e+001 -6.241098e+001 -3.085680e+001 -6.329080e+001 -3.659542e+000 -1.393627e+000 1.693786e+002
6607800000 -2.400670e+000 -5.923378e+001 -6.209153e+001 -2.857885e+001 -6.319579e+001 -5.492391e+000 -1.405204e+000 1.688613e+002
6626543750 -2.395185e+000 -6.053203e+001 -6.208575e+001 -3.120003e+001 -6.256557e+001 -7.236109e+000 -1.411013e+000 1.682742e+002
6645287500 -2.390953e+000 -6.179820e+001 -6.214813e+001 -3.268548e+001 -6.244516e+001 -8.154386e+000 -1.418822e+000 1.677437e+002
6664031250 -2.387381e+000 -6.309057e+001 -6.227217e+001 -3.181593e+001 -6.221793e+001 -8.492428e+000 -1.432026e+000 1.671743e+002
6682775000 -2.384517e+000 -6.438528e+001 -6.231226e+001 -3.122845e+001 -6.229135e+001 -9.906247e+000 -1.437326e+000 1.665949e+002
6701518750 -2.379580e+000 -6.565057e+001 -6.252007e+001 -3.039984e+001 -6.265435e+001 -1.070375e+001 -1.443209e+000 1.660496e+002
6720262500 -2.378245e+000 -6.696629e+001 -6.253981e+001 -3.041224e+001 -6.258330e+001 -9.043889e+000 -1.454842e+000 1.654865e+002
6739006250 -2.372899e+000 -6.826685e+001 -6.245782e+001 -3.434465e+001 -6.261266e+001 -9.723536e+000 -1.462097e+000 1.649017e+002
6757750000 -2.371676e+000 -6.954942e+001 -6.250107e+001 -3.675125e+001 -6.241086e+001 -1.247775e+001 -1.468084e+000 1.643352e+002
6776493750 -2.368032e+000 -7.087144e+001 -6.279689e+001 -3.765353e+001 -6.245361e+001 -1.648051e+001 -1.481289e+000 1.637759e+002
6795237500 -2.363504e+000 -7.219462e+001 -6.315498e+001 -3.976442e+001 -6.242700e+001 -2.189875e+001 -1.486598e+000 1.631818e+002
6813981250 -2.363744e+000 -7.350652e+001 -6.241291e+001 -3.391526e+001 -6.187697e+001 -2.686142e+001 -1.492379e+000 1.626185e+002
6832725000 -2.363322e+000 -7.484335e+001 -6.233826e+001 -3.747452e+001 -6.173637e+001 -2.655492e+001 -1.503235e+000 1.620684e+002
6851468750 -2.361448e+000 -7.615277e+001 -6.282825e+001 -3.346394e+001 -6.175232e+001 -2.841785e+001 -1.509333e+000 1.614775e+002
6870212500 -2.362651e+000 -7.748033e+001 -6.284448e+001 -3.674239e+001 -6.148475e+001 -3.505351e+001 -1.515489e+000 1.609169e+002
6888956250 -2.362286e+000 -7.883796e+001 -6.303682e+001 -3.871963e+001 -6.145879e+001 -3.864544e+001 -1.525114e+000 1.603694e+002
6907700000 -2.362820e+000 -8.015086e+001 -6.300093e+001 -4.059208e+001 -6.125495e+001 -4.242737e+001 -1.532854e+000 1.597677e+002
6926443750 -2.365054e+000 -8.149899e+001 -6.322667e+001 -4.504656e+001 -6.117916e+001 -4.520127e+001 -1.540199e+000 1.592102e+002
6945187500 -2.368133e+000 -8.287524e+001 -6.314446e+001 -4.739548e+001 -6.094235e+001 -5.076089e+001 -1.549925e+000 1.586365e+002
6963931250 -2.369406e+000 -8.418707e+001 -6.312090e+001 -4.708185e+001 -6.104200e+001 -5.336294e+001 -1.557117e+000 1.580409e+002
6982675000 -2.375926e+000 -8.555606e+001 -6.295306e+001 -5.191525e+001 -6.135921e+001 -5.720694e+001 -1.562783e+000 1.574779e+002
7001418750 -2.377975e+000 -8.693196e+001 -6.271318e+001 -5.340485e+001 -6.148505e+001 -6.099935e+001 -1.574132e+000 1.569077e+002
7020162500 -2.381142e+000 -8.826203e+001 -6.273971e+001 -5.526192e+001 -6.156791e+001 -5.798511e+001 -1.582701e+000 1.563215e+002
7038906250 -2.389946e+000 -8.964713e+001 -6.248306e+001 -5.915169e+001 -6.174265e+001 -6.099258e+001 -1.588302e+000 1.557548e+002
7057650000 -2.394598e+000 -9.102306e+001 -6.264288e+001 -5.978614e+001 -6.204527e+001 -6.468777e+001 -1.599170e+000 1.551823e+002
7076393750 -2.399666e+000 -9.238375e+001 -6.261776e+001 -6.243811e+001 -6.181719e+001 -6.467526e+001 -1.607691e+000 1.545862e+002
7095137500 -2.411214e+000 -9.378133e+001 -6.255038e+001 -6.414634e+001 -6.206199e+001 -6.974797e+001 -1.613416e+000 1.540019e+002
7113881250 -2.414446e+000 -9.517280e+001 -6.218740e+001 -6.615250e+001 -6.216492e+001 -7.082050e+001 -1.625203e+000 1.534191e+002
7132625000 -2.423495e+000 -9.655364e+001 -6.193392e+001 -6.745071e+001 -6.172085e+001 -7.215414e+001 -1.631535e+000 1.528357e+002
7151368750 -2.431942e+000 -9.794085e+001 -6.197736e+001 -6.730630e+001 -6.195115e+001 -7.671203e+001 -1.639694e+000 1.522712e+002
7170112500 -2.438706e+000 -9.934748e+001 -6.187959e+001 -7.037037e+001 -6.234248e+001 -8.485416e+001 -1.650178e+000 1.516904e+002
7188856250 -2.450943e+000 -1.007380e+002 -6.181308e+001 -7.010506e+001 -6.229996e+001 -8.831109e+001 -1.656831e+000 1.510981e+002
7207600000 -2.462080e+000 -1.021318e+002 -6.156553e+001 -7.058173e+001 -6.215873e+001 -9.089288e+001 -1.664696e+000 1.505408e+002
7226343750 -2.472370e+000 -1.035452e+002 -6.143921e+001 -7.144290e+001 -6.202493e+001 -9.160738e+001 -1.676071e+000 1.499533e+002
7245087500 -2.487368e+000 -1.049325e+002 -6.163479e+001 -7.226331e+001 -6.212770e+001 -9.197870e+001 -1.684122e+000 1.493577e+002
7263831250 -2.498385e+000 -1.063475e+002 -6.158674e+001 -7.268754e+001 -6.232358e+001 -9.347178e+001 -1.693979e+000 1.487819e+002
7282575000 -2.512264e+000 -1.077702e+002 -6.107948e+001 -8.194546e+001 -6.235244e+001 -9.319417e+001 -1.705263e+000 1.481842e+002
7301318750 -2.530219e+000 -1.091834e+002 -6.109187e+001 -8.112946e+001 -6.211156e+001 -9.495589e+001 -1.711591e+000 1.475905e+002
7320062500 -2.542711e+000 -1.106157e+002 -6.119646e+001 -8.167037e+001 -6.218541e+001 -9.565363e+001 -1.723749e+000 1.470104e+002
7338806250 -2.557616e+000 -1.120472e+002 -6.130229e+001 -8.255990e+001 -6.249248e+001 -9.667709e+001 -1.732008e+000 1.464138e+002
7357550000 -2.577036e+000 -1.134734e+002 -6.121716e+001 -8.271952e+001 -6.226725e+001 -9.825425e+001 -1.739338e+000 1.458286e+002
7376293750 -2.590877e+000 -1.149008e+002 -6.141369e+001 -8.339146e+001 -6.263245e+001 -9.586598e+001 -1.752090e+000 1.452562e+002
7395037500 -2.613534e+000 -1.163839e+002 -6.149710e+001 -7.605350e+001 -6.261446e+001 -9.491973e+001 -1.763155e+000 1.446551e+002
7413781250 -2.627292e+000 -1.178278e+002 -6.174975e+001 -7.550648e+001 -6.234107e+001 -9.608234e+001 -1.768974e+000 1.440455e+002
7432525000 -2.647297e+000 -1.192488e+002 -6.188733e+001 -7.522459e+001 -6.267722e+001 -9.382633e+001 -1.777375e+000 1.434741e+002
7451268750 -2.671860e+000 -1.207457e+002 -6.188704e+001 -7.750636e+001 -6.245800e+001 -9.442105e+001 -1.787089e+000 1.428622e+002
7470012500 -2.684630e+000 -1.222207e+002 -6.208231e+001 -7.817400e+001 -6.251868e+001 -9.233065e+001 -1.797720e+000 1.422676e+002
7488756250 -2.709140e+000 -1.236419e+002 -6.181897e+001 -7.790101e+001 -6.225881e+001 -9.296484e+001 -1.808441e+000 1.416765e+002
7507500000 -2.736554e+000 -1.251497e+002 -6.194703e+001 -7.691190e+001 -6.277063e+001 -9.851848e+001 -1.817880e+000 1.410782e+002
7526243750 -2.751676e+000 -1.266305e+002 -6.207136e+001 -7.867704e+001 -6.264957e+001 -9.869389e+001 -1.828228e+000 1.404955e+002
7544987500 -2.780654e+000 -1.280780e+002 -6.240594e+001 -7.278742e+001 -6.246943e+001 -9.965404e+001 -1.836157e+000 1.399056e+002
7563731250 -2.808923e+000 -1.296186e+002 -6.229121e+001 -7.454578e+001 -6.259859e+001 -1.020654e+002 -1.843982e+000 1.392958e+002
7582475000 -2.828126e+000 -1.311156e+002 -6.232077e+001 -7.552419e+001 -6.244547e+001 -9.923218e+001 -1.854004e+000 1.387066e+002
7601218750 -2.859637e+000 -1.325722e+002 -6.274420e+001 -7.612964e+001 -6.272578e+001 -9.907083e+001 -1.862580e+000 1.381153e+002
7619962500 -2.888289e+000 -1.341288e+002 -6.256852e+001 -7.592441e+001 -6.273194e+001 -9.774157e+001 -1.871935e+000 1.375216e+002
7638706250 -2.912934e+000 -1.356477e+002 -6.246551e+001 -7.708907e+001 -6.272821e+001 -9.751815e+001 -1.881664e+000 1.369337e+002
7657450000 -2.948225e+000 -1.371379e+002 -6.235174e+001 -7.807743e+001 -6.275948e+001 -9.711248e+001 -1.893228e+000 1.363260e+002
7676193750 -2.976002e+000 -1.387236e+002 -6.224614e+001 -8.234745e+001 -6.294374e+001 -1.007094e+002 -1.901393e+000 1.357191e+002
7694937500 -3.002940e+000 -1.402259e+002 -6.224597e+001 -8.434038e+001 -6.287780e+001 -1.054917e+002 -1.912330e+000 1.351339e+002
7713681250 -3.040047e+000 -1.417498e+002 -6.227711e+001 -8.456143e+001 -6.305908e+001 -1.093968e+002 -1.922928e+000 1.345118e+002
7732425000 -3.072029e+000 -1.433457e+002 -6.252626e+001 -8.634137e+001 -6.309299e+001 -1.102410e+002 -1.931967e+000 1.339042e+002
7751168750 -3.102956e+000 -1.448522e+002 -6.240374e+001 -8.549256e+001 -6.292916e+001 -1.119743e+002 -1.940578e+000 1.333061e+002
7769912500 -3.143789e+000 -1.464002e+002 -6.260958e+001 -8.464838e+001 -6.295469e+001 -1.111729e+002 -1.953071e+000 1.326924e+002
7788656250 -3.177551e+000 -1.480021e+002 -6.308553e+001 -8.180998e+001 -6.291145e+001 -1.152063e+002 -1.959592e+000 1.320864e+002
7807400000 -3.211933e+000 -1.495174e+002 -6.349768e+001 -8.381869e+001 -6.266545e+001 -1.185633e+002 -1.968801e+000 1.315088e+002
7826143750 -3.253232e+000 -1.510589e+002 -6.352169e+001 -8.974146e+001 -6.264555e+001 -1.197160e+002 -1.977805e+000 1.308788e+002
7844887500 -3.295526e+000 -1.526786e+002 -6.357785e+001 -9.307048e+001 -6.272076e+001 -1.211994e+002 -1.985913e+000 1.302849e+002
7863631250 -3.332410e+000 -1.542468e+002 -6.402430e+001 -1.006363e+002 -6.265652e+001 -1.261652e+002 -1.999271e+000 1.296695e+002
7882375000 -3.376347e+000 -1.558122e+002 -6.437061e+001 -9.968274e+001 -6.297520e+001 -1.294061e+002 -2.008245e+000 1.290409e+002
7901118750 -3.422732e+000 -1.574303e+002 -6.494238e+001 -9.764499e+001 -6.288034e+001 -1.344065e+002 -2.012115e+000 1.284253e+002
7919862500 -3.460956e+000 -1.590217e+002 -6.498126e+001 -1.000579e+002 -6.360688e+001 -1.344328e+002 -2.022799e+000 1.278367e+002
7938606250 -3.506978e+000 -1.606022e+002 -6.548373e+001 -1.011972e+002 -6.341137e+001 -1.341292e+002 -2.031647e+000 1.272022e+002
7957350000 -3.558463e+000 -1.622448e+002 -6.563474e+001 -1.040915e+002 -6.326761e+001 -1.319307e+002 -2.036614e+000 1.266013e+002
7976093750 -3.599732e+000 -1.638640e+002 -6.571764e+001 -1.080584e+002 -6.349130e+001 -1.323331e+002 -2.048720e+000 1.260036e+002
7994837500 -3.647803e+000 -1.654667e+002 -6.605929e+001 -1.027931e+002 -6.347255e+001 -1.324391e+002 -2.062151e+000 1.253753e+002
8013581250 -3.698639e+000 -1.671127e+002 -6.608129e+001 -9.292162e+001 -6.338340e+001 -1.326773e+002 -2.068422e+000 1.247555e+002
8032325000 -3.743735e+000 -1.687625e+002 -6.602989e+001 -7.876047e+001 -6.306498e+001 -1.327275e+002 -2.081475e+000 1.241500e+002
8051068750 -3.796362e+000 -1.703769e+002 -6.626446e+001 -6.176402e+001 -6.310824e+001 -1.346797e+002 -2.093835e+000 1.234951e+002
8069812500 -3.848229e+000 -1.720490e+002 -6.688517e+001 -4.657145e+001 -6.319128e+001 -1.350891e+002 -2.100372e+000 1.228677e+002
8088556250 -3.897820e+000 -1.737286e+002 -6.704832e+001 -3.544036e+001 -6.316248e+001 -1.390398e+002 -2.112316e+000 1.222590e+002
8107300000 -3.953453e+000 -1.753844e+002 -6.736771e+001 -2.161850e+001 -6.307115e+001 -1.401320e+002 -2.122115e+000 1.216206e+002
8126043750 -4.008862e+000 -1.770704e+002 -6.809383e+001 -4.989498e+000 -6.293996e+001 -1.406354e+002 -2.128310e+000 1.209909e+002
8144787500 -4.060649e+000 -1.787563e+002 -6.897779e+001 1.562446e+001 -6.306888e+001 -1.391774e+002 -2.141646e+000 1.204002e+002
8163531250 -4.117005e+000 1.795830e+002 -6.894685e+001 3.208521e+001 -6.333066e+001 -1.379618e+002 -2.155103e+000 1.197609e+002
8182275000 -4.175013e+000 1.778567e+002 -6.899832e+001 4.711839e+001 -6.382189e+001 -1.376283e+002 -2.163684e+000 1.191316e+002
8201018750 -4.231451e+000 1.761280e+002 -6.899438e+001 6.677719e+001 -6.370806e+001 -1.385743e+002 -2.174050e+000 1.185073e+002
8219762500 -4.287412e+000 1.744277e+002 -6.921439e+001 8.072411e+001 -6.378846e+001 -1.359805e+002 -2.186964e+000 1.178543e+002
8238506250 -4.347585e+000 1.726661e+002 -6.911711e+001 9.832716e+001 -6.384011e+001 -1.336678e+002 -2.196736e+000 1.172145e+002
8257250000 -4.406054e+000 1.709279e+002 -6.893153e+001 1.089199e+002 -6.418555e+001 -1.314232e+002 -2.209763e+000 1.166014e+002
8275993750 -4.464865e+000 1.692110e+002 -6.942593e+001 1.230899e+002 -6.424965e+001 -1.302096e+002 -2.221715e+000 1.159581e+002
8294737500 -4.527323e+000 1.674378e+002 -6.930016e+001 1.491266e+002 -6.415725e+001 -1.295549e+002 -2.232819e+000 1.153363e+002
8313481250 -4.588683e+000 1.656643e+002 -6.990182e+001 1.721634e+002 -6.399794e+001 -1.277403e+002 -2.244105e+000 1.147048e+002
8332225000 -4.648032e+000 1.639213e+002 -6.931303e+001 -1.602986e+002 -6.389169e+001 -1.244672e+002 -2.257707e+000 1.140584e+002
8350968750 -4.712876e+000 1.621191e+002 -6.957412e+001 -1.349858e+002 -6.321318e+001 -1.252514e+002 -2.269202e+000 1.134211e+002
8369712500 -4.774481e+000 1.603219e+002 -6.913577e+001 -1.080839e+002 -6.289080e+001 -1.230620e+002 -2.284567e+000 1.127863e+002
8388456250 -4.835379e+000 1.585450e+002 -6.890147e+001 -7.427637e+001 -6.317961e+001 -1.320502e+002 -2.299108e+000 1.121090e+002
8407200000 -4.901981e+000 1.567026e+002 -6.899763e+001 -4.539600e+001 -6.324390e+001 -1.379741e+002 -2.311563e+000 1.114626e+002
8425943750 -4.963921e+000 1.548803e+002 -6.903513e+001 -2.293389e+001 -6.355534e+001 -1.431082e+002 -2.323631e+000 1.108109e+002
8444687500 -5.027403e+000 1.530622e+002 -6.870677e+001 -2.832713e+000 -6.368596e+001 -1.424823e+002 -2.335059e+000 1.101470e+002
8463431250 -5.095549e+000 1.512008e+002 -6.889889e+001 1.185993e+001 -6.333324e+001 -1.416503e+002 -2.345577e+000 1.095144e+002
8482175000 -5.158747e+000 1.493529e+002 -6.886179e+001 2.480092e+001 -6.382559e+001 -1.366650e+002 -2.359829e+000 1.088871e+002
8500918750 -5.225706e+000 1.475007e+002 -6.834684e+001 4.014188e+001 -6.418574e+001 -1.332899e+002 -2.373573e+000 1.082251e+002
8519662500 -5.292642e+000 1.455853e+002 -6.884553e+001 5.901740e+001 -6.414957e+001 -1.322127e+002 -2.384346e+000 1.075992e+002
8538406250 -5.355470e+000 1.437265e+002 -6.873560e+001 7.869013e+001 -6.428949e+001 -1.265339e+002 -2.400825e+000 1.069413e+002
8557150000 -5.422685e+000 1.418290e+002 -6.815102e+001 9.341479e+001 -6.424610e+001 -1.228973e+002 -2.415194e+000 1.062734e+002
8575893750 -5.490273e+000 1.398916e+002 -6.775432e+001 1.097502e+002 -6.415730e+001 -1.234684e+002 -2.424926e+000 1.056275e+002
8594637500 -5.554325e+000 1.380002e+002 -6.756436e+001 1.248321e+002 -6.382635e+001 -1.262740e+002 -2.441857e+000 1.049569e+002
8613381250 -5.623763e+000 1.360686e+002 -6.750096e+001 1.382987e+002 -6.356051e+001 -1.293446e+002 -2.456156e+000 1.042834e+002
8632125000 -5.690457e+000 1.340803e+002 -6.719246e+001 1.505883e+002 -6.333934e+001 -1.297424e+002 -2.469138e+000 1.036391e+002
8650868750 -5.752920e+000 1.321594e+002 -6.655564e+001 1.714113e+002 -6.324836e+001 -1.293152e+002 -2.486259e+000 1.029578e+002
8669612500 -5.822139e+000 1.302080e+002 -6.626517e+001 -1.738732e+002 -6.325900e+001 -1.286727e+002 -2.500262e+000 1.022720e+002
8688356250 -5.886695e+000 1.282058e+002 -6.600524e+001 -1.556852e+002 -6.313174e+001 -1.338885e+002 -2.513702e+000 1.016093e+002
8707100000 -5.949855e+000 1.262593e+002 -6.558539e+001 -1.378981e+002 -6.301553e+001 -1.351239e+002 -2.534748e+000 1.009328e+002
8725843750 -6.017789e+000 1.242456e+002 -6.538567e+001 -1.255104e+002 -6.282751e+001 -1.360721e+002 -2.546978e+000 1.002320e+002
8744587500 -6.077646e+000 1.221892e+002 -6.474718e+001 -1.216153e+002 -6.277937e+001 -1.384634e+002 -2.563394e+000 9.956577e+001
8763331250 -6.139077e+000 1.202063e+002 -6.488506e+001 -1.172004e+002 -6.271688e+001 -1.396977e+002 -2.581699e+000 9.888002e+001
8782075000 -6.203271e+000 1.181604e+002 -6.453790e+001 -1.095411e+002 -6.259518e+001 -1.378356e+002 -2.594079e+000 9.816651e+001
8800818750 -6.261892e+000 1.161002e+002 -6.457361e+001 -1.067163e+002 -6.271556e+001 -1.385138e+002 -2.606525e+000 9.749387e+001
8819562500 -6.323950e+000 1.140949e+002 -6.462566e+001 -1.061446e+002 -6.255309e+001 -1.315258e+002 -2.623545e+000 9.681548e+001
8838306250 -6.388409e+000 1.120061e+002 -6.436928e+001 -1.044573e+002 -6.237233e+001 -1.246987e+002 -2.637669e+000 9.611639e+001
8857050000 -6.444414e+000 1.099148e+002 -6.443340e+001 -1.026872e+002 -6.209314e+001 -1.184440e+002 -2.651442e+000 9.542538e+001
8875793750 -6.506923e+000 1.078566e+002 -6.440952e+001 -1.042974e+002 -6.233262e+001 -1.186385e+002 -2.670479e+000 9.470251e+001
8894537500 -6.566742e+000 1.057326e+002 -6.415193e+001 -1.021060e+002 -6.231500e+001 -1.169397e+002 -2.686718e+000 9.398038e+001
8913281250 -6.618882e+000 1.036355e+002 -6.428376e+001 -1.028969e+002 -6.181866e+001 -1.219112e+002 -2.700069e+000 9.327393e+001
8932025000 -6.678860e+000 1.015547e+002 -6.416823e+001 -1.014584e+002 -6.151409e+001 -1.214201e+002 -2.719500e+000 9.254458e+001
8950768750 -6.733489e+000 9.939718e+001 -6.332718e+001 -9.907202e+001 -6.159972e+001 -1.183233e+002 -2.731963e+000 9.181192e+001
8969512500 -6.780866e+000 9.726566e+001 -6.308740e+001 -9.894417e+001 -6.166518e+001 -1.197419e+002 -2.747721e+000 9.110016e+001
8988256250 -6.837838e+000 9.513265e+001 -6.302869e+001 -9.856874e+001 -6.177525e+001 -1.190383e+002 -2.762657e+000 9.035875e+001
9007000000 -6.888269e+000 9.295845e+001 -6.265070e+001 -1.021371e+002 -6.171415e+001 -1.161655e+002 -2.776888e+000 8.963539e+001
9025743750 -6.933709e+000 9.081781e+001 -6.256087e+001 -1.022163e+002 -6.146324e+001 -1.127595e+002 -2.792436e+000 8.892439e+001
9044487500 -6.987721e+000 8.866856e+001 -6.280743e+001 -9.922346e+001 -6.134078e+001 -1.093598e+002 -2.808617e+000 8.817304e+001
9063231250 -7.029226e+000 8.648003e+001 -6.270870e+001 -9.889311e+001 -6.158979e+001 -1.089943e+002 -2.823429e+000 8.743217e+001
9081975000 -7.071482e+000 8.431075e+001 -6.256966e+001 -1.046189e+002 -6.157328e+001 -1.084410e+002 -2.841635e+000 8.670218e+001
9100718750 -7.117499e+000 8.210764e+001 -6.231471e+001 -1.048415e+002 -6.123795e+001 -1.095548e+002 -2.855793e+000 8.592430e+001
9119462500 -7.151566e+000 7.989041e+001 -6.248324e+001 -1.037453e+002 -6.089341e+001 -1.046235e+002 -2.867933e+000 8.519060e+001
9138206250 -7.190321e+000 7.771346e+001 -6.196552e+001 -1.022649e+002 -6.064627e+001 -1.021114e+002 -2.883411e+000 8.444321e+001
9156950000 -7.231898e+000 7.549125e+001 -6.171411e+001 -1.029172e+002 -6.042202e+001 -1.004952e+002 -2.900149e+000 8.368150e+001
9175693750 -7.260684e+000 7.327421e+001 -6.105234e+001 -9.836246e+001 -6.048750e+001 -9.882198e+001 -2.911597e+000 8.293851e+001
9194437500 -7.295612e+000 7.106622e+001 -6.068568e+001 -1.012529e+002 -6.048982e+001 -9.717658e+001 -2.930345e+000 8.219159e+001
9213181250 -7.328434e+000 6.881851e+001 -6.046694e+001 -1.020843e+002 -6.031789e+001 -9.637064e+001 -2.948157e+000 8.142516e+001
9231925000 -7.351490e+000 6.659969e+001 -5.994073e+001 -1.003414e+002 -6.016657e+001 -9.493541e+001 -2.962127e+000 8.066771e+001
9250668750 -7.380915e+000 6.439131e+001 -5.959697e+001 -9.977087e+001 -5.986374e+001 -9.356115e+001 -2.982102e+000 7.990977e+001
9269412500 -7.407416e+000 6.213408e+001 -5.902750e+001 -1.025816e+002 -5.966801e+001 -9.364014e+001 -2.998728e+000 7.911494e+001
9288156250 -7.422725e+000 5.989997e+001 -5.832501e+001 -9.961082e+001 -5.939270e+001 -9.529881e+001 -3.013265e+000 7.835329e+001
9306900000 -7.443761e+000 5.768076e+001 -5.805776e+001 -9.837379e+001 -5.867034e+001 -9.603547e+001 -3.030892e+000 7.759327e+001
9325643750 -7.459665e+000 5.542810e+001 -5.763717e+001 -9.804339e+001 -5.837766e+001 -9.552889e+001 -3.046123e+000 7.679871e+001
9344387500 -7.470491e+000 5.320954e+001 -5.714223e+001 -9.703757e+001 -5.798587e+001 -9.496292e+001 -3.060927e+000 7.603674e+001
9363131250 -7.486423e+000 5.097508e+001 -5.703427e+001 -9.845172e+001 -5.750627e+001 -9.777576e+001 -3.079386e+000 7.526131e+001
9381875000 -7.498133e+000 4.873716e+001 -5.701727e+001 -9.888628e+001 -5.709435e+001 -9.922607e+001 -3.099106e+000 7.446577e+001
9400618750 -7.504111e+000 4.650845e+001 -5.676563e+001 -9.864302e+001 -5.639106e+001 -1.001925e+002 -3.113235e+000 7.368763e+001
9419362500 -7.511806e+000 4.429134e+001 -5.626368e+001 -9.827526e+001 -5.600060e+001 -1.006748e+002 -3.134260e+000 7.288336e+001
9438106250 -7.512522e+000 4.205177e+001 -5.576221e+001 -9.838786e+001 -5.557799e+001 -1.027745e+002 -3.149582e+000 7.206239e+001
9456850000 -7.513193e+000 3.983741e+001 -5.529847e+001 -9.932384e+001 -5.536834e+001 -1.032246e+002 -3.164571e+000 7.128168e+001
9475593750 -7.514560e+000 3.759986e+001 -5.463903e+001 -1.011714e+002 -5.485097e+001 -1.040038e+002 -3.185078e+000 7.047595e+001
9494337500 -7.513231e+000 3.537507e+001 -5.432251e+001 -1.033433e+002 -5.424937e+001 -1.036839e+002 -3.199858e+000 6.966929e+001
9513081250 -7.507688e+000 3.315961e+001 -5.378484e+001 -1.027833e+002 -5.383208e+001 -1.042877e+002 -3.214930e+000 6.888731e+001
9531825000 -7.503064e+000 3.095672e+001 -5.345523e+001 -1.028800e+002 -5.357423e+001 -1.053700e+002 -3.236605e+000 6.807561e+001
9550568750 -7.495455e+000 2.876649e+001 -5.291851e+001 -1.041150e+002 -5.313623e+001 -1.070531e+002 -3.252021e+000 6.724970e+001
9569312500 -7.486436e+000 2.657475e+001 -5.261884e+001 -1.053600e+002 -5.277322e+001 -1.076146e+002 -3.270489e+000 6.645572e+001
9588056250 -7.475983e+000 2.438195e+001 -5.223765e+001 -1.056416e+002 -5.240928e+001 -1.075126e+002 -3.292030e+000 6.561360e+001
9606800000 -7.465185e+000 2.221491e+001 -5.202175e+001 -1.076250e+002 -5.168516e+001 -1.079809e+002 -3.308957e+000 6.477850e+001
9625543750 -7.449135e+000 2.003300e+001 -5.161824e+001 -1.086101e+002 -5.115802e+001 -1.088084e+002 -3.326850e+000 6.394656e+001
9644287500 -7.433022e+000 1.787595e+001 -5.123782e+001 -1.090848e+002 -5.068776e+001 -1.098627e+002 -3.348119e+000 6.309390e+001
9663031250 -7.417137e+000 1.571003e+001 -5.088659e+001 -1.102980e+002 -5.025487e+001 -1.108473e+002 -3.363822e+000 6.225528e+001
9681775000 -7.397733e+000 1.355234e+001 -5.054429e+001 -1.117630e+002 -4.991477e+001 -1.117326e+002 -3.382612e+000 6.144340e+001
9700518750 -7.377323e+000 1.141133e+001 -5.023056e+001 -1.122226e+002 -4.938358e+001 -1.130752e+002 -3.405708e+000 6.058129e+001
9719262500 -7.359738e+000 9.281797e+000 -4.981453e+001 -1.140391e+002 -4.896500e+001 -1.126706e+002 -3.424697e+000 5.973866e+001
9738006250 -7.336548e+000 7.130833e+000 -4.948567e+001 -1.150880e+002 -4.865022e+001 -1.139330e+002 -3.448738e+000 5.889584e+001
9756750000 -7.312462e+000 5.013665e+000 -4.898427e+001 -1.151015e+002 -4.816936e+001 -1.150067e+002 -3.474682e+000 5.801201e+001
9775493750 -7.290339e+000 2.890433e+000 -4.850023e+001 -1.159222e+002 -4.778030e+001 -1.157015e+002 -3.490106e+000 5.713876e+001
9794237500 -7.258519e+000 7.754282e-001 -4.798562e+001 -1.162339e+002 -4.745291e+001 -1.164456e+002 -3.507038e+000 5.628474e+001
9812981250 -7.231748e+000 -1.278945e+000 -4.740562e+001 -1.174606e+002 -4.701628e+001 -1.171788e+002 -3.531005e+000 5.541661e+001
9831725000 -7.210071e+000 -3.388290e+000 -4.691356e+001 -1.193576e+002 -4.670145e+001 -1.178898e+002 -3.554630e+000 5.451243e+001
9850468750 -7.176598e+000 -5.487220e+000 -4.651398e+001 -1.203789e+002 -4.618661e+001 -1.192489e+002 -3.573286e+000 5.365857e+001
9869212500 -7.149103e+000 -7.515435e+000 -4.604814e+001 -1.218488e+002 -4.568390e+001 -1.197035e+002 -3.597374e+000 5.278972e+001
9887956250 -7.125273e+000 -9.589548e+000 -4.568844e+001 -1.229789e+002 -4.522146e+001 -1.212421e+002 -3.622483e+000 5.188998e+001
9906700000 -7.090204e+000 -1.164757e+001 -4.524679e+001 -1.244921e+002 -4.484647e+001 -1.221835e+002 -3.642455e+000 5.097451e+001
9925443750 -7.061831e+000 -1.365618e+001 -4.482001e+001 -1.255294e+002 -4.441047e+001 -1.231157e+002 -3.668968e+000 5.009753e+001
9944187500 -7.039192e+000 -1.573726e+001 -4.453876e+001 -1.271748e+002 -4.407551e+001 -1.243125e+002 -3.697820e+000 4.917795e+001
9962931250 -7.002887e+000 -1.777459e+001 -4.416050e+001 -1.281254e+002 -4.372200e+001 -1.253902e+002 -3.718491e+000 4.824531e+001
9981675000 -6.977642e+000 -1.976917e+001 -4.378434e+001 -1.293445e+002 -4.339663e+001 -1.269753e+002 -3.744010e+000 4.733598e+001
10000418750 -6.950406e+000 -2.182792e+001 -4.337354e+001 -1.304239e+002 -4.302596e+001 -1.286240e+002 -3.771063e+000 4.640189e+001
10019162500 -6.915752e+000 -2.382195e+001 -4.295983e+001 -1.320130e+002 -4.263562e+001 -1.299941e+002 -3.793250e+000 4.546362e+001
10037906250 -6.893188e+000 -2.580805e+001 -4.254076e+001 -1.330523e+002 -4.222757e+001 -1.313918e+002 -3.822985e+000 4.455272e+001
10056650000 -6.867822e+000 -2.785487e+001 -4.212146e+001 -1.339781e+002 -4.187782e+001 -1.327015e+002 -3.851944e+000 4.360129e+001
10075393750 -6.834755e+000 -2.982451e+001 -4.169804e+001 -1.354403e+002 -4.152193e+001 -1.343671e+002 -3.877505e+000 4.263696e+001
10094137500 -6.811875e+000 -3.180155e+001 -4.129859e+001 -1.369526e+002 -4.110370e+001 -1.359758e+002 -3.908564e+000 4.169456e+001
10112881250 -6.784616e+000 -3.381303e+001 -4.088708e+001 -1.384756e+002 -4.070906e+001 -1.375078e+002 -3.938919e+000 4.069643e+001
10131625000 -6.755398e+000 -3.575154e+001 -4.049944e+001 -1.401143e+002 -4.037926e+001 -1.391377e+002 -3.963876e+000 3.972749e+001
10150368750 -6.738724e+000 -3.772933e+001 -4.010753e+001 -1.416691e+002 -3.996351e+001 -1.408746e+002 -3.994618e+000 3.877076e+001
10169112500 -6.714290e+000 -3.972726e+001 -3.969651e+001 -1.435152e+002 -3.955835e+001 -1.424090e+002 -4.023239e+000 3.777032e+001
10187856250 -6.691078e+000 -4.165606e+001 -3.925808e+001 -1.449771e+002 -3.915848e+001 -1.438394e+002 -4.049901e+000 3.678135e+001
10206600000 -6.673283e+000 -4.362260e+001 -3.884242e+001 -1.464328e+002 -3.874258e+001 -1.455835e+002 -4.086454e+000 3.580457e+001
10225343750 -6.656526e+000 -4.558593e+001 -3.844386e+001 -1.481222e+002 -3.833363e+001 -1.475798e+002 -4.122338e+000 3.477612e+001
10244087500 -6.641229e+000 -4.753910e+001 -3.804186e+001 -1.498227e+002 -3.793130e+001 -1.494873e+002 -4.151366e+000 3.375632e+001
10262831250 -6.625978e+000 -4.949881e+001 -3.766697e+001 -1.513908e+002 -3.750808e+001 -1.513743e+002 -4.185364e+000 3.278107e+001
10281575000 -6.613263e+000 -5.145634e+001 -3.729078e+001 -1.530589e+002 -3.709181e+001 -1.531604e+002 -4.223163e+000 3.172556e+001
10300318750 -6.603386e+000 -5.341113e+001 -3.689712e+001 -1.548673e+002 -3.671079e+001 -1.551299e+002 -4.258481e+000 3.067108e+001
10319062500 -6.590630e+000 -5.537446e+001 -3.647536e+001 -1.564047e+002 -3.632197e+001 -1.567622e+002 -4.292942e+000 2.963443e+001
10337806250 -6.586321e+000 -5.729049e+001 -3.608898e+001 -1.581728e+002 -3.593964e+001 -1.584898e+002 -4.331446e+000 2.859856e+001
10356550000 -6.587764e+000 -5.925883e+001 -3.567850e+001 -1.601090e+002 -3.554519e+001 -1.603560e+002 -4.368478e+000 2.750641e+001
10375293750 -6.580573e+000 -6.121034e+001 -3.522044e+001 -1.620347e+002 -3.509480e+001 -1.622391e+002 -4.405417e+000 2.644647e+001
10394037500 -6.583104e+000 -6.314480e+001 -3.484002e+001 -1.639774e+002 -3.469348e+001 -1.642058e+002 -4.446352e+000 2.539377e+001
10412781250 -6.590077e+000 -6.511482e+001 -3.443776e+001 -1.660128e+002 -3.425648e+001 -1.661355e+002 -4.491041e+000 2.429518e+001
10431525000 -6.592710e+000 -6.706057e+001 -3.402065e+001 -1.680193e+002 -3.384830e+001 -1.681342e+002 -4.531887e+000 2.321160e+001
10450268750 -6.608053e+000 -6.899454e+001 -3.362593e+001 -1.701314e+002 -3.341269e+001 -1.702100e+002 -4.574280e+000 2.212949e+001
10469012500 -6.625331e+000 -7.097676e+001 -3.319812e+001 -1.722388e+002 -3.299119e+001 -1.722616e+002 -4.618810e+000 2.101381e+001
10487756250 -6.639513e+000 -7.292646e+001 -3.276608e+001 -1.743962e+002 -3.256902e+001 -1.744274e+002 -4.663464e+000 1.991336e+001
10506500000 -6.667563e+000 -7.488108e+001 -3.236581e+001 -1.764568e+002 -3.214301e+001 -1.765763e+002 -4.711133e+000 1.880692e+001
10525243750 -6.695337e+000 -7.686358e+001 -3.193229e+001 -1.785755e+002 -3.171571e+001 -1.788512e+002 -4.759884e+000 1.766778e+001
10543987500 -6.725266e+000 -7.880898e+001 -3.149909e+001 1.793637e+002 -3.127716e+001 1.788593e+002 -4.806724e+000 1.653305e+001
10562731250 -6.769312e+000 -8.075626e+001 -3.107477e+001 1.770937e+002 -3.083048e+001 1.766175e+002 -4.859998e+000 1.539771e+001
10581475000 -6.811118e+000 -8.274334e+001 -3.063918e+001 1.747955e+002 -3.039467e+001 1.742251e+002 -4.914907e+000 1.422644e+001
10600218750 -6.857354e+000 -8.467958e+001 -3.022213e+001 1.725866e+002 -2.995817e+001 1.718857e+002 -4.969823e+000 1.307624e+001
10618962500 -6.916006e+000 -8.664766e+001 -2.979210e+001 1.701561e+002 -2.953445e+001 1.695914e+002 -5.028356e+000 1.191723e+001
10637706250 -6.975733e+000 -8.861471e+001 -2.936305e+001 1.677226e+002 -2.909780e+001 1.671076e+002 -5.088890e+000 1.071882e+001
10656450000 -7.045758e+000 -9.052703e+001 -2.893132e+001 1.652905e+002 -2.867087e+001 1.646396e+002 -5.149509e+000 9.543447e+000
10675193750 -7.125887e+000 -9.246991e+001 -2.850828e+001 1.627187e+002 -2.825033e+001 1.620733e+002 -5.216379e+000 8.329914e+000
10693937500 -7.208859e+000 -9.442406e+001 -2.807319e+001 1.602000e+002 -2.782941e+001 1.594683e+002 -5.281868e+000 7.113036e+000
10712681250 -7.300082e+000 -9.633189e+001 -2.765503e+001 1.576361e+002 -2.741036e+001 1.568233e+002 -5.348984e+000 5.921653e+000
10731425000 -7.404182e+000 -9.825653e+001 -2.722031e+001 1.550122e+002 -2.698088e+001 1.541523e+002 -5.424603e+000 4.707456e+000
10750168750 -7.512002e+000 -1.001506e+002 -2.679975e+001 1.523201e+002 -2.655359e+001 1.514575e+002 -5.497024e+000 3.472582e+000
10768912500 -7.634830e+000 -1.019889e+002 -2.636843e+001 1.495578e+002 -2.612870e+001 1.486355e+002 -5.573466e+000 2.250648e+000
10787656250 -7.770964e+000 -1.038469e+002 -2.594102e+001 1.467266e+002 -2.571140e+001 1.457160e+002 -5.654835e+000 1.008176e+000
10806400000 -7.913733e+000 -1.056663e+002 -2.551814e+001 1.438866e+002 -2.529902e+001 1.428485e+002 -5.735045e+000 -2.355385e-001
10825143750 -8.069376e+000 -1.074334e+002 -2.510491e+001 1.409951e+002 -2.488194e+001 1.398998e+002 -5.822187e+000 -1.464656e+000
10843887500 -8.231658e+000 -1.091822e+002 -2.468226e+001 1.380632e+002 -2.446972e+001 1.369021e+002 -5.912410e+000 -2.716516e+000
10862631250 -8.408489e+000 -1.108309e+002 -2.426653e+001 1.351064e+002 -2.406026e+001 1.339146e+002 -6.002259e+000 -4.015465e+000
10881375000 -8.601805e+000 -1.124120e+002 -2.385920e+001 1.320593e+002 -2.365999e+001 1.308481e+002 -6.098165e+000 -5.271751e+000
10900118750 -8.806620e+000 -1.139796e+002 -2.344549e+001 1.289698e+002 -2.325202e+001 1.277495e+002 -6.197532e+000 -6.544724e+000
10918862500 -9.018821e+000 -1.154583e+002 -2.304715e+001 1.258485e+002 -2.285743e+001 1.245755e+002 -6.296887e+000 -7.830189e+000
10937606250 -9.241026e+000 -1.168416e+002 -2.264618e+001 1.225719e+002 -2.246198e+001 1.213538e+002 -6.400949e+000 -9.064221e+000
10956350000 -9.471022e+000 -1.180949e+002 -2.225436e+001 1.193828e+002 -2.206730e+001 1.181153e+002 -6.513500e+000 -1.034111e+001
10975093750 -9.711836e+000 -1.192178e+002 -2.186956e+001 1.160322e+002 -2.169234e+001 1.147715e+002 -6.625831e+000 -1.164157e+001
10993837500 -9.966002e+000 -1.202125e+002 -2.148869e+001 1.126459e+002 -2.131398e+001 1.113992e+002 -6.741453e+000 -1.289703e+001
11012581250 -1.022970e+001 -1.211115e+002 -2.110931e+001 1.092633e+002 -2.094644e+001 1.080706e+002 -6.860592e+000 -1.417511e+001
11031325000 -1.048981e+001 -1.218876e+002 -2.073319e+001 1.057689e+002 -2.058791e+001 1.045763e+002 -6.980815e+000 -1.544057e+001
11050068750 -1.075069e+001 -1.225055e+002 -2.036386e+001 1.022621e+002 -2.022379e+001 1.010670e+002 -7.106826e+000 -1.667027e+001
11068812500 -1.100472e+001 -1.229562e+002 -2.000936e+001 9.876733e+001 -1.988142e+001 9.759308e+001 -7.239115e+000 -1.793621e+001
11087556250 -1.125517e+001 -1.232426e+002 -1.966004e+001 9.515060e+001 -1.954245e+001 9.395354e+001 -7.372597e+000 -1.920958e+001
11106300000 -1.150777e+001 -1.233614e+002 -1.932035e+001 9.155067e+001 -1.919849e+001 9.034721e+001 -7.506674e+000 -2.045407e+001
11125043750 -1.175220e+001 -1.234040e+002 -1.899183e+001 8.794205e+001 -1.888251e+001 8.673642e+001 -7.645505e+000 -2.172575e+001
11143787500 -1.197821e+001 -1.233360e+002 -1.866487e+001 8.425127e+001 -1.856606e+001 8.301378e+001 -7.787695e+000 -2.296219e+001
11162531250 -1.218601e+001 -1.231140e+002 -1.834933e+001 8.056747e+001 -1.824913e+001 7.934059e+001 -7.935591e+000 -2.417416e+001
11181275000 -1.237714e+001 -1.227891e+002 -1.805062e+001 7.683124e+001 -1.796517e+001 7.563922e+001 -8.089606e+000 -2.541980e+001
11200018750 -1.254584e+001 -1.223326e+002 -1.775048e+001 7.309989e+001 -1.766914e+001 7.184382e+001 -8.244391e+000 -2.665715e+001
11218762500 -1.270370e+001 -1.217421e+002 -1.746595e+001 6.936659e+001 -1.738216e+001 6.815099e+001 -8.402507e+000 -2.786366e+001
11237506250 -1.285129e+001 -1.211734e+002 -1.719111e+001 6.556105e+001 -1.711888e+001 6.437826e+001 -8.560203e+000 -2.910390e+001
11256250000 -1.296855e+001 -1.205851e+002 -1.691513e+001 6.176484e+001 -1.684825e+001 6.055603e+001 -8.719974e+000 -3.028621e+001
11274993750 -1.306561e+001 -1.199272e+002 -1.666006e+001 5.798684e+001 -1.658978e+001 5.683755e+001 -8.891203e+000 -3.145443e+001
11293737500 -1.313992e+001 -1.192834e+002 -1.640728e+001 5.415519e+001 -1.635281e+001 5.304960e+001 -9.063182e+000 -3.264311e+001
11312481250 -1.318683e+001 -1.185643e+002 -1.615942e+001 5.038006e+001 -1.610732e+001 4.923182e+001 -9.239847e+000 -3.381374e+001
11331225000 -1.322200e+001 -1.178086e+002 -1.593204e+001 4.655878e+001 -1.587810e+001 4.548804e+001 -9.416850e+000 -3.500064e+001
11349968750 -1.324415e+001 -1.171496e+002 -1.569794e+001 4.273320e+001 -1.566138e+001 4.166921e+001 -9.594611e+000 -3.618107e+001
11368712500 -1.324138e+001 -1.165371e+002 -1.547883e+001 3.896977e+001 -1.544110e+001 3.788350e+001 -9.777870e+000 -3.731597e+001
11387456250 -1.322097e+001 -1.159909e+002 -1.527240e+001 3.515031e+001 -1.523610e+001 3.415099e+001 -9.967030e+000 -3.844640e+001
11406200000 -1.317487e+001 -1.155297e+002 -1.506204e+001 3.136029e+001 -1.504103e+001 3.035523e+001 -1.016034e+001 -3.958302e+001
11424943750 -1.310960e+001 -1.150574e+002 -1.487095e+001 2.764146e+001 -1.484226e+001 2.662834e+001 -1.035658e+001 -4.071018e+001
11443687500 -1.304441e+001 -1.146530e+002 -1.468641e+001 2.383663e+001 -1.466334e+001 2.292393e+001 -1.055959e+001 -4.185786e+001
11462431250 -1.296736e+001 -1.144145e+002 -1.450048e+001 2.009603e+001 -1.448512e+001 1.916471e+001 -1.075956e+001 -4.296349e+001
11481175000 -1.287836e+001 -1.142663e+002 -1.433308e+001 1.640729e+001 -1.430980e+001 1.547807e+001 -1.096616e+001 -4.403323e+001
11499918750 -1.279083e+001 -1.142580e+002 -1.416493e+001 1.262599e+001 -1.414656e+001 1.176448e+001 -1.118171e+001 -4.510676e+001
11518662500 -1.268908e+001 -1.143781e+002 -1.399842e+001 8.967673e+000 -1.398445e+001 8.051952e+000 -1.140048e+001 -4.616814e+001
11537406250 -1.258331e+001 -1.145201e+002 -1.385038e+001 5.308496e+000 -1.382661e+001 4.431676e+000 -1.162436e+001 -4.721148e+001
11556150000 -1.249350e+001 -1.147642e+002 -1.369738e+001 1.570712e+000 -1.367917e+001 7.877277e-001 -1.184785e+001 -4.824324e+001
11574893750 -1.240481e+001 -1.151393e+002 -1.354958e+001 -2.040969e+000 -1.353435e+001 -2.840947e+000 -1.207514e+001 -4.923982e+001
11593637500 -1.232339e+001 -1.156241e+002 -1.341761e+001 -5.672749e+000 -1.339387e+001 -6.407499e+000 -1.230624e+001 -5.017926e+001
11612381250 -1.224935e+001 -1.161857e+002 -1.327540e+001 -9.307415e+000 -1.325494e+001 -1.000417e+001 -1.254456e+001 -5.111789e+001
11631125000 -1.217501e+001 -1.168207e+002 -1.314617e+001 -1.284120e+001 -1.312141e+001 -1.357814e+001 -1.278906e+001 -5.201872e+001
11649868750 -1.210954e+001 -1.174723e+002 -1.302443e+001 -1.643436e+001 -1.299758e+001 -1.712841e+001 -1.303553e+001 -5.293677e+001
11668612500 -1.206069e+001 -1.181608e+002 -1.289445e+001 -1.999370e+001 -1.287716e+001 -2.066062e+001 -1.328300e+001 -5.379779e+001
11687356250 -1.201714e+001 -1.188952e+002 -1.277895e+001 -2.347354e+001 -1.275712e+001 -2.416620e+001 -1.353502e+001 -5.459442e+001
11706100000 -1.198678e+001 -1.196609e+002 -1.266933e+001 -2.704264e+001 -1.264423e+001 -2.766456e+001 -1.378596e+001 -5.536155e+001
11724843750 -1.196381e+001 -1.204646e+002 -1.255235e+001 -3.053782e+001 -1.252473e+001 -3.115192e+001 -1.404928e+001 -5.604576e+001
11743587500 -1.194171e+001 -1.212732e+002 -1.245326e+001 -3.398748e+001 -1.241819e+001 -3.460909e+001 -1.431595e+001 -5.672670e+001
11762331250 -1.193439e+001 -1.220356e+002 -1.235096e+001 -3.749282e+001 -1.231374e+001 -3.806897e+001 -1.457940e+001 -5.738576e+001
11781075000 -1.193415e+001 -1.228118e+002 -1.224656e+001 -4.089961e+001 -1.220932e+001 -4.147017e+001 -1.484461e+001 -5.798943e+001
11799818750 -1.194314e+001 -1.235981e+002 -1.214748e+001 -4.430528e+001 -1.211326e+001 -4.488292e+001 -1.510865e+001 -5.851036e+001
11818562500 -1.195273e+001 -1.243664e+002 -1.205030e+001 -4.770819e+001 -1.201337e+001 -4.830454e+001 -1.538036e+001 -5.900116e+001
11837306250 -1.197446e+001 -1.250988e+002 -1.195952e+001 -5.109201e+001 -1.191673e+001 -5.164946e+001 -1.565275e+001 -5.938953e+001
11856050000 -1.199504e+001 -1.258572e+002 -1.186881e+001 -5.447243e+001 -1.183288e+001 -5.502555e+001 -1.592515e+001 -5.978553e+001
11874793750 -1.201394e+001 -1.265082e+002 -1.178840e+001 -5.782275e+001 -1.173895e+001 -5.841171e+001 -1.618203e+001 -6.018740e+001
11893537500 -1.205859e+001 -1.271507e+002 -1.170105e+001 -6.118618e+001 -1.165630e+001 -6.169732e+001 -1.643261e+001 -6.047047e+001
11912281250 -1.209301e+001 -1.278289e+002 -1.161965e+001 -6.447481e+001 -1.157831e+001 -6.504960e+001 -1.668063e+001 -6.066946e+001
11931025000 -1.212643e+001 -1.284096e+002 -1.154498e+001 -6.778676e+001 -1.149299e+001 -6.834351e+001 -1.692950e+001 -6.084386e+001
11949768750 -1.216930e+001 -1.289935e+002 -1.146282e+001 -7.109488e+001 -1.141983e+001 -7.158343e+001 -1.717655e+001 -6.093392e+001
11968512500 -1.220290e+001 -1.295820e+002 -1.138776e+001 -7.432964e+001 -1.134729e+001 -7.488927e+001 -1.742569e+001 -6.108867e+001
11987256250 -1.223793e+001 -1.300084e+002 -1.132031e+001 -7.757612e+001 -1.127025e+001 -7.814513e+001 -1.765725e+001 -6.125013e+001
12006000000 -1.228782e+001 -1.304666e+002 -1.124555e+001 -8.082758e+001 -1.120283e+001 -8.133704e+001 -1.787094e+001 -6.132715e+001
12024743750 -1.232642e+001 -1.309122e+002 -1.117857e+001 -8.401173e+001 -1.113897e+001 -8.459497e+001 -1.808498e+001 -6.142139e+001
12043487500 -1.237021e+001 -1.313137e+002 -1.111845e+001 -8.724419e+001 -1.106845e+001 -8.780057e+001 -1.829132e+001 -6.142352e+001
12062231250 -1.241286e+001 -1.317645e+002 -1.104910e+001 -9.045409e+001 -1.100900e+001 -9.096166e+001 -1.849566e+001 -6.140955e+001
12080975000 -1.243911e+001 -1.321484e+002 -1.098982e+001 -9.360075e+001 -1.094921e+001 -9.416328e+001 -1.868939e+001 -6.153683e+001
12099718750 -1.247126e+001 -1.324180e+002 -1.093690e+001 -9.678064e+001 -1.088262e+001 -9.733036e+001 -1.886674e+001 -6.169696e+001
12118462500 -1.251386e+001 -1.327691e+002 -1.087326e+001 -9.994263e+001 -1.082761e+001 -1.004429e+002 -1.902321e+001 -6.186145e+001
12137206250 -1.254305e+001 -1.330889e+002 -1.081662e+001 -1.030144e+002 -1.077258e+001 -1.036206e+002 -1.918505e+001 -6.205636e+001
12155950000 -1.257794e+001 -1.333719e+002 -1.076637e+001 -1.061491e+002 -1.071760e+001 -1.067116e+002 -1.933333e+001 -6.223801e+001
12174693750 -1.260499e+001 -1.336987e+002 -1.070521e+001 -1.092658e+002 -1.066583e+001 -1.097801e+002 -1.947851e+001 -6.251299e+001
12193437500 -1.261381e+001 -1.339753e+002 -1.065634e+001 -1.123060e+002 -1.061875e+001 -1.129034e+002 -1.961533e+001 -6.295506e+001
12212181250 -1.263968e+001 -1.341811e+002 -1.061126e+001 -1.154155e+002 -1.056585e+001 -1.159643e+002 -1.973232e+001 -6.337091e+001
12230925000 -1.266084e+001 -1.344467e+002 -1.056241e+001 -1.184711e+002 -1.052001e+001 -1.189899e+002 -1.984850e+001 -6.384301e+001
12249668750 -1.268094e+001 -1.346931e+002 -1.052014e+001 -1.215155e+002 -1.047832e+001 -1.220655e+002 -1.995486e+001 -6.438742e+001
12268412500 -1.270095e+001 -1.349562e+002 -1.047732e+001 -1.245552e+002 -1.043097e+001 -1.250979e+002 -2.005762e+001 -6.497884e+001
12287156250 -1.270989e+001 -1.352662e+002 -1.043399e+001 -1.275614e+002 -1.038986e+001 -1.280815e+002 -2.016779e+001 -6.575401e+001
12305900000 -1.271034e+001 -1.355398e+002 -1.038602e+001 -1.305424e+002 -1.035055e+001 -1.311197e+002 -2.026484e+001 -6.665895e+001
12324643750 -1.271329e+001 -1.357458e+002 -1.035072e+001 -1.335191e+002 -1.030251e+001 -1.341051e+002 -2.035425e+001 -6.766562e+001
12343387500 -1.271894e+001 -1.360178e+002 -1.031014e+001 -1.365360e+002 -1.026802e+001 -1.370398e+002 -2.044802e+001 -6.874030e+001
12362131250 -1.272499e+001 -1.363066e+002 -1.026727e+001 -1.394687e+002 -1.023124e+001 -1.400486e+002 -2.054005e+001 -6.990836e+001
12380875000 -1.272941e+001 -1.366425e+002 -1.023729e+001 -1.424118e+002 -1.018869e+001 -1.429716e+002 -2.064340e+001 -7.124142e+001
12399618750 -1.272456e+001 -1.370120e+002 -1.019838e+001 -1.453821e+002 -1.016074e+001 -1.458990e+002 -2.074049e+001 -7.277367e+001
12418362500 -1.271404e+001 -1.373317e+002 -1.015886e+001 -1.482691e+002 -1.012296e+001 -1.488795e+002 -2.083432e+001 -7.434518e+001
12437106250 -1.270863e+001 -1.376347e+002 -1.013044e+001 -1.512079e+002 -1.008427e+001 -1.517737e+002 -2.093244e+001 -7.607529e+001
12455850000 -1.270635e+001 -1.380054e+002 -1.009226e+001 -1.541342e+002 -1.005677e+001 -1.546705e+002 -2.102773e+001 -7.794360e+001
12474593750 -1.269822e+001 -1.383606e+002 -1.005752e+001 -1.569785e+002 -1.002263e+001 -1.575930e+002 -2.113054e+001 -7.993046e+001
12493337500 -1.269714e+001 -1.387452e+002 -1.003063e+001 -1.598915e+002 -9.988758e+000 -1.604416e+002 -2.124464e+001 -8.213540e+001
12512081250 -1.269152e+001 -1.391750e+002 -9.995080e+000 -1.627618e+002 -9.966825e+000 -1.633163e+002 -2.135163e+001 -8.444130e+001
12530825000 -1.268004e+001 -1.395655e+002 -9.966880e+000 -1.655766e+002 -9.935431e+000 -1.661882e+002 -2.145758e+001 -8.682561e+001
12549568750 -1.267413e+001 -1.399132e+002 -9.941589e+000 -1.684689e+002 -9.906170e+000 -1.690086e+002 -2.157887e+001 -8.935583e+001
12568312500 -1.267026e+001 -1.403239e+002 -9.906502e+000 -1.713047e+002 -9.884254e+000 -1.718496e+002 -2.168981e+001 -9.206351e+001
12587056250 -1.266347e+001 -1.407620e+002 -9.882047e+000 -1.741015e+002 -9.858343e+000 -1.746661e+002 -2.181458e+001 -9.502036e+001
12605800000 -1.266133e+001 -1.411999e+002 -9.857163e+000 -1.769296e+002 -9.833499e+000 -1.775078e+002 -2.192706e+001 -9.811575e+001
12624543750 -1.266136e+001 -1.416567e+002 -9.827709e+000 -1.797417e+002 -9.804359e+000 1.797012e+002 -2.203242e+001 -1.012763e+002
12643287500 -1.265266e+001 -1.420952e+002 -9.806015e+000 1.774735e+002 -9.782363e+000 1.769119e+002 -2.213969e+001 -1.046005e+002
12662031250 -1.264632e+001 -1.425058e+002 -9.781809e+000 1.746720e+002 -9.756739e+000 1.740991e+002 -2.224177e+001 -1.080671e+002
12680775000 -1.264877e+001 -1.429302e+002 -9.762705e+000 1.719103e+002 -9.738378e+000 1.713754e+002 -2.235065e+001 -1.117605e+002
12699518750 -1.265281e+001 -1.434320e+002 -9.741822e+000 1.691165e+002 -9.721704e+000 1.685724e+002 -2.245456e+001 -1.157059e+002
12718262500 -1.265250e+001 -1.439257e+002 -9.714331e+000 1.663510e+002 -9.693680e+000 1.658025e+002 -2.253281e+001 -1.197120e+002
12737006250 -1.265716e+001 -1.443682e+002 -9.697772e+000 1.635901e+002 -9.677464e+000 1.630961e+002 -2.259394e+001 -1.237546e+002
12755750000 -1.264999e+001 -1.448713e+002 -9.678155e+000 1.608027e+002 -9.661020e+000 1.603121e+002 -2.266226e+001 -1.278601e+002
12774493750 -1.265070e+001 -1.452931e+002 -9.655488e+000 1.580768e+002 -9.636147e+000 1.575710e+002 -2.272139e+001 -1.322103e+002
12793237500 -1.265673e+001 -1.457504e+002 -9.645163e+000 1.553370e+002 -9.624019e+000 1.548876e+002 -2.276443e+001 -1.366799e+002
12811981250 -1.266312e+001 -1.462215e+002 -9.625822e+000 1.525623e+002 -9.608687e+000 1.521232e+002 -2.277158e+001 -1.412848e+002
12830725000 -1.266703e+001 -1.466912e+002 -9.607515e+000 1.498676e+002 -9.583555e+000 1.494287e+002 -2.275650e+001 -1.458160e+002
12849468750 -1.267350e+001 -1.471998e+002 -9.599359e+000 1.471387e+002 -9.573623e+000 1.467431e+002 -2.273017e+001 -1.503815e+002
12868212500 -1.267410e+001 -1.476810e+002 -9.583024e+000 1.444115e+002 -9.560925e+000 1.440014e+002 -2.269952e+001 -1.549921e+002
12886956250 -1.267355e+001 -1.481285e+002 -9.569286e+000 1.417473e+002 -9.540374e+000 1.413205e+002 -2.266264e+001 -1.596952e+002
12905700000 -1.268352e+001 -1.486038e+002 -9.562162e+000 1.390228e+002 -9.528703e+000 1.386468e+002 -2.259428e+001 -1.645101e+002
12924443750 -1.268120e+001 -1.491312e+002 -9.545351e+000 1.363123e+002 -9.514128e+000 1.359077e+002 -2.248305e+001 -1.693050e+002
12943187500 -1.268252e+001 -1.496310e+002 -9.536631e+000 1.336623e+002 -9.496403e+000 1.332515e+002 -2.236222e+001 -1.739997e+002
12961931250 -1.268431e+001 -1.501451e+002 -9.529325e+000 1.309315e+002 -9.489264e+000 1.305765e+002 -2.223422e+001 -1.786476e+002
12980675000 -1.267979e+001 -1.506477e+002 -9.514697e+000 1.282684e+002 -9.478511e+000 1.278714e+002 -2.209699e+001 1.766825e+002
12999418750 -1.268127e+001 -1.511134e+002 -9.512956e+000 1.256176e+002 -9.464396e+000 1.252295e+002 -2.194605e+001 1.720184e+002
13018162500 -1.268721e+001 -1.515984e+002 -9.509453e+000 1.229110e+002 -9.456818e+000 1.225436e+002 -2.175167e+001 1.673982e+002
13036906250 -1.268756e+001 -1.521794e+002 -9.497382e+000 1.202428e+002 -9.447330e+000 1.198901e+002 -2.154546e+001 1.629434e+002
13055650000 -1.268265e+001 -1.527358e+002 -9.498618e+000 1.176297e+002 -9.442359e+000 1.172504e+002 -2.134149e+001 1.585982e+002
13074393750 -1.268065e+001 -1.532630e+002 -9.495715e+000 1.149444e+002 -9.435517e+000 1.145955e+002 -2.113564e+001 1.543134e+002
13093137500 -1.267528e+001 -1.538048e+002 -9.487220e+000 1.123072e+002 -9.429139e+000 1.119530e+002 -2.091805e+001 1.500423e+002
13111881250 -1.266969e+001 -1.543357e+002 -9.485714e+000 1.096537e+002 -9.420101e+000 1.092772e+002 -2.067572e+001 1.458508e+002
13130625000 -1.266972e+001 -1.548911e+002 -9.482756e+000 1.070230e+002 -9.414840e+000 1.066746e+002 -2.040823e+001 1.418112e+002
13149368750 -1.266779e+001 -1.554971e+002 -9.480578e+000 1.044081e+002 -9.415440e+000 1.040227e+002 -2.013602e+001 1.380160e+002
13168112500 -1.265836e+001 -1.561478e+002 -9.482985e+000 1.017780e+002 -9.408720e+000 1.013590e+002 -1.989014e+001 1.342943e+002
13186856250 -1.265174e+001 -1.567572e+002 -9.481891e+000 9.917917e+001 -9.410508e+000 9.877333e+001 -1.963493e+001 1.305704e+002
13205600000 -1.264502e+001 -1.574023e+002 -9.483252e+000 9.658233e+001 -9.408998e+000 9.613235e+001 -1.936985e+001 1.269743e+002
13224343750 -1.263937e+001 -1.580510e+002 -9.485029e+000 9.396241e+001 -9.402897e+000 9.349001e+001 -1.909671e+001 1.234303e+002
13243087500 -1.263589e+001 -1.587327e+002 -9.488799e+000 9.137946e+001 -9.408211e+000 9.090427e+001 -1.881499e+001 1.200939e+002
13261831250 -1.263058e+001 -1.594685e+002 -9.493355e+000 8.879011e+001 -9.412234e+000 8.826591e+001 -1.854953e+001 1.169291e+002
13280575000 -1.261979e+001 -1.602167e+002 -9.497289e+000 8.618333e+001 -9.408394e+000 8.568379e+001 -1.829791e+001 1.137283e+002
13299318750 -1.261335e+001 -1.609594e+002 -9.503601e+000 8.361652e+001 -9.418053e+000 8.310153e+001 -1.804266e+001 1.106199e+002
13318062500 -1.260740e+001 -1.617231e+002 -9.513025e+000 8.102753e+001 -9.424431e+000 8.045876e+001 -1.778152e+001 1.076091e+002
13336806250 -1.260056e+001 -1.625198e+002 -9.518669e+000 7.843304e+001 -9.428314e+000 7.789014e+001 -1.752435e+001 1.046671e+002
13355550000 -1.260831e+001 -1.633330e+002 -9.529310e+000 7.589597e+001 -9.440843e+000 7.530531e+001 -1.727084e+001 1.019251e+002
13374293750 -1.260770e+001 -1.642301e+002 -9.540377e+000 7.331900e+001 -9.446591e+000 7.269209e+001 -1.704164e+001 9.927356e+001
13393037500 -1.260450e+001 -1.651483e+002 -9.546182e+000 7.076703e+001 -9.452436e+000 7.016650e+001 -1.681594e+001 9.654915e+001
13411781250 -1.260482e+001 -1.660846e+002 -9.561625e+000 6.822469e+001 -9.467744e+000 6.757959e+001 -1.658772e+001 9.394891e+001
13430525000 -1.260535e+001 -1.670522e+002 -9.576856e+000 6.565603e+001 -9.476002e+000 6.497838e+001 -1.636815e+001 9.138609e+001
13449268750 -1.261202e+001 -1.680352e+002 -9.585025e+000 6.312548e+001 -9.486152e+000 6.245171e+001 -1.614594e+001 8.890536e+001
13468012500 -1.262606e+001 -1.690552e+002 -9.602971e+000 6.060238e+001 -9.505668e+000 5.989162e+001 -1.593383e+001 8.653632e+001
13486756250 -1.263721e+001 -1.701571e+002 -9.614014e+000 5.804993e+001 -9.515676e+000 5.731236e+001 -1.573899e+001 8.422521e+001
13505500000 -1.264542e+001 -1.713090e+002 -9.622516e+000 5.554008e+001 -9.531150e+000 5.478433e+001 -1.553985e+001 8.187407e+001
13524243750 -1.266113e+001 -1.724652e+002 -9.646504e+000 5.300627e+001 -9.553574e+000 5.221780e+001 -1.534774e+001 7.961310e+001
13542987500 -1.268141e+001 -1.736455e+002 -9.659971e+000 5.049478e+001 -9.567067e+000 4.968924e+001 -1.516369e+001 7.744152e+001
13561731250 -1.270615e+001 -1.748345e+002 -9.677406e+000 4.800991e+001 -9.587433e+000 4.719538e+001 -1.498305e+001 7.530728e+001
13580475000 -1.274037e+001 -1.760852e+002 -9.702701e+000 4.548421e+001 -9.609585e+000 4.464562e+001 -1.482058e+001 7.324058e+001
13599218750 -1.277645e+001 -1.774085e+002 -9.716599e+000 4.298370e+001 -9.625587e+000 4.213126e+001 -1.466252e+001 7.118199e+001
13617962500 -1.281676e+001 -1.787531e+002 -9.739103e+000 4.052144e+001 -9.649996e+000 3.964493e+001 -1.450018e+001 6.909792e+001
13636706250 -1.286165e+001 1.798900e+002 -9.762673e+000 3.799905e+001 -9.677841e+000 3.711002e+001 -1.434903e+001 6.711575e+001
13655450000 -1.291641e+001 1.784892e+002 -9.780519e+000 3.552441e+001 -9.697627e+000 3.464508e+001 -1.419548e+001 6.517782e+001
13674193750 -1.297790e+001 1.770655e+002 -9.806585e+000 3.307437e+001 -9.722800e+000 3.216387e+001 -1.405219e+001 6.328239e+001
13692937500 -1.304967e+001 1.755916e+002 -9.830894e+000 3.056509e+001 -9.747481e+000 2.963290e+001 -1.391976e+001 6.144411e+001
13711681250 -1.312577e+001 1.740466e+002 -9.850413e+000 2.811699e+001 -9.773839e+000 2.716862e+001 -1.379769e+001 5.962415e+001
13730425000 -1.319710e+001 1.724658e+002 -9.877416e+000 2.567271e+001 -9.802432e+000 2.470259e+001 -1.367205e+001 5.777948e+001
13749168750 -1.328385e+001 1.708964e+002 -9.899626e+000 2.317917e+001 -9.824553e+000 2.220509e+001 -1.355347e+001 5.599357e+001
13767912500 -1.338657e+001 1.692794e+002 -9.920997e+000 2.077322e+001 -9.850399e+000 1.976026e+001 -1.342984e+001 5.422012e+001
13786656250 -1.348909e+001 1.676195e+002 -9.951741e+000 1.831885e+001 -9.883766e+000 1.731500e+001 -1.331418e+001 5.248119e+001
13805400000 -1.360280e+001 1.659237e+002 -9.973145e+000 1.583799e+001 -9.907568e+000 1.485389e+001 -1.320463e+001 5.079985e+001
13824143750 -1.372287e+001 1.641543e+002 -9.996966e+000 1.343875e+001 -9.936166e+000 1.241324e+001 -1.310553e+001 4.911153e+001
13842887500 -1.384997e+001 1.623891e+002 -1.003080e+001 1.100099e+001 -9.971156e+000 9.969420e+000 -1.300072e+001 4.742015e+001
13861631250 -1.399067e+001 1.606120e+002 -1.005259e+001 8.549314e+000 -9.997806e+000 7.529681e+000 -1.290319e+001 4.578677e+001
13880375000 -1.413958e+001 1.587348e+002 -1.008078e+001 6.154094e+000 -1.002901e+001 5.106261e+000 -1.281006e+001 4.416796e+001
13899118750 -1.429381e+001 1.568139e+002 -1.011368e+001 3.714273e+000 -1.006357e+001 2.641379e+000 -1.271539e+001 4.256789e+001
13917862500 -1.446834e+001 1.548688e+002 -1.013873e+001 1.289202e+000 -1.009329e+001 2.155931e-001 -1.262846e+001 4.102305e+001
13936606250 -1.464871e+001 1.528598e+002 -1.017212e+001 -1.094356e+000 -1.012302e+001 -2.184989e+000 -1.254578e+001 3.944495e+001
13955350000 -1.483784e+001 1.508326e+002 -1.020503e+001 -3.517291e+000 -1.015562e+001 -4.600403e+000 -1.245992e+001 3.787578e+001
13974093750 -1.505025e+001 1.487519e+002 -1.023003e+001 -5.932737e+000 -1.018692e+001 -7.029084e+000 -1.237603e+001 3.634073e+001
13992837500 -1.526633e+001 1.465646e+002 -1.026272e+001 -8.292382e+000 -1.022017e+001 -9.435344e+000 -1.229601e+001 3.481550e+001
14011581250 -1.549337e+001 1.443416e+002 -1.029659e+001 -1.072487e+001 -1.025311e+001 -1.185132e+001 -1.221096e+001 3.332941e+001
14030325000 -1.573562e+001 1.420506e+002 -1.032460e+001 -1.311419e+001 -1.028794e+001 -1.424850e+001 -1.214186e+001 3.185896e+001
14049068750 -1.597843e+001 1.396451e+002 -1.036004e+001 -1.547603e+001 -1.032200e+001 -1.662247e+001 -1.207783e+001 3.036256e+001
14067812500 -1.623962e+001 1.372742e+002 -1.039341e+001 -1.790686e+001 -1.035515e+001 -1.901413e+001 -1.200761e+001 2.886533e+001
14086556250 -1.652603e+001 1.347759e+002 -1.042445e+001 -2.026233e+001 -1.039059e+001 -2.141738e+001 -1.194710e+001 2.739300e+001
14105300000 -1.681414e+001 1.320477e+002 -1.046324e+001 -2.264014e+001 -1.042697e+001 -2.379014e+001 -1.188937e+001 2.590463e+001
14124043750 -1.711940e+001 1.292933e+002 -1.049751e+001 -2.505163e+001 -1.046632e+001 -2.617385e+001 -1.182557e+001 2.445228e+001
14142787500 -1.744177e+001 1.263901e+002 -1.053102e+001 -2.738189e+001 -1.050301e+001 -2.856079e+001 -1.177062e+001 2.300256e+001
14161531250 -1.776224e+001 1.233547e+002 -1.057230e+001 -2.975140e+001 -1.054227e+001 -3.091416e+001 -1.172031e+001 2.153080e+001
14180275000 -1.811121e+001 1.202480e+002 -1.060558e+001 -3.213588e+001 -1.058384e+001 -3.325843e+001 -1.166931e+001 2.007269e+001
14199018750 -1.847076e+001 1.168287e+002 -1.064372e+001 -3.446962e+001 -1.062451e+001 -3.562347e+001 -1.162964e+001 1.863416e+001
14217762500 -1.881493e+001 1.131820e+002 -1.068529e+001 -3.682229e+001 -1.066308e+001 -3.797511e+001 -1.158813e+001 1.716281e+001
14236506250 -1.918300e+001 1.094793e+002 -1.072011e+001 -3.918259e+001 -1.070607e+001 -4.032306e+001 -1.154919e+001 1.572416e+001
14255250000 -1.954060e+001 1.055380e+002 -1.075953e+001 -4.150050e+001 -1.074552e+001 -4.267491e+001 -1.151738e+001 1.428381e+001
14273993750 -1.989436e+001 1.014547e+002 -1.079625e+001 -4.386124e+001 -1.078423e+001 -4.500321e+001 -1.148708e+001 1.281729e+001
14292737500 -2.028377e+001 9.710473e+001 -1.082992e+001 -4.618526e+001 -1.082775e+001 -4.733190e+001 -1.145773e+001 1.138047e+001
14311481250 -2.063891e+001 9.236659e+001 -1.087014e+001 -4.849750e+001 -1.086638e+001 -4.966188e+001 -1.143703e+001 9.961297e+000
14330225000 -2.096404e+001 8.763091e+001 -1.090996e+001 -5.084596e+001 -1.090332e+001 -5.195456e+001 -1.142497e+001 8.545611e+000
14348968750 -2.128786e+001 8.263894e+001 -1.094429e+001 -5.317115e+001 -1.094545e+001 -5.427386e+001 -1.141215e+001 7.100786e+000
14367712500 -2.157470e+001 7.750826e+001 -1.098752e+001 -5.547391e+001 -1.098784e+001 -5.660726e+001 -1.140993e+001 5.692937e+000
14386456250 -2.185527e+001 7.229730e+001 -1.102314e+001 -5.779972e+001 -1.102653e+001 -5.891885e+001 -1.140592e+001 4.228934e+000
14405200000 -2.211359e+001 6.669683e+001 -1.105567e+001 -6.010467e+001 -1.106587e+001 -6.121369e+001 -1.140723e+001 2.788022e+000
14423943750 -2.229430e+001 6.109642e+001 -1.109710e+001 -6.242083e+001 -1.110396e+001 -6.353607e+001 -1.141454e+001 1.364833e+000
14442687500 -2.245599e+001 5.551089e+001 -1.113104e+001 -6.475254e+001 -1.114569e+001 -6.583469e+001 -1.142517e+001 -6.533753e-002
14461431250 -2.259643e+001 4.979473e+001 -1.116464e+001 -6.704444e+001 -1.118429e+001 -6.812339e+001 -1.143668e+001 -1.459823e+000
14480175000 -2.270542e+001 4.408881e+001 -1.120284e+001 -6.938029e+001 -1.122069e+001 -7.045895e+001 -1.146155e+001 -2.849426e+000
14498918750 -2.279265e+001 3.833658e+001 -1.123425e+001 -7.168009e+001 -1.125733e+001 -7.275526e+001 -1.148405e+001 -4.274454e+000
14517662500 -2.282203e+001 3.241883e+001 -1.126362e+001 -7.399464e+001 -1.129377e+001 -7.506221e+001 -1.151009e+001 -5.675661e+000
14536406250 -2.280062e+001 2.674550e+001 -1.129785e+001 -7.630615e+001 -1.132802e+001 -7.737914e+001 -1.154064e+001 -7.059338e+000
14555150000 -2.275535e+001 2.115411e+001 -1.133024e+001 -7.862565e+001 -1.136161e+001 -7.966876e+001 -1.157808e+001 -8.453180e+000
14573893750 -2.266698e+001 1.564455e+001 -1.136319e+001 -8.095628e+001 -1.139886e+001 -8.198666e+001 -1.161785e+001 -9.844234e+000
14592637500 -2.256762e+001 1.023678e+001 -1.139528e+001 -8.328847e+001 -1.142718e+001 -8.432203e+001 -1.166384e+001 -1.122250e+001
14611381250 -2.243470e+001 4.850271e+000 -1.142767e+001 -8.560050e+001 -1.145676e+001 -8.662310e+001 -1.171008e+001 -1.260930e+001
14630125000 -2.224175e+001 -3.628618e-001 -1.146008e+001 -8.794325e+001 -1.149345e+001 -8.897256e+001 -1.175906e+001 -1.398932e+001
14648868750 -2.203658e+001 -5.216524e+000 -1.148892e+001 -9.028673e+001 -1.152297e+001 -9.130295e+001 -1.181548e+001 -1.531623e+001
14667612500 -2.179842e+001 -9.989119e+000 -1.152014e+001 -9.264050e+001 -1.155461e+001 -9.360921e+001 -1.187448e+001 -1.667512e+001
14686356250 -2.155054e+001 -1.449348e+001 -1.155151e+001 -9.500143e+001 -1.158764e+001 -9.597559e+001 -1.194030e+001 -1.804035e+001
14705100000 -2.128738e+001 -1.887413e+001 -1.158245e+001 -9.734911e+001 -1.161525e+001 -9.833707e+001 -1.202044e+001 -1.939481e+001
14723843750 -2.097127e+001 -2.307342e+001 -1.161441e+001 -9.971862e+001 -1.164609e+001 -1.006572e+002 -1.209245e+001 -2.079425e+001
14742587500 -2.064835e+001 -2.683929e+001 -1.164583e+001 -1.021061e+002 -1.168033e+001 -1.030646e+002 -1.217009e+001 -2.218249e+001
14761331250 -2.033841e+001 -3.046298e+001 -1.167539e+001 -1.044843e+002 -1.170942e+001 -1.054222e+002 -1.224944e+001 -2.353848e+001
14780075000 -2.001157e+001 -3.382196e+001 -1.170665e+001 -1.068595e+002 -1.174310e+001 -1.077826e+002 -1.233662e+001 -2.488599e+001
14798818750 -1.969915e+001 -3.699747e+001 -1.173731e+001 -1.092709e+002 -1.177647e+001 -1.101950e+002 -1.242892e+001 -2.622404e+001
14817562500 -1.937526e+001 -4.007676e+001 -1.176973e+001 -1.116837e+002 -1.180405e+001 -1.125660e+002 -1.253653e+001 -2.755325e+001
14836306250 -1.904000e+001 -4.279152e+001 -1.180709e+001 -1.140976e+002 -1.184308e+001 -1.149220e+002 -1.263892e+001 -2.892188e+001
14855050000 -1.874681e+001 -4.541302e+001 -1.183919e+001 -1.165467e+002 -1.187585e+001 -1.173701e+002 -1.274307e+001 -3.025046e+001
14873793750 -1.845409e+001 -4.788420e+001 -1.187325e+001 -1.189549e+002 -1.190544e+001 -1.197621e+002 -1.285918e+001 -3.162348e+001
14892537500 -1.816139e+001 -5.014739e+001 -1.191235e+001 -1.213971e+002 -1.194621e+001 -1.221859e+002 -1.297976e+001 -3.296172e+001
14911281250 -1.788388e+001 -5.232549e+001 -1.194613e+001 -1.238521e+002 -1.197910e+001 -1.246532e+002 -1.310252e+001 -3.431259e+001
14930025000 -1.760514e+001 -5.444571e+001 -1.198291e+001 -1.262966e+002 -1.201317e+001 -1.270587e+002 -1.324098e+001 -3.569156e+001
14948768750 -1.734214e+001 -5.630742e+001 -1.202649e+001 -1.287756e+002 -1.205914e+001 -1.294998e+002 -1.337684e+001 -3.707201e+001
14967512500 -1.709743e+001 -5.812135e+001 -1.206129e+001 -1.312561e+002 -1.209294e+001 -1.319965e+002 -1.351589e+001 -3.843754e+001
14986256250 -1.685367e+001 -5.991175e+001 -1.210246e+001 -1.336996e+002 -1.212980e+001 -1.344300e+002 -1.366000e+001 -3.983231e+001
15005000000 -1.662642e+001 -6.159827e+001 -1.214502e+001 -1.361976e+002 -1.217255e+001 -1.368941e+002 -1.381275e+001 -4.115749e+001
15023743750 -1.640339e+001 -6.322192e+001 -1.217908e+001 -1.386740e+002 -1.221308e+001 -1.393624e+002 -1.398294e+001 -4.248579e+001
15042487500 -1.617109e+001 -6.478722e+001 -1.222326e+001 -1.411608e+002 -1.225667e+001 -1.418356e+002 -1.415673e+001 -4.390048e+001
15061231250 -1.596404e+001 -6.619746e+001 -1.226643e+001 -1.436857e+002 -1.229904e+001 -1.443102e+002 -1.432975e+001 -4.525949e+001
15079975000 -1.577336e+001 -6.762235e+001 -1.230855e+001 -1.461900e+002 -1.234677e+001 -1.468360e+002 -1.451694e+001 -4.664024e+001
15098718750 -1.558146e+001 -6.902254e+001 -1.236277e+001 -1.486797e+002 -1.238771e+001 -1.493686e+002 -1.470684e+001 -4.796458e+001
15117462500 -1.539210e+001 -7.038750e+001 -1.241095e+001 -1.512581e+002 -1.243992e+001 -1.518475e+002 -1.491233e+001 -4.920350e+001
15136206250 -1.520987e+001 -7.169032e+001 -1.245431e+001 -1.537790e+002 -1.249162e+001 -1.543720e+002 -1.512984e+001 -5.054511e+001
15154950000 -1.502512e+001 -7.288828e+001 -1.250955e+001 -1.562897e+002 -1.253913e+001 -1.569083e+002 -1.534292e+001 -5.183016e+001
15173693750 -1.485716e+001 -7.405515e+001 -1.256050e+001 -1.588787e+002 -1.259373e+001 -1.593929e+002 -1.557492e+001 -5.309098e+001
15192437500 -1.469900e+001 -7.521748e+001 -1.260940e+001 -1.614020e+002 -1.264939e+001 -1.619797e+002 -1.581296e+001 -5.435173e+001
15211181250 -1.453440e+001 -7.634853e+001 -1.267455e+001 -1.639747e+002 -1.269861e+001 -1.645169e+002 -1.605202e+001 -5.552195e+001
15229925000 -1.438066e+001 -7.743787e+001 -1.273053e+001 -1.665695e+002 -1.276007e+001 -1.670562e+002 -1.631980e+001 -5.666932e+001
15248668750 -1.422809e+001 -7.848937e+001 -1.278605e+001 -1.690997e+002 -1.281977e+001 -1.696632e+002 -1.659385e+001 -5.788308e+001
15267412500 -1.407376e+001 -7.945084e+001 -1.284981e+001 -1.716644e+002 -1.287236e+001 -1.722404e+002 -1.688003e+001 -5.900416e+001
15286156250 -1.393987e+001 -8.037003e+001 -1.290691e+001 -1.742849e+002 -1.293478e+001 -1.747887e+002 -1.717151e+001 -6.015484e+001
15304900000 -1.380477e+001 -8.130676e+001 -1.296728e+001 -1.768319e+002 -1.299400e+001 -1.774221e+002 -1.746680e+001 -6.121574e+001
15323643750 -1.366557e+001 -8.225074e+001 -1.303925e+001 -1.794227e+002 -1.305168e+001 -1.799664e+002 -1.777064e+001 -6.211018e+001
15342387500 -1.353714e+001 -8.311401e+001 -1.309937e+001 1.779572e+002 -1.312066e+001 1.774686e+002 -1.811589e+001 -6.297382e+001
15361131250 -1.340330e+001 -8.399673e+001 -1.316836e+001 1.753917e+002 -1.318417e+001 1.748280e+002 -1.845856e+001 -6.392363e+001
15379875000 -1.326926e+001 -8.480762e+001 -1.324251e+001 1.727983e+002 -1.324765e+001 1.722594e+002 -1.881274e+001 -6.470045e+001
15398618750 -1.315588e+001 -8.561604e+001 -1.330906e+001 1.701698e+002 -1.332521e+001 1.696689e+002 -1.917974e+001 -6.537399e+001
15417362500 -1.303644e+001 -8.642418e+001 -1.338103e+001 1.676044e+002 -1.339406e+001 1.670377e+002 -1.955225e+001 -6.593951e+001
15436106250 -1.291391e+001 -8.721424e+001 -1.346155e+001 1.649687e+002 -1.346674e+001 1.644363e+002 -1.995117e+001 -6.632246e+001
15454850000 -1.279725e+001 -8.799377e+001 -1.353474e+001 1.623132e+002 -1.354465e+001 1.617844e+002 -2.038188e+001 -6.661520e+001
15473593750 -1.268119e+001 -8.874461e+001 -1.361706e+001 1.597359e+002 -1.362143e+001 1.591392e+002 -2.080220e+001 -6.685434e+001
15492337500 -1.256272e+001 -8.944956e+001 -1.370137e+001 1.570689e+002 -1.370145e+001 1.565281e+002 -2.122939e+001 -6.699060e+001
15511081250 -1.244958e+001 -9.016043e+001 -1.377724e+001 1.544215e+002 -1.377774e+001 1.538968e+002 -2.165056e+001 -6.695467e+001
15529825000 -1.233671e+001 -9.087739e+001 -1.385984e+001 1.518136e+002 -1.386247e+001 1.512789e+002 -2.205823e+001 -6.668161e+001
15548568750 -1.222375e+001 -9.158616e+001 -1.395059e+001 1.491509e+002 -1.394824e+001 1.486104e+002 -2.247990e+001 -6.597139e+001
15567312500 -1.211066e+001 -9.227033e+001 -1.403598e+001 1.465027e+002 -1.403135e+001 1.459524e+002 -2.293547e+001 -6.527323e+001
15586056250 -1.199968e+001 -9.296169e+001 -1.413129e+001 1.438666e+002 -1.412181e+001 1.433102e+002 -2.340522e+001 -6.453893e+001
15604800000 -1.189213e+001 -9.358865e+001 -1.422580e+001 1.412082e+002 -1.421200e+001 1.406205e+002 -2.385068e+001 -6.365977e+001
15623543750 -1.178423e+001 -9.423643e+001 -1.431918e+001 1.385835e+002 -1.430178e+001 1.379812e+002 -2.428051e+001 -6.258355e+001
15642287500 -1.167486e+001 -9.489935e+001 -1.442150e+001 1.359444e+002 -1.440390e+001 1.353028e+002 -2.465780e+001 -6.127325e+001
15661031250 -1.156195e+001 -9.553497e+001 -1.451992e+001 1.332397e+002 -1.449860e+001 1.326043e+002 -2.501609e+001 -5.948296e+001
15679775000 -1.145136e+001 -9.615820e+001 -1.461878e+001 1.305920e+002 -1.459999e+001 1.299701e+002 -2.541531e+001 -5.746365e+001
15698518750 -1.134102e+001 -9.678422e+001 -1.473158e+001 1.279459e+002 -1.470953e+001 1.272894e+002 -2.580863e+001 -5.564579e+001
15717262500 -1.122811e+001 -9.736825e+001 -1.483793e+001 1.252852e+002 -1.481398e+001 1.245929e+002 -2.615985e+001 -5.372365e+001
15736006250 -1.112381e+001 -9.798793e+001 -1.495413e+001 1.226392e+002 -1.492506e+001 1.219767e+002 -2.648998e+001 -5.171632e+001
15754750000 -1.101860e+001 -9.860434e+001 -1.506986e+001 1.199971e+002 -1.504257e+001 1.192769e+002 -2.677355e+001 -4.956739e+001
15773493750 -1.090688e+001 -9.922418e+001 -1.518355e+001 1.173184e+002 -1.515457e+001 1.165772e+002 -2.702897e+001 -4.708537e+001
15792237500 -1.079746e+001 -9.981631e+001 -1.530561e+001 1.146614e+002 -1.527368e+001 1.139233e+002 -2.730605e+001 -4.430287e+001
15810981250 -1.069260e+001 -1.004043e+002 -1.542035e+001 1.119978e+002 -1.539482e+001 1.112239e+002 -2.757117e+001 -4.178457e+001
15829725000 -1.058150e+001 -1.009764e+002 -1.554328e+001 1.093668e+002 -1.551149e+001 1.085861e+002 -2.779969e+001 -3.936201e+001
15848468750 -1.047970e+001 -1.015634e+002 -1.567130e+001 1.066905e+002 -1.564028e+001 1.059330e+002 -2.800053e+001 -3.689708e+001
15867212500 -1.037640e+001 -1.022159e+002 -1.579844e+001 1.040843e+002 -1.576920e+001 1.032590e+002 -2.814004e+001 -3.416722e+001
15885956250 -1.026744e+001 -1.027902e+002 -1.594019e+001 1.014527e+002 -1.589800e+001 1.006192e+002 -2.825886e+001 -3.123758e+001
15904700000 -1.016389e+001 -1.034070e+002 -1.607036e+001 9.876842e+001 -1.603270e+001 9.795242e+001 -2.840397e+001 -2.802055e+001
15923443750 -1.006304e+001 -1.040400e+002 -1.620592e+001 9.617596e+001 -1.616995e+001 9.529425e+001 -2.852595e+001 -2.482329e+001
15942187500 -9.954831e+000 -1.046210e+002 -1.635200e+001 9.357221e+001 -1.631436e+001 9.268031e+001 -2.864685e+001 -2.183949e+001
15960931250 -9.859536e+000 -1.052429e+002 -1.649487e+001 9.092519e+001 -1.645947e+001 9.004694e+001 -2.872964e+001 -1.881450e+001
15979675000 -9.756592e+000 -1.059139e+002 -1.663695e+001 8.834887e+001 -1.660368e+001 8.741640e+001 -2.875407e+001 -1.579397e+001
15998418750 -9.649049e+000 -1.065337e+002 -1.679093e+001 8.574257e+001 -1.675620e+001 8.481684e+001 -2.873867e+001 -1.241084e+001
16017162500 -9.555207e+000 -1.071605e+002 -1.693585e+001 8.312684e+001 -1.690640e+001 8.220212e+001 -2.867922e+001 -8.814767e+000
16035906250 -9.451771e+000 -1.078225e+002 -1.708601e+001 8.055989e+001 -1.706147e+001 7.962712e+001 -2.862695e+001 -5.144433e+000
16054650000 -9.351188e+000 -1.084306e+002 -1.724838e+001 7.796240e+001 -1.721931e+001 7.704459e+001 -2.856037e+001 -1.607254e+000
16073393750 -9.262911e+000 -1.090807e+002 -1.739794e+001 7.537596e+001 -1.737369e+001 7.447530e+001 -2.846269e+001 1.670456e+000
16092137500 -9.164589e+000 -1.097883e+002 -1.755847e+001 7.289285e+001 -1.753428e+001 7.194127e+001 -2.831132e+001 4.893632e+000
16110881250 -9.065030e+000 -1.104345e+002 -1.772563e+001 7.032436e+001 -1.769973e+001 6.935706e+001 -2.808716e+001 8.207996e+000
16129625000 -8.976900e+000 -1.111167e+002 -1.788366e+001 6.774866e+001 -1.785626e+001 6.680674e+001 -2.782788e+001 1.169453e+001
16148368750 -8.881705e+000 -1.118117e+002 -1.805213e+001 6.522370e+001 -1.802702e+001 6.427181e+001 -2.758380e+001 1.530489e+001
16167112500 -8.788167e+000 -1.124435e+002 -1.822005e+001 6.266601e+001 -1.819830e+001 6.169238e+001 -2.731982e+001 1.867136e+001
16185856250 -8.708775e+000 -1.131512e+002 -1.838584e+001 6.009235e+001 -1.835989e+001 5.914193e+001 -2.702146e+001 2.168233e+001
16204600000 -8.615453e+000 -1.138680e+002 -1.856643e+001 5.763253e+001 -1.853994e+001 5.664123e+001 -2.667167e+001 2.460305e+001
16223343750 -8.528796e+000 -1.145337e+002 -1.874529e+001 5.511974e+001 -1.872048e+001 5.407976e+001 -2.626489e+001 2.741504e+001
16242087500 -8.445299e+000 -1.152656e+002 -1.892452e+001 5.261674e+001 -1.889790e+001 5.160941e+001 -2.582988e+001 3.035702e+001
16260831250 -8.354367e+000 -1.159712e+002 -1.911030e+001 5.015785e+001 -1.908578e+001 4.910132e+001 -2.539835e+001 3.337146e+001
16279575000 -8.272744e+000 -1.166679e+002 -1.929915e+001 4.766424e+001 -1.927012e+001 4.660390e+001 -2.495200e+001 3.612292e+001
16298318750 -8.195343e+000 -1.173844e+002 -1.947893e+001 4.519793e+001 -1.945695e+001 4.415071e+001 -2.448135e+001 3.839226e+001
16317062500 -8.107998e+000 -1.181325e+002 -1.966791e+001 4.279071e+001 -1.965704e+001 4.167108e+001 -2.396168e+001 4.051735e+001
16335806250 -8.028267e+000 -1.188186e+002 -1.986559e+001 4.031872e+001 -1.984742e+001 3.920757e+001 -2.340235e+001 4.235477e+001
16354550000 -7.947971e+000 -1.195377e+002 -2.005307e+001 3.788047e+001 -2.004107e+001 3.678811e+001 -2.283054e+001 4.405716e+001
16373293750 -7.869147e+000 -1.202710e+002 -2.024664e+001 3.547329e+001 -2.023456e+001 3.433761e+001 -2.223797e+001 4.582604e+001
16392037500 -7.797014e+000 -1.209685e+002 -2.044590e+001 3.303097e+001 -2.043442e+001 3.189285e+001 -2.166620e+001 4.714571e+001
16410781250 -7.725707e+000 -1.216965e+002 -2.064501e+001 3.064122e+001 -2.063498e+001 2.952305e+001 -2.107780e+001 4.806214e+001
16429525000 -7.650740e+000 -1.224342e+002 -2.084926e+001 2.830592e+001 -2.083844e+001 2.713388e+001 -2.046189e+001 4.879271e+001
16448268750 -7.574832e+000 -1.231360e+002 -2.105589e+001 2.590356e+001 -2.104130e+001 2.471842e+001 -1.987086e+001 4.918002e+001
16467012500 -7.505402e+000 -1.238629e+002 -2.125616e+001 2.355566e+001 -2.124966e+001 2.235538e+001 -1.925403e+001 4.932026e+001
16485756250 -7.435330e+000 -1.245769e+002 -2.146745e+001 2.121876e+001 -2.146224e+001 1.997747e+001 -1.864521e+001 4.932804e+001
16504500000 -7.371836e+000 -1.252910e+002 -2.168670e+001 1.883364e+001 -2.166595e+001 1.756673e+001 -1.808297e+001 4.917408e+001
16523243750 -7.307264e+000 -1.260241e+002 -2.189528e+001 1.648593e+001 -2.188086e+001 1.524481e+001 -1.753138e+001 4.865807e+001
16541987500 -7.241426e+000 -1.267530e+002 -2.211439e+001 1.419858e+001 -2.209712e+001 1.292640e+001 -1.699169e+001 4.794937e+001
16560731250 -7.179672e+000 -1.274755e+002 -2.233055e+001 1.186704e+001 -2.231581e+001 1.062623e+001 -1.646492e+001 4.711598e+001
16579475000 -7.117749e+000 -1.282057e+002 -2.255104e+001 9.674883e+000 -2.254194e+001 8.351691e+000 -1.594648e+001 4.611458e+001
16598218750 -7.059183e+000 -1.289223e+002 -2.278301e+001 7.430963e+000 -2.276701e+001 6.062204e+000 -1.544690e+001 4.508524e+001
16616962500 -7.002128e+000 -1.296449e+002 -2.300877e+001 5.169724e+000 -2.299954e+001 3.840829e+000 -1.498280e+001 4.397979e+001
16635706250 -6.943377e+000 -1.303934e+002 -2.323412e+001 3.006727e+000 -2.323375e+001 1.587604e+000 -1.453135e+001 4.276248e+001
16654450000 -6.885092e+000 -1.311326e+002 -2.347088e+001 7.932134e-001 -2.346216e+001 -6.071364e-001 -1.410406e+001 4.144724e+001
16673193750 -6.828872e+000 -1.318464e+002 -2.370730e+001 -1.391140e+000 -2.368678e+001 -2.815808e+000 -1.369052e+001 4.003084e+001
16691937500 -6.772843e+000 -1.325901e+002 -2.394347e+001 -3.567453e+000 -2.392814e+001 -4.952822e+000 -1.328515e+001 3.855608e+001
16710681250 -6.720290e+000 -1.332944e+002 -2.417977e+001 -5.731306e+000 -2.417115e+001 -7.136513e+000 -1.290038e+001 3.706491e+001
16729425000 -6.670863e+000 -1.340096e+002 -2.441884e+001 -7.875522e+000 -2.440703e+001 -9.271397e+000 -1.253378e+001 3.553214e+001
16748168750 -6.620203e+000 -1.347601e+002 -2.466302e+001 -9.945428e+000 -2.464413e+001 -1.139453e+001 -1.218169e+001 3.397894e+001
16766912500 -6.567305e+000 -1.354822e+002 -2.491462e+001 -1.204052e+001 -2.488949e+001 -1.348494e+001 -1.184681e+001 3.241468e+001
16785656250 -6.520663e+000 -1.362093e+002 -2.516189e+001 -1.408160e+001 -2.513961e+001 -1.562312e+001 -1.152598e+001 3.081824e+001
16804400000 -6.469697e+000 -1.369435e+002 -2.541455e+001 -1.607103e+001 -2.538590e+001 -1.763507e+001 -1.121762e+001 2.919309e+001
16823143750 -6.420784e+000 -1.376695e+002 -2.567003e+001 -1.809681e+001 -2.563684e+001 -1.969782e+001 -1.091823e+001 2.757017e+001
16841887500 -6.376951e+000 -1.384010e+002 -2.591203e+001 -2.013013e+001 -2.588929e+001 -2.178044e+001 -1.063330e+001 2.590284e+001
16860631250 -6.329229e+000 -1.391434e+002 -2.617150e+001 -2.208938e+001 -2.614933e+001 -2.378019e+001 -1.036606e+001 2.423692e+001
16879375000 -6.285501e+000 -1.398707e+002 -2.642633e+001 -2.409913e+001 -2.642198e+001 -2.576652e+001 -1.010211e+001 2.259072e+001
16898118750 -6.241841e+000 -1.405833e+002 -2.668735e+001 -2.604106e+001 -2.668187e+001 -2.776590e+001 -9.853754e+000 2.093967e+001
16916862500 -6.196262e+000 -1.413124e+002 -2.695147e+001 -2.797431e+001 -2.693081e+001 -2.960616e+001 -9.617860e+000 1.929721e+001
16935606250 -6.155344e+000 -1.420151e+002 -2.719730e+001 -2.992900e+001 -2.719644e+001 -3.153270e+001 -9.392451e+000 1.765277e+001
16954350000 -6.115505e+000 -1.427425e+002 -2.746785e+001 -3.171796e+001 -2.745650e+001 -3.344242e+001 -9.177819e+000 1.599767e+001
16973093750 -6.073666e+000 -1.434638e+002 -2.774040e+001 -3.357198e+001 -2.771365e+001 -3.541044e+001 -8.970432e+000 1.434270e+001
16991837500 -6.032040e+000 -1.441607e+002 -2.800010e+001 -3.538367e+001 -2.796846e+001 -3.738254e+001 -8.774452e+000 1.271813e+001
17010581250 -5.990827e+000 -1.448594e+002 -2.826142e+001 -3.725525e+001 -2.823968e+001 -3.925835e+001 -8.585085e+000 1.106028e+001
17029325000 -5.949002e+000 -1.455742e+002 -2.852322e+001 -3.900771e+001 -2.850373e+001 -4.109460e+001 -8.406336e+000 9.441005e+000
17048068750 -5.913314e+000 -1.462701e+002 -2.879289e+001 -4.072707e+001 -2.876794e+001 -4.287505e+001 -8.235706e+000 7.857965e+000
17066812500 -5.880198e+000 -1.469888e+002 -2.905167e+001 -4.253956e+001 -2.902376e+001 -4.470193e+001 -8.073499e+000 6.257729e+000
17085556250 -5.841611e+000 -1.476840e+002 -2.931012e+001 -4.425912e+001 -2.930084e+001 -4.646771e+001 -7.918356e+000 4.683444e+000
17104300000 -5.806324e+000 -1.483527e+002 -2.957117e+001 -4.602177e+001 -2.958786e+001 -4.817124e+001 -7.769907e+000 3.136390e+000
17123043750 -5.773810e+000 -1.490492e+002 -2.984066e+001 -4.775998e+001 -2.986565e+001 -4.992236e+001 -7.630771e+000 1.588685e+000
17141787500 -5.739057e+000 -1.497230e+002 -3.010511e+001 -4.955429e+001 -3.014382e+001 -5.156926e+001 -7.497360e+000 8.600075e-002
17160531250 -5.710316e+000 -1.503983e+002 -3.036804e+001 -5.134599e+001 -3.044249e+001 -5.334064e+001 -7.374730e+000 -1.389688e+000
17179275000 -5.680532e+000 -1.511287e+002 -3.063155e+001 -5.303383e+001 -3.071002e+001 -5.506481e+001 -7.254210e+000 -2.895849e+000
17198018750 -5.647403e+000 -1.518130e+002 -3.090743e+001 -5.466129e+001 -3.098370e+001 -5.670309e+001 -7.138651e+000 -4.378797e+000
17216762500 -5.615767e+000 -1.524814e+002 -3.120472e+001 -5.649815e+001 -3.126060e+001 -5.839909e+001 -7.030867e+000 -5.836977e+000
17235506250 -5.585306e+000 -1.531737e+002 -3.149668e+001 -5.817493e+001 -3.154407e+001 -6.012455e+001 -6.924969e+000 -7.283452e+000
17254250000 -5.552951e+000 -1.538161e+002 -3.176714e+001 -5.988491e+001 -3.184164e+001 -6.179420e+001 -6.825549e+000 -8.698952e+000
17272993750 -5.528617e+000 -1.544883e+002 -3.204216e+001 -6.148521e+001 -3.212715e+001 -6.336702e+001 -6.734303e+000 -1.008902e+001
17291737500 -5.501400e+000 -1.552026e+002 -3.232306e+001 -6.314311e+001 -3.239470e+001 -6.505994e+001 -6.641406e+000 -1.149076e+001
17310481250 -5.470121e+000 -1.558637e+002 -3.261169e+001 -6.464029e+001 -3.268855e+001 -6.650481e+001 -6.553992e+000 -1.286140e+001
17329225000 -5.442050e+000 -1.565402e+002 -3.288815e+001 -6.621119e+001 -3.296924e+001 -6.810330e+001 -6.473469e+000 -1.420640e+001
17347968750 -5.412448e+000 -1.572262e+002 -3.316425e+001 -6.780032e+001 -3.327412e+001 -6.971977e+001 -6.394362e+000 -1.556036e+001
17366712500 -5.384310e+000 -1.578751e+002 -3.345834e+001 -6.932833e+001 -3.356451e+001 -7.117904e+001 -6.318429e+000 -1.688759e+001
17385456250 -5.363315e+000 -1.585611e+002 -3.375571e+001 -7.084361e+001 -3.388483e+001 -7.264120e+001 -6.249200e+000 -1.819418e+001
17404200000 -5.335994e+000 -1.592753e+002 -3.404345e+001 -7.230695e+001 -3.422851e+001 -7.400897e+001 -6.180952e+000 -1.952401e+001
17422943750 -5.307720e+000 -1.599377e+002 -3.435831e+001 -7.374664e+001 -3.455890e+001 -7.548574e+001 -6.115178e+000 -2.079514e+001
17441687500 -5.284917e+000 -1.606227e+002 -3.465396e+001 -7.538126e+001 -3.485684e+001 -7.699915e+001 -6.054121e+000 -2.205405e+001
17460431250 -5.256394e+000 -1.612852e+002 -3.495403e+001 -7.692872e+001 -3.516435e+001 -7.843040e+001 -5.993292e+000 -2.331303e+001
17479175000 -5.230729e+000 -1.619180e+002 -3.526001e+001 -7.854953e+001 -3.550141e+001 -8.029992e+001 -5.936228e+000 -2.451871e+001
17497918750 -5.208749e+000 -1.625959e+002 -3.559025e+001 -8.025332e+001 -3.582405e+001 -8.142464e+001 -5.886759e+000 -2.575384e+001
17516662500 -5.182065e+000 -1.633112e+002 -3.592434e+001 -8.162902e+001 -3.615193e+001 -8.273627e+001 -5.833519e+000 -2.699179e+001
17535406250 -5.154066e+000 -1.639814e+002 -3.623436e+001 -8.296514e+001 -3.648959e+001 -8.438609e+001 -5.786585e+000 -2.818544e+001
17554150000 -5.131388e+000 -1.646582e+002 -3.652540e+001 -8.430260e+001 -3.676775e+001 -8.586798e+001 -5.739591e+000 -2.939008e+001
17572893750 -5.104031e+000 -1.653318e+002 -3.684210e+001 -8.574776e+001 -3.705069e+001 -8.738638e+001 -5.692555e+000 -3.057903e+001
17591637500 -5.081016e+000 -1.659710e+002 -3.716302e+001 -8.701783e+001 -3.734769e+001 -8.843092e+001 -5.650126e+000 -3.173866e+001
17610381250 -5.063420e+000 -1.666458e+002 -3.749693e+001 -8.833849e+001 -3.767707e+001 -9.013336e+001 -5.610238e+000 -3.290511e+001
17629125000 -5.035054e+000 -1.673422e+002 -3.777214e+001 -8.985466e+001 -3.799179e+001 -9.156312e+001 -5.568595e+000 -3.405277e+001
17647868750 -5.012400e+000 -1.680032e+002 -3.805014e+001 -9.102747e+001 -3.832291e+001 -9.301655e+001 -5.530798e+000 -3.517661e+001
17666612500 -4.989503e+000 -1.686584e+002 -3.837342e+001 -9.238648e+001 -3.868478e+001 -9.452207e+001 -5.494890e+000 -3.631786e+001
17685356250 -4.962560e+000 -1.693036e+002 -3.869415e+001 -9.337939e+001 -3.899627e+001 -9.601209e+001 -5.459222e+000 -3.743814e+001
17704100000 -4.944189e+000 -1.699243e+002 -3.907779e+001 -9.510798e+001 -3.927128e+001 -9.736561e+001 -5.426703e+000 -3.854518e+001
17722843750 -4.928187e+000 -1.706143e+002 -3.941245e+001 -9.652534e+001 -3.961749e+001 -9.887563e+001 -5.396390e+000 -3.967415e+001
17741587500 -4.905143e+000 -1.712916e+002 -3.973444e+001 -9.800749e+001 -3.997823e+001 -1.005460e+002 -5.364821e+000 -4.077422e+001
17760331250 -4.884699e+000 -1.719237e+002 -4.018016e+001 -9.932951e+001 -4.040123e+001 -1.019587e+002 -5.336462e+000 -4.185620e+001
17779075000 -4.865024e+000 -1.725910e+002 -4.051698e+001 -1.006635e+002 -4.080878e+001 -1.032615e+002 -5.308370e+000 -4.294069e+001
17797818750 -4.838416e+000 -1.732131e+002 -4.082877e+001 -1.019368e+002 -4.121893e+001 -1.045173e+002 -5.281540e+000 -4.400350e+001
17816562500 -4.825269e+000 -1.738258e+002 -4.122502e+001 -1.034470e+002 -4.152622e+001 -1.062653e+002 -5.258101e+000 -4.505619e+001
17835306250 -4.810839e+000 -1.745129e+002 -4.159090e+001 -1.044680e+002 -4.178971e+001 -1.080346e+002 -5.235773e+000 -4.611959e+001
17854050000 -4.786520e+000 -1.751844e+002 -4.194704e+001 -1.060435e+002 -4.211415e+001 -1.089901e+002 -5.212118e+000 -4.716142e+001
17872793750 -4.769819e+000 -1.758389e+002 -4.239096e+001 -1.072742e+002 -4.248862e+001 -1.104438e+002 -5.191378e+000 -4.820372e+001
17891537500 -4.754111e+000 -1.765298e+002 -4.278927e+001 -1.087345e+002 -4.286978e+001 -1.117936e+002 -5.169619e+000 -4.924201e+001
17910281250 -4.730568e+000 -1.771534e+002 -4.314024e+001 -1.104975e+002 -4.337794e+001 -1.122684e+002 -5.151480e+000 -5.026147e+001
17929025000 -4.720448e+000 -1.777932e+002 -4.343470e+001 -1.115970e+002 -4.380370e+001 -1.141989e+002 -5.131747e+000 -5.126878e+001
17947768750 -4.703901e+000 -1.784918e+002 -4.383767e+001 -1.131991e+002 -4.424650e+001 -1.150004e+002 -5.114356e+000 -5.228670e+001
17966512500 -4.681811e+000 -1.791684e+002 -4.429478e+001 -1.140348e+002 -4.473391e+001 -1.161076e+002 -5.097424e+000 -5.327462e+001
17985256250 -4.666709e+000 -1.798109e+002 -4.472206e+001 -1.163082e+002 -4.518445e+001 -1.179028e+002 -5.081377e+000 -5.426871e+001
18004000000 -4.645555e+000 1.795167e+002 -4.520067e+001 -1.179698e+002 -4.572998e+001 -1.196899e+002 -5.068346e+000 -5.525036e+001
18022743750 -4.622455e+000 1.788978e+002 -4.560937e+001 -1.195954e+002 -4.642812e+001 -1.208353e+002 -5.054588e+000 -5.621522e+001
18041487500 -4.611391e+000 1.782587e+002 -4.604514e+001 -1.221067e+002 -4.693759e+001 -1.223133e+002 -5.042567e+000 -5.719405e+001
18060231250 -4.598293e+000 1.775649e+002 -4.663519e+001 -1.235559e+002 -4.733143e+001 -1.240210e+002 -5.030937e+000 -5.818534e+001
18078975000 -4.577375e+000 1.769122e+002 -4.714634e+001 -1.258752e+002 -4.788987e+001 -1.265061e+002 -5.017488e+000 -5.914251e+001
18097718750 -4.565961e+000 1.762580e+002 -4.769331e+001 -1.274012e+002 -4.842673e+001 -1.273184e+002 -5.004275e+000 -6.011240e+001
18116462500 -4.546795e+000 1.755831e+002 -4.812815e+001 -1.292614e+002 -4.916647e+001 -1.296816e+002 -4.992364e+000 -6.106630e+001
18135206250 -4.527692e+000 1.749634e+002 -4.874207e+001 -1.294581e+002 -5.003096e+001 -1.326399e+002 -4.985687e+000 -6.199292e+001
18153950000 -4.519537e+000 1.743237e+002 -4.933613e+001 -1.329930e+002 -5.055130e+001 -1.342624e+002 -4.974939e+000 -6.292087e+001
18172693750 -4.502633e+000 1.736375e+002 -4.971616e+001 -1.352733e+002 -5.123419e+001 -1.369412e+002 -4.967965e+000 -6.386027e+001
18191437500 -4.488519e+000 1.729767e+002 -5.013941e+001 -1.372926e+002 -5.180127e+001 -1.405896e+002 -4.959001e+000 -6.477967e+001
18210181250 -4.475081e+000 1.723279e+002 -5.080158e+001 -1.390615e+002 -5.239976e+001 -1.447609e+002 -4.952350e+000 -6.571447e+001
18228925000 -4.457297e+000 1.716543e+002 -5.144519e+001 -1.401556e+002 -5.274225e+001 -1.487582e+002 -4.946644e+000 -6.662016e+001
18247668750 -4.441945e+000 1.710555e+002 -5.196986e+001 -1.442977e+002 -5.323724e+001 -1.525085e+002 -4.939349e+000 -6.754081e+001
18266412500 -4.433298e+000 1.704100e+002 -5.258854e+001 -1.479357e+002 -5.411398e+001 -1.564954e+002 -4.934957e+000 -6.845075e+001
18285156250 -4.422002e+000 1.697419e+002 -5.315874e+001 -1.555475e+002 -5.461671e+001 -1.602434e+002 -4.930319e+000 -6.936968e+001
18303900000 -4.408858e+000 1.691126e+002 -5.364635e+001 -1.595373e+002 -5.509029e+001 -1.651003e+002 -4.926747e+000 -7.027211e+001
18322643750 -4.394248e+000 1.684637e+002 -5.411360e+001 -1.644842e+002 -5.575635e+001 -1.714397e+002 -4.924111e+000 -7.118403e+001
18341387500 -4.379118e+000 1.678060e+002 -5.460110e+001 -1.707600e+002 -5.599308e+001 -1.780892e+002 -4.920415e+000 -7.208054e+001
18360131250 -4.368041e+000 1.672057e+002 -5.507799e+001 -1.789204e+002 -5.643017e+001 1.760604e+002 -4.916632e+000 -7.296854e+001
18378875000 -4.363109e+000 1.665684e+002 -5.542074e+001 1.748286e+002 -5.668176e+001 1.668706e+002 -4.914308e+000 -7.387234e+001
18397618750 -4.352129e+000 1.659026e+002 -5.563018e+001 1.676070e+002 -5.686795e+001 1.607507e+002 -4.909579e+000 -7.477782e+001
18416362500 -4.340513e+000 1.652484e+002 -5.586276e+001 1.620690e+002 -5.724529e+001 1.539890e+002 -4.907287e+000 -7.565562e+001
18435106250 -4.332257e+000 1.645909e+002 -5.601274e+001 1.544240e+002 -5.748141e+001 1.483013e+002 -4.904848e+000 -7.654364e+001
18453850000 -4.321031e+000 1.639335e+002 -5.615153e+001 1.471342e+002 -5.721340e+001 1.405969e+002 -4.903535e+000 -7.741749e+001
18472593750 -4.313301e+000 1.633276e+002 -5.613961e+001 1.412133e+002 -5.727789e+001 1.334505e+002 -4.900513e+000 -7.829433e+001
18491337500 -4.307679e+000 1.626723e+002 -5.594727e+001 1.335808e+002 -5.733660e+001 1.269147e+002 -4.898747e+000 -7.915049e+001
18510081250 -4.297231e+000 1.620150e+002 -5.599102e+001 1.269913e+002 -5.714340e+001 1.214176e+002 -4.899082e+000 -8.001720e+001
18528825000 -4.289327e+000 1.613550e+002 -5.583518e+001 1.194725e+002 -5.684105e+001 1.134715e+002 -4.900887e+000 -8.086510e+001
18547568750 -4.280526e+000 1.606803e+002 -5.582495e+001 1.119013e+002 -5.649562e+001 1.058431e+002 -4.898925e+000 -8.171889e+001
18566312500 -4.269028e+000 1.600293e+002 -5.555890e+001 1.037765e+002 -5.603434e+001 9.976858e+001 -4.898083e+000 -8.257281e+001
18585056250 -4.261530e+000 1.594153e+002 -5.519875e+001 9.831216e+001 -5.570359e+001 9.282692e+001 -4.899308e+000 -8.342896e+001
18603800000 -4.256753e+000 1.587442e+002 -5.502738e+001 9.188789e+001 -5.532976e+001 8.703820e+001 -4.902362e+000 -8.427477e+001
18622543750 -4.247110e+000 1.580639e+002 -5.475154e+001 8.463671e+001 -5.492349e+001 8.173811e+001 -4.903556e+000 -8.512857e+001
18641287500 -4.240306e+000 1.573917e+002 -5.429173e+001 7.822389e+001 -5.459839e+001 7.675873e+001 -4.903724e+000 -8.597700e+001
18660031250 -4.232102e+000 1.567153e+002 -5.391571e+001 7.053928e+001 -5.443386e+001 7.120293e+001 -4.903895e+000 -8.680801e+001
18678775000 -4.221684e+000 1.560511e+002 -5.338429e+001 6.527926e+001 -5.399192e+001 6.672724e+001 -4.909128e+000 -8.763988e+001
18697518750 -4.215447e+000 1.554322e+002 -5.296037e+001 5.891594e+001 -5.330427e+001 6.117383e+001 -4.911141e+000 -8.847432e+001
18716262500 -4.212374e+000 1.547585e+002 -5.254422e+001 5.778828e+001 -5.288833e+001 5.555322e+001 -4.914151e+000 -8.928618e+001
18735006250 -4.207227e+000 1.540722e+002 -5.198078e+001 5.218991e+001 -5.249278e+001 5.124680e+001 -4.916562e+000 -9.009604e+001
18753750000 -4.201735e+000 1.534021e+002 -5.149316e+001 4.807035e+001 -5.181401e+001 4.830572e+001 -4.919736e+000 -9.091225e+001
18772493750 -4.193864e+000 1.527215e+002 -5.112464e+001 4.546558e+001 -5.146756e+001 4.523281e+001 -4.924417e+000 -9.172601e+001
18791237500 -4.184459e+000 1.520719e+002 -5.068575e+001 4.451803e+001 -5.106135e+001 4.249785e+001 -4.930289e+000 -9.254525e+001
18809981250 -4.180704e+000 1.514372e+002 -5.028788e+001 4.183534e+001 -5.073140e+001 4.225097e+001 -4.936965e+000 -9.334884e+001
18828725000 -4.180331e+000 1.507673e+002 -4.991426e+001 3.961308e+001 -5.034442e+001 3.924969e+001 -4.942629e+000 -9.414532e+001
18847468750 -4.175729e+000 1.500986e+002 -4.958545e+001 3.662386e+001 -4.987075e+001 3.705273e+001 -4.950865e+000 -9.495055e+001
18866212500 -4.170779e+000 1.494178e+002 -4.923604e+001 3.531237e+001 -4.936457e+001 3.418597e+001 -4.956455e+000 -9.576181e+001
18884956250 -4.163899e+000 1.487473e+002 -4.903720e+001 3.370602e+001 -4.924339e+001 3.224284e+001 -4.962491e+000 -9.655370e+001
18903700000 -4.156713e+000 1.481160e+002 -4.886304e+001 3.182585e+001 -4.891967e+001 3.132864e+001 -4.973852e+000 -9.735131e+001
18922443750 -4.155385e+000 1.474964e+002 -4.864845e+001 2.990457e+001 -4.870354e+001 2.923397e+001 -4.982599e+000 -9.816116e+001
18941187500 -4.155966e+000 1.468248e+002 -4.826169e+001 2.818823e+001 -4.851093e+001 2.692677e+001 -4.992190e+000 -9.896169e+001
18959931250 -4.153349e+000 1.461498e+002 -4.800389e+001 2.668829e+001 -4.843861e+001 2.522967e+001 -5.001205e+000 -9.976225e+001
18978675000 -4.150971e+000 1.454804e+002 -4.769344e+001 2.496470e+001 -4.820117e+001 2.483110e+001 -5.013542e+000 -1.005637e+002
18997418750 -4.146343e+000 1.448013e+002 -4.738577e+001 2.271754e+001 -4.802964e+001 2.298401e+001 -5.024720e+000 -1.013562e+002
19016162500 -4.139266e+000 1.441590e+002 -4.719089e+001 2.103545e+001 -4.796234e+001 2.103796e+001 -5.036619e+000 -1.021473e+002
19034906250 -4.141387e+000 1.435210e+002 -4.711100e+001 1.927836e+001 -4.768325e+001 1.962556e+001 -5.046984e+000 -1.029336e+002
19053650000 -4.143833e+000 1.428626e+002 -4.682452e+001 1.819107e+001 -4.750012e+001 1.787309e+001 -5.059888e+000 -1.037146e+002
19072393750 -4.143307e+000 1.421900e+002 -4.666934e+001 1.584683e+001 -4.723369e+001 1.635448e+001 -5.074757e+000 -1.045000e+002
19091137500 -4.144220e+000 1.415095e+002 -4.645271e+001 1.451248e+001 -4.703542e+001 1.550414e+001 -5.089124e+000 -1.052940e+002
19109881250 -4.140121e+000 1.408329e+002 -4.640262e+001 1.384329e+001 -4.693694e+001 1.362403e+001 -5.102706e+000 -1.060735e+002
19128625000 -4.138384e+000 1.401902e+002 -4.614582e+001 1.343730e+001 -4.673402e+001 1.359160e+001 -5.116730e+000 -1.068582e+002
19147368750 -4.141955e+000 1.395413e+002 -4.600846e+001 1.181449e+001 -4.657039e+001 1.216658e+001 -5.131192e+000 -1.076593e+002
19166112500 -4.143591e+000 1.388561e+002 -4.592687e+001 1.134508e+001 -4.640237e+001 1.149463e+001 -5.149234e+000 -1.084515e+002
19184856250 -4.144619e+000 1.381772e+002 -4.580016e+001 9.759497e+000 -4.631235e+001 1.061954e+001 -5.166473e+000 -1.092270e+002
19203600000 -4.147002e+000 1.374761e+002 -4.558123e+001 8.499198e+000 -4.615884e+001 9.550733e+000 -5.184473e+000 -1.100108e+002
19222343750 -4.144163e+000 1.367841e+002 -4.546659e+001 7.277872e+000 -4.588757e+001 8.221733e+000 -5.205185e+000 -1.107920e+002
19241087500 -4.142819e+000 1.361290e+002 -4.530422e+001 5.679033e+000 -4.575409e+001 6.428006e+000 -5.227677e+000 -1.115823e+002
19259831250 -4.146022e+000 1.354700e+002 -4.521253e+001 4.089048e+000 -4.558232e+001 5.215374e+000 -5.249109e+000 -1.123661e+002
19278575000 -4.147555e+000 1.347907e+002 -4.510143e+001 3.188227e+000 -4.543259e+001 4.100588e+000 -5.269233e+000 -1.131533e+002
19297318750 -4.149934e+000 1.341056e+002 -4.498986e+001 2.007993e+000 -4.535127e+001 2.744832e+000 -5.292845e+000 -1.139293e+002
19316062500 -4.152217e+000 1.334018e+002 -4.486308e+001 7.189144e-001 -4.522593e+001 1.449395e+000 -5.315948e+000 -1.147177e+002
19334806250 -4.150289e+000 1.327082e+002 -4.472422e+001 -7.935187e-001 -4.511346e+001 -7.166764e-001 -5.340870e+000 -1.154985e+002
19353550000 -4.148941e+000 1.320503e+002 -4.471649e+001 -1.519815e+000 -4.503817e+001 -2.460351e+000 -5.367887e+000 -1.162832e+002
19372293750 -4.157105e+000 1.313623e+002 -4.470343e+001 -2.482780e+000 -4.498462e+001 -3.338540e+000 -5.393167e+000 -1.170794e+002
19391037500 -4.159084e+000 1.306835e+002 -4.468155e+001 -3.897888e+000 -4.491854e+001 -4.412904e+000 -5.418850e+000 -1.178634e+002
19409781250 -4.164706e+000 1.299895e+002 -4.469107e+001 -4.804104e+000 -4.491091e+001 -5.382817e+000 -5.446650e+000 -1.186505e+002
19428525000 -4.167648e+000 1.292979e+002 -4.463010e+001 -5.497410e+000 -4.483728e+001 -5.930594e+000 -5.471938e+000 -1.194464e+002
19447268750 -4.167499e+000 1.286254e+002 -4.458515e+001 -6.590876e+000 -4.479019e+001 -6.552787e+000 -5.501732e+000 -1.202391e+002
19466012500 -4.169206e+000 1.279692e+002 -4.451984e+001 -7.526460e+000 -4.473946e+001 -8.175092e+000 -5.533131e+000 -1.210434e+002
19484756250 -4.175134e+000 1.272993e+002 -4.462437e+001 -8.359258e+000 -4.477424e+001 -9.157509e+000 -5.564068e+000 -1.218643e+002
19503500000 -4.179750e+000 1.266270e+002 -4.462464e+001 -9.109861e+000 -4.474007e+001 -1.003949e+001 -5.595260e+000 -1.226670e+002
19522243750 -4.184252e+000 1.259431e+002 -4.466922e+001 -1.059833e+001 -4.476006e+001 -1.132473e+001 -5.628890e+000 -1.234965e+002
19540987500 -4.189564e+000 1.252595e+002 -4.461501e+001 -1.161533e+001 -4.479802e+001 -1.170201e+001 -5.663649e+000 -1.243260e+002
19559731250 -4.188495e+000 1.245757e+002 -4.458861e+001 -1.327626e+001 -4.487034e+001 -1.277079e+001 -5.700819e+000 -1.251560e+002
19578475000 -4.191034e+000 1.239265e+002 -4.450587e+001 -1.407499e+001 -4.493225e+001 -1.387346e+001 -5.741521e+000 -1.260056e+002
19597218750 -4.197072e+000 1.232720e+002 -4.448647e+001 -1.498482e+001 -4.496151e+001 -1.479225e+001 -5.779878e+000 -1.268693e+002
19615962500 -4.203723e+000 1.225836e+002 -4.458168e+001 -1.457140e+001 -4.490969e+001 -1.583813e+001 -5.821138e+000 -1.277327e+002
19634706250 -4.209456e+000 1.219050e+002 -4.452864e+001 -1.492384e+001 -4.491956e+001 -1.647933e+001 -5.862328e+000 -1.286193e+002
19653450000 -4.212817e+000 1.212220e+002 -4.448850e+001 -1.564104e+001 -4.493867e+001 -1.751912e+001 -5.902915e+000 -1.295042e+002
19672193750 -4.214201e+000 1.205422e+002 -4.451416e+001 -1.609476e+001 -4.491724e+001 -1.739472e+001 -5.949361e+000 -1.303879e+002
19690937500 -4.220345e+000 1.198895e+002 -4.453650e+001 -1.669689e+001 -4.500818e+001 -1.732424e+001 -5.997234e+000 -1.313036e+002
19709681250 -4.231256e+000 1.192117e+002 -4.456972e+001 -1.729189e+001 -4.495044e+001 -1.752083e+001 -6.050295e+000 -1.322200e+002
19728425000 -4.238240e+000 1.185291e+002 -4.457587e+001 -1.718100e+001 -4.495150e+001 -1.775705e+001 -6.102921e+000 -1.331266e+002
19747168750 -4.247162e+000 1.178324e+002 -4.459266e+001 -1.747314e+001 -4.493509e+001 -1.789932e+001 -6.156700e+000 -1.340905e+002
19765912500 -4.252496e+000 1.171370e+002 -4.454564e+001 -1.774809e+001 -4.491143e+001 -1.768942e+001 -6.210283e+000 -1.350379e+002
19784656250 -4.254888e+000 1.164537e+002 -4.446560e+001 -1.791601e+001 -4.479879e+001 -1.737629e+001 -6.270959e+000 -1.359997e+002
19803400000 -4.254093e+000 1.157770e+002 -4.425719e+001 -1.826544e+001 -4.471370e+001 -1.849568e+001 -6.338520e+000 -1.369700e+002
19822143750 -4.266742e+000 1.150839e+002 -4.409087e+001 -1.785296e+001 -4.477836e+001 -1.854862e+001 -6.401830e+000 -1.379920e+002
19840887500 -4.275965e+000 1.143823e+002 -4.386081e+001 -1.761605e+001 -4.468648e+001 -1.860344e+001 -6.466625e+000 -1.389706e+002
19859631250 -4.282125e+000 1.136723e+002 -4.374366e+001 -1.807917e+001 -4.455894e+001 -1.892542e+001 -6.537938e+000 -1.399817e+002
19878375000 -4.289019e+000 1.129716e+002 -4.365366e+001 -1.830956e+001 -4.439313e+001 -2.006632e+001 -6.616630e+000 -1.409968e+002
19897118750 -4.295112e+000 1.122793e+002 -4.346345e+001 -1.877239e+001 -4.433465e+001 -1.974034e+001 -6.703215e+000 -1.420592e+002
19915862500 -4.303980e+000 1.116023e+002 -4.319384e+001 -1.941975e+001 -4.421893e+001 -2.000117e+001 -6.792698e+000 -1.431334e+002
19934606250 -4.315699e+000 1.109089e+002 -4.305764e+001 -1.898504e+001 -4.397079e+001 -1.954005e+001 -6.883153e+000 -1.442007e+002
19953350000 -4.327545e+000 1.101787e+002 -4.281984e+001 -1.888682e+001 -4.378078e+001 -1.986299e+001 -6.984833e+000 -1.452801e+002
19972093750 -4.335245e+000 1.094411e+002 -4.259478e+001 -1.938182e+001 -4.369759e+001 -2.074812e+001 -7.084773e+000 -1.463735e+002
19990837500 -4.339535e+000 1.087023e+002 -4.248391e+001 -1.899522e+001 -4.350378e+001 -2.139086e+001 -7.187944e+000 -1.474365e+002
20009581250 -4.346934e+000 1.079924e+002 -4.235698e+001 -1.966762e+001 -4.322334e+001 -2.164528e+001 -7.309469e+000 -1.485594e+002
20028325000 -4.356465e+000 1.072825e+002 -4.212579e+001 -1.997228e+001 -4.293814e+001 -2.204221e+001 -7.429477e+000 -1.497024e+002
20047068750 -4.363112e+000 1.065944e+002 -4.187705e+001 -2.115403e+001 -4.285743e+001 -2.200775e+001 -7.561214e+000 -1.508407e+002
20065812500 -4.373200e+000 1.058575e+002 -4.163759e+001 -2.136913e+001 -4.259254e+001 -2.270938e+001 -7.699835e+000 -1.520433e+002
20084556250 -4.385746e+000 1.051028e+002 -4.155775e+001 -2.165820e+001 -4.243139e+001 -2.306757e+001 -7.848802e+000 -1.532297e+002
20103300000 -4.390993e+000 1.043852e+002 -4.143659e+001 -2.268360e+001 -4.221323e+001 -2.386559e+001 -8.004688e+000 -1.543639e+002
20122043750 -4.399609e+000 1.036816e+002 -4.115156e+001 -2.326056e+001 -4.194382e+001 -2.500540e+001 -8.181513e+000 -1.555904e+002
20140787500 -4.410078e+000 1.029636e+002 -4.093045e+001 -2.385235e+001 -4.174654e+001 -2.600497e+001 -8.354451e+000 -1.568179e+002
20159531250 -4.420827e+000 1.022449e+002 -4.070467e+001 -2.504899e+001 -4.156077e+001 -2.724935e+001 -8.549865e+000 -1.580430e+002
20178275000 -4.432029e+000 1.015237e+002 -4.036473e+001 -2.623159e+001 -4.133299e+001 -2.816100e+001 -8.756612e+000 -1.593143e+002
20197018750 -4.438557e+000 1.007733e+002 -4.022535e+001 -2.697257e+001 -4.115853e+001 -2.895483e+001 -8.973071e+000 -1.605236e+002
20215762500 -4.447542e+000 1.000577e+002 -4.007187e+001 -2.799367e+001 -4.105030e+001 -2.958159e+001 -9.212835e+000 -1.617576e+002
20234506250 -4.462545e+000 9.938329e+001 -4.005458e+001 -2.962066e+001 -4.091443e+001 -3.063369e+001 -9.473319e+000 -1.630433e+002
20253250000 -4.470172e+000 9.866612e+001 -3.992968e+001 -3.083028e+001 -4.063984e+001 -3.189228e+001 -9.750463e+000 -1.643166e+002
20271993750 -4.479287e+000 9.796578e+001 -3.988012e+001 -3.254981e+001 -4.045503e+001 -3.347026e+001 -1.004883e+001 -1.656370e+002
20290737500 -4.495435e+000 9.720534e+001 -3.978523e+001 -3.340447e+001 -4.029753e+001 -3.504935e+001 -1.035398e+001 -1.669310e+002
20309481250 -4.504051e+000 9.639391e+001 -3.964376e+001 -3.487333e+001 -4.022260e+001 -3.514473e+001 -1.068934e+001 -1.681294e+002
20328225000 -4.506639e+000 9.566698e+001 -3.956925e+001 -3.631460e+001 -4.006998e+001 -3.713322e+001 -1.105929e+001 -1.692215e+002
20346968750 -4.517023e+000 9.496009e+001 -3.956420e+001 -3.762003e+001 -3.989613e+001 -3.808384e+001 -1.145761e+001 -1.703611e+002
20365712500 -4.529173e+000 9.421344e+001 -3.937057e+001 -4.025574e+001 -3.979543e+001 -4.031869e+001 -1.189814e+001 -1.714541e+002
20384456250 -4.541189e+000 9.352134e+001 -3.932809e+001 -4.181131e+001 -3.970740e+001 -4.146289e+001 -1.236434e+001 -1.724846e+002
20403200000 -4.556423e+000 9.276805e+001 -3.928091e+001 -4.361102e+001 -3.960076e+001 -4.291466e+001 -1.287740e+001 -1.733636e+002
20421943750 -4.572665e+000 9.199935e+001 -3.918940e+001 -4.559960e+001 -3.951205e+001 -4.464987e+001 -1.345507e+001 -1.740161e+002
20440687500 -4.581079e+000 9.130002e+001 -3.905488e+001 -4.673136e+001 -3.954329e+001 -4.614307e+001 -1.408469e+001 -1.743553e+002
20459431250 -4.596861e+000 9.062592e+001 -3.908935e+001 -4.913720e+001 -3.955566e+001 -4.822977e+001 -1.479016e+001 -1.741350e+002
20478175000 -4.610820e+000 8.986536e+001 -3.908270e+001 -5.138234e+001 -3.946441e+001 -5.069811e+001 -1.557001e+001 -1.733575e+002
20496918750 -4.628875e+000 8.913190e+001 -3.915067e+001 -5.346904e+001 -3.940260e+001 -5.236603e+001 -1.632516e+001 -1.718058e+002
20515662500 -4.642492e+000 8.838631e+001 -3.904060e+001 -5.575866e+001 -3.931135e+001 -5.368122e+001 -1.702625e+001 -1.693337e+002
20534406250 -4.651018e+000 8.760423e+001 -3.894129e+001 -5.671436e+001 -3.925021e+001 -5.537738e+001 -1.766361e+001 -1.661672e+002
20553150000 -4.659637e+000 8.683428e+001 -3.894980e+001 -5.839283e+001 -3.919777e+001 -5.799858e+001 -1.823249e+001 -1.623605e+002
20571893750 -4.675076e+000 8.611407e+001 -3.886187e+001 -6.007418e+001 -3.920408e+001 -5.949635e+001 -1.872843e+001 -1.582402e+002
20590637500 -4.689990e+000 8.535461e+001 -3.888917e+001 -6.100413e+001 -3.914391e+001 -6.081645e+001 -1.916514e+001 -1.539652e+002
20609381250 -4.705047e+000 8.459582e+001 -3.894534e+001 -6.225360e+001 -3.910925e+001 -6.259740e+001 -1.953426e+001 -1.495231e+002
20628125000 -4.728163e+000 8.378925e+001 -3.890891e+001 -6.408372e+001 -3.910680e+001 -6.445441e+001 -1.983399e+001 -1.451369e+002
20646868750 -4.738379e+000 8.297488e+001 -3.884034e+001 -6.591017e+001 -3.908128e+001 -6.598516e+001 -2.005572e+001 -1.405307e+002
20665612500 -4.752434e+000 8.223290e+001 -3.875800e+001 -6.665398e+001 -3.920014e+001 -6.706013e+001 -2.020372e+001 -1.357256e+002
20684356250 -4.771760e+000 8.148142e+001 -3.876254e+001 -6.867195e+001 -3.920298e+001 -6.843241e+001 -2.032384e+001 -1.308038e+002
20703100000 -4.788063e+000 8.072686e+001 -3.881110e+001 -6.969820e+001 -3.933350e+001 -6.902479e+001 -2.039775e+001 -1.258901e+002
20721843750 -4.809062e+000 7.996799e+001 -3.880313e+001 -7.139374e+001 -3.936024e+001 -6.980079e+001 -2.043258e+001 -1.210180e+002
20740587500 -4.830750e+000 7.918170e+001 -3.890225e+001 -7.256301e+001 -3.932478e+001 -7.137354e+001 -2.039028e+001 -1.161778e+002
20759331250 -4.842164e+000 7.836344e+001 -3.890710e+001 -7.362142e+001 -3.931388e+001 -7.280364e+001 -2.026667e+001 -1.113269e+002
20778075000 -4.857362e+000 7.759418e+001 -3.896020e+001 -7.527364e+001 -3.939796e+001 -7.476926e+001 -2.008921e+001 -1.063410e+002
20796818750 -4.872968e+000 7.682659e+001 -3.905695e+001 -7.658846e+001 -3.943786e+001 -7.627432e+001 -1.984580e+001 -1.013254e+002
20815562500 -4.882987e+000 7.606954e+001 -3.907658e+001 -7.841703e+001 -3.948796e+001 -7.759912e+001 -1.955105e+001 -9.634190e+001
20834306250 -4.903554e+000 7.529370e+001 -3.922619e+001 -7.979760e+001 -3.945847e+001 -7.912389e+001 -1.918342e+001 -9.157964e+001
20853050000 -4.919147e+000 7.449140e+001 -3.938157e+001 -8.035748e+001 -3.954956e+001 -7.975892e+001 -1.872409e+001 -8.703277e+001
20871793750 -4.926864e+000 7.366136e+001 -3.940593e+001 -8.148159e+001 -3.958418e+001 -8.077587e+001 -1.816206e+001 -8.270710e+001
20890537500 -4.939570e+000 7.285174e+001 -3.942186e+001 -8.225470e+001 -3.961535e+001 -8.213413e+001 -1.750766e+001 -7.893705e+001
20909281250 -4.959263e+000 7.206958e+001 -3.936765e+001 -8.323965e+001 -3.967497e+001 -8.316409e+001 -1.674226e+001 -7.565595e+001
20928025000 -4.970573e+000 7.131187e+001 -3.938473e+001 -8.450030e+001 -3.981446e+001 -8.461839e+001 -1.598018e+001 -7.310122e+001
20946768750 -4.994233e+000 7.051521e+001 -3.945005e+001 -8.553329e+001 -3.988223e+001 -8.571727e+001 -1.524687e+001 -7.156213e+001
20965512500 -5.018404e+000 6.968531e+001 -3.947253e+001 -8.673896e+001 -3.998209e+001 -8.717584e+001 -1.453619e+001 -7.076408e+001
20984256250 -5.029522e+000 6.893459e+001 -3.953912e+001 -8.784388e+001 -4.015797e+001 -8.726560e+001 -1.385610e+001 -7.049051e+001
21003000000 -5.043309e+000 6.812132e+001 -3.968069e+001 -8.868258e+001 -4.024427e+001 -8.851315e+001 -1.323492e+001 -7.055851e+001
21021743750 -5.060798e+000 6.733495e+001 -3.967172e+001 -9.088950e+001 -4.027716e+001 -8.955901e+001 -1.263376e+001 -7.079700e+001
21040487500 -5.078766e+000 6.657462e+001 -3.979419e+001 -9.221673e+001 -4.029977e+001 -9.030796e+001 -1.207818e+001 -7.116298e+001
21059231250 -5.096852e+000 6.577836e+001 -3.989854e+001 -9.366318e+001 -4.046105e+001 -9.122096e+001 -1.157058e+001 -7.162117e+001
21077975000 -5.116486e+000 6.494665e+001 -3.989904e+001 -9.471619e+001 -4.047290e+001 -9.286345e+001 -1.109358e+001 -7.229223e+001
21096718750 -5.124739e+000 6.411487e+001 -3.998779e+001 -9.590274e+001 -4.049796e+001 -9.379843e+001 -1.064779e+001 -7.308659e+001
21115462500 -5.141246e+000 6.331483e+001 -4.009703e+001 -9.752809e+001 -4.056055e+001 -9.497256e+001 -1.021373e+001 -7.399399e+001
21134206250 -5.157421e+000 6.250383e+001 -4.018011e+001 -9.861195e+001 -4.043877e+001 -9.681244e+001 -9.790915e+000 -7.490633e+001
21152950000 -5.171678e+000 6.172823e+001 -4.035855e+001 -9.983431e+001 -4.045400e+001 -9.869386e+001 -9.385622e+000 -7.583018e+001
21171693750 -5.193799e+000 6.090207e+001 -4.040375e+001 -1.001876e+002 -4.043910e+001 -9.994672e+001 -9.010484e+000 -7.686870e+001
21190437500 -5.210901e+000 6.006524e+001 -4.056774e+001 -1.016302e+002 -4.048072e+001 -1.010056e+002 -8.657928e+000 -7.796909e+001
21209181250 -5.223026e+000 5.923466e+001 -4.062891e+001 -1.025514e+002 -4.035394e+001 -1.012404e+002 -8.324818e+000 -7.913092e+001
21227925000 -5.234976e+000 5.841995e+001 -4.069050e+001 -1.037388e+002 -4.045532e+001 -1.013553e+002 -8.011065e+000 -8.044315e+001
21246668750 -5.257912e+000 5.759837e+001 -4.072079e+001 -1.046304e+002 -4.054122e+001 -1.025249e+002 -7.701365e+000 -8.176662e+001
21265412500 -5.274911e+000 5.677404e+001 -4.067171e+001 -1.052329e+002 -4.069196e+001 -1.029136e+002 -7.413167e+000 -8.307487e+001
21284156250 -5.298741e+000 5.590424e+001 -4.057203e+001 -1.076573e+002 -4.069501e+001 -1.036394e+002 -7.139998e+000 -8.442699e+001
21302900000 -5.316963e+000 5.505440e+001 -4.064881e+001 -1.091372e+002 -4.072803e+001 -1.044697e+002 -6.886524e+000 -8.579073e+001
21321643750 -5.330897e+000 5.422160e+001 -4.080544e+001 -1.098266e+002 -4.082261e+001 -1.044177e+002 -6.649194e+000 -8.714889e+001
21340387500 -5.350214e+000 5.339211e+001 -4.092847e+001 -1.104048e+002 -4.091293e+001 -1.052957e+002 -6.429256e+000 -8.859976e+001
21359131250 -5.362769e+000 5.254789e+001 -4.115949e+001 -1.109371e+002 -4.101810e+001 -1.064261e+002 -6.217819e+000 -9.001434e+001
21377875000 -5.380843e+000 5.174274e+001 -4.131631e+001 -1.106825e+002 -4.119584e+001 -1.072657e+002 -6.025704e+000 -9.141095e+001
21396618750 -5.402318e+000 5.088194e+001 -4.149197e+001 -1.112114e+002 -4.123109e+001 -1.095010e+002 -5.844682e+000 -9.282411e+001
21415362500 -5.414180e+000 4.997282e+001 -4.165960e+001 -1.125237e+002 -4.123277e+001 -1.116365e+002 -5.675473e+000 -9.419497e+001
21434106250 -5.428833e+000 4.916909e+001 -4.167118e+001 -1.134000e+002 -4.139129e+001 -1.126700e+002 -5.519488e+000 -9.556039e+001
21452850000 -5.447907e+000 4.831173e+001 -4.184120e+001 -1.140815e+002 -4.150327e+001 -1.144900e+002 -5.372676e+000 -9.696097e+001
21471593750 -5.461391e+000 4.746688e+001 -4.192017e+001 -1.158295e+002 -4.176621e+001 -1.154741e+002 -5.237681e+000 -9.826283e+001
21490337500 -5.484582e+000 4.663925e+001 -4.205468e+001 -1.158364e+002 -4.173408e+001 -1.167710e+002 -5.112327e+000 -9.953929e+001
21509081250 -5.503603e+000 4.573814e+001 -4.224751e+001 -1.171835e+002 -4.195938e+001 -1.183011e+002 -4.986593e+000 -1.007884e+002
21527825000 -5.518496e+000 4.487107e+001 -4.237899e+001 -1.178476e+002 -4.193624e+001 -1.184817e+002 -4.876973e+000 -1.020174e+002
21546568750 -5.533364e+000 4.400895e+001 -4.245329e+001 -1.182876e+002 -4.202718e+001 -1.185159e+002 -4.773785e+000 -1.032479e+002
21565312500 -5.547010e+000 4.314416e+001 -4.239614e+001 -1.203303e+002 -4.222458e+001 -1.192269e+002 -4.670280e+000 -1.044481e+002
21584056250 -5.568185e+000 4.230521e+001 -4.243151e+001 -1.208135e+002 -4.224357e+001 -1.193833e+002 -4.576559e+000 -1.056081e+002
21602800000 -5.588872e+000 4.147738e+001 -4.253053e+001 -1.223998e+002 -4.262689e+001 -1.192227e+002 -4.490863e+000 -1.067341e+002
21621543750 -5.608006e+000 4.058255e+001 -4.244346e+001 -1.228270e+002 -4.277664e+001 -1.197566e+002 -4.406280e+000 -1.078793e+002
21640287500 -5.618507e+000 3.967559e+001 -4.248198e+001 -1.229332e+002 -4.293034e+001 -1.201531e+002 -4.325828e+000 -1.089647e+002
21659031250 -5.640496e+000 3.881075e+001 -4.257124e+001 -1.227631e+002 -4.301718e+001 -1.216650e+002 -4.246927e+000 -1.100280e+002
21677775000 -5.655610e+000 3.791174e+001 -4.258677e+001 -1.232042e+002 -4.315054e+001 -1.232518e+002 -4.170239e+000 -1.110933e+002
21696518750 -5.668977e+000 3.707693e+001 -4.289523e+001 -1.245987e+002 -4.311135e+001 -1.234461e+002 -4.100118e+000 -1.120778e+002
21715262500 -5.693668e+000 3.622030e+001 -4.304091e+001 -1.246392e+002 -4.315568e+001 -1.246265e+002 -4.035380e+000 -1.131004e+002
21734006250 -5.709729e+000 3.527603e+001 -4.311793e+001 -1.252887e+002 -4.327549e+001 -1.249043e+002 -3.968075e+000 -1.141091e+002
21752750000 -5.723687e+000 3.436443e+001 -4.312165e+001 -1.261407e+002 -4.325764e+001 -1.266638e+002 -3.903343e+000 -1.150819e+002
21771493750 -5.738811e+000 3.348307e+001 -4.317894e+001 -1.272004e+002 -4.324802e+001 -1.279525e+002 -3.843113e+000 -1.160514e+002
21790237500 -5.757577e+000 3.260866e+001 -4.311917e+001 -1.279853e+002 -4.315924e+001 -1.286087e+002 -3.780128e+000 -1.170138e+002
21808981250 -5.775064e+000 3.174544e+001 -4.306810e+001 -1.294643e+002 -4.328461e+001 -1.303762e+002 -3.717536e+000 -1.179428e+002
21827725000 -5.799083e+000 3.084503e+001 -4.312410e+001 -1.308003e+002 -4.341397e+001 -1.298621e+002 -3.661504e+000 -1.188520e+002
21846468750 -5.819643e+000 2.991048e+001 -4.321717e+001 -1.308259e+002 -4.344397e+001 -1.298911e+002 -3.605766e+000 -1.198045e+002
21865212500 -5.835961e+000 2.898956e+001 -4.338639e+001 -1.333337e+002 -4.336499e+001 -1.301927e+002 -3.554085e+000 -1.207112e+002
21883956250 -5.852634e+000 2.808663e+001 -4.337745e+001 -1.340289e+002 -4.349109e+001 -1.291199e+002 -3.503195e+000 -1.215978e+002
21902700000 -5.868929e+000 2.717180e+001 -4.334570e+001 -1.335042e+002 -4.347507e+001 -1.288909e+002 -3.447299e+000 -1.225216e+002
21921443750 -5.888444e+000 2.629837e+001 -4.332516e+001 -1.351988e+002 -4.344411e+001 -1.291828e+002 -3.393305e+000 -1.233926e+002
21940187500 -5.914685e+000 2.537028e+001 -4.328942e+001 -1.359366e+002 -4.341653e+001 -1.293600e+002 -3.345656e+000 -1.242955e+002
21958931250 -5.927852e+000 2.439201e+001 -4.347001e+001 -1.369575e+002 -4.340701e+001 -1.309620e+002 -3.296157e+000 -1.251622e+002
21977675000 -5.943046e+000 2.345915e+001 -4.360213e+001 -1.372280e+002 -4.333442e+001 -1.327283e+002 -3.247695e+000 -1.260447e+002
21996418750 -5.964439e+000 2.253761e+001 -4.380684e+001 -1.371551e+002 -4.343498e+001 -1.321453e+002 -3.208000e+000 -1.269194e+002
22015162500 -5.972401e+000 2.161133e+001 -4.385942e+001 -1.369901e+002 -4.364924e+001 -1.324921e+002 -3.162459e+000 -1.277703e+002
22033906250 -5.996254e+000 2.072695e+001 -4.401876e+001 -1.372015e+002 -4.378566e+001 -1.357881e+002 -3.117639e+000 -1.286031e+002
22052650000 -6.025811e+000 1.975783e+001 -4.423680e+001 -1.379485e+002 -4.381070e+001 -1.362745e+002 -3.077991e+000 -1.294592e+002
22071393750 -6.042948e+000 1.881902e+001 -4.427829e+001 -1.385484e+002 -4.399224e+001 -1.378608e+002 -3.036919e+000 -1.303256e+002
22090137500 -6.057326e+000 1.789742e+001 -4.428522e+001 -1.396271e+002 -4.407564e+001 -1.382138e+002 -2.999379e+000 -1.311461e+002
22108881250 -6.074263e+000 1.693666e+001 -4.447133e+001 -1.410697e+002 -4.397751e+001 -1.382769e+002 -2.962502e+000 -1.319896e+002
22127625000 -6.090121e+000 1.603185e+001 -4.429831e+001 -1.415911e+002 -4.401563e+001 -1.394701e+002 -2.923992e+000 -1.328209e+002
22146368750 -6.111785e+000 1.507903e+001 -4.441322e+001 -1.412757e+002 -4.406456e+001 -1.403462e+002 -2.887160e+000 -1.336478e+002
22165112500 -6.137609e+000 1.409969e+001 -4.453609e+001 -1.418748e+002 -4.421556e+001 -1.408106e+002 -2.851439e+000 -1.344662e+002
22183856250 -6.149102e+000 1.311662e+001 -4.459888e+001 -1.422641e+002 -4.428201e+001 -1.406733e+002 -2.816971e+000 -1.352687e+002
22202600000 -6.164281e+000 1.217147e+001 -4.465052e+001 -1.426061e+002 -4.435806e+001 -1.401528e+002 -2.784907e+000 -1.360870e+002
22221343750 -6.178643e+000 1.119250e+001 -4.474121e+001 -1.436537e+002 -4.453345e+001 -1.399139e+002 -2.754754e+000 -1.369182e+002
22240087500 -6.195786e+000 1.027142e+001 -4.484964e+001 -1.446779e+002 -4.446239e+001 -1.388138e+002 -2.717678e+000 -1.377136e+002
22258831250 -6.215504e+000 9.329535e+000 -4.476936e+001 -1.455540e+002 -4.447386e+001 -1.391041e+002 -2.688788e+000 -1.385180e+002
22277575000 -6.236449e+000 8.307377e+000 -4.482269e+001 -1.464164e+002 -4.449013e+001 -1.384686e+002 -2.655246e+000 -1.393144e+002
22296318750 -6.244894e+000 7.321940e+000 -4.471620e+001 -1.452855e+002 -4.458908e+001 -1.384260e+002 -2.621191e+000 -1.401063e+002
22315062500 -6.261016e+000 6.363678e+000 -4.472173e+001 -1.453936e+002 -4.450684e+001 -1.391452e+002 -2.592932e+000 -1.408976e+002
22333806250 -6.272803e+000 5.366965e+000 -4.477509e+001 -1.464310e+002 -4.447131e+001 -1.392566e+002 -2.564104e+000 -1.417033e+002
22352550000 -6.279168e+000 4.412852e+000 -4.477856e+001 -1.461403e+002 -4.445484e+001 -1.402168e+002 -2.534720e+000 -1.424762e+002
22371293750 -6.301561e+000 3.469455e+000 -4.483195e+001 -1.461440e+002 -4.457615e+001 -1.407350e+002 -2.509287e+000 -1.432619e+002
22390037500 -6.328211e+000 2.434258e+000 -4.494597e+001 -1.463621e+002 -4.472763e+001 -1.412651e+002 -2.483470e+000 -1.440717e+002
22408781250 -6.336665e+000 1.449461e+000 -4.500255e+001 -1.474559e+002 -4.496257e+001 -1.413230e+002 -2.456834e+000 -1.448335e+002
22427525000 -6.350563e+000 4.293701e-001 -4.503556e+001 -1.473495e+002 -4.490325e+001 -1.434043e+002 -2.431564e+000 -1.456205e+002
22446268750 -6.360508e+000 -5.672854e-001 -4.490014e+001 -1.482292e+002 -4.519359e+001 -1.432722e+002 -2.405556e+000 -1.464287e+002
22465012500 -6.370195e+000 -1.530950e+000 -4.496360e+001 -1.479105e+002 -4.507674e+001 -1.417336e+002 -2.381949e+000 -1.472294e+002
22483756250 -6.386245e+000 -2.504002e+000 -4.489604e+001 -1.481429e+002 -4.505268e+001 -1.419643e+002 -2.359488e+000 -1.480000e+002
22502500000 -6.396258e+000 -3.539778e+000 -4.486512e+001 -1.488636e+002 -4.490131e+001 -1.428042e+002 -2.332624e+000 -1.487801e+002
22521243750 -6.406601e+000 -4.575637e+000 -4.486382e+001 -1.495282e+002 -4.479581e+001 -1.437918e+002 -2.309520e+000 -1.495280e+002
22539987500 -6.415522e+000 -5.595323e+000 -4.476768e+001 -1.498890e+002 -4.482966e+001 -1.441165e+002 -2.289177e+000 -1.502914e+002
22558731250 -6.419981e+000 -6.595853e+000 -4.488061e+001 -1.499482e+002 -4.475415e+001 -1.429788e+002 -2.265473e+000 -1.510572e+002
22577475000 -6.427420e+000 -7.529171e+000 -4.484903e+001 -1.505684e+002 -4.486119e+001 -1.420571e+002 -2.244555e+000 -1.517870e+002
22596218750 -6.447348e+000 -8.498459e+000 -4.501740e+001 -1.512702e+002 -4.475739e+001 -1.430981e+002 -2.227206e+000 -1.525266e+002
22614962500 -6.464190e+000 -9.539050e+000 -4.508607e+001 -1.519779e+002 -4.483979e+001 -1.434109e+002 -2.209347e+000 -1.533083e+002
22633706250 -6.470838e+000 -1.058169e+001 -4.510909e+001 -1.524237e+002 -4.479616e+001 -1.446396e+002 -2.185519e+000 -1.540446e+002
22652450000 -6.485631e+000 -1.157037e+001 -4.524730e+001 -1.518356e+002 -4.488208e+001 -1.451183e+002 -2.169490e+000 -1.547482e+002
22671193750 -6.490639e+000 -1.264055e+001 -4.514869e+001 -1.518877e+002 -4.502844e+001 -1.481071e+002 -2.157517e+000 -1.555242e+002
22689937500 -6.498119e+000 -1.358639e+001 -4.531009e+001 -1.516989e+002 -4.501217e+001 -1.477731e+002 -2.133248e+000 -1.562502e+002
22708681250 -6.515944e+000 -1.457535e+001 -4.526913e+001 -1.537665e+002 -4.501621e+001 -1.499335e+002 -2.127995e+000 -1.569310e+002
22727425000 -6.529791e+000 -1.564890e+001 -4.536475e+001 -1.545710e+002 -4.537305e+001 -1.524160e+002 -2.115728e+000 -1.577049e+002
22746168750 -6.533505e+000 -1.668727e+001 -4.565851e+001 -1.553966e+002 -4.558285e+001 -1.538226e+002 -2.095727e+000 -1.583936e+002
22764912500 -6.547140e+000 -1.770432e+001 -4.570332e+001 -1.565188e+002 -4.573765e+001 -1.565529e+002 -2.090423e+000 -1.590592e+002
22783656250 -6.555524e+000 -1.873116e+001 -4.588261e+001 -1.582049e+002 -4.583797e+001 -1.569196e+002 -2.080732e+000 -1.598427e+002
22802400000 -6.560126e+000 -1.971344e+001 -4.606222e+001 -1.592517e+002 -4.578720e+001 -1.575633e+002 -2.063968e+000 -1.604958e+002
22821143750 -6.572219e+000 -2.070943e+001 -4.599400e+001 -1.612739e+002 -4.586937e+001 -1.578413e+002 -2.059448e+000 -1.611815e+002
22839887500 -6.579481e+000 -2.177645e+001 -4.587560e+001 -1.626755e+002 -4.586099e+001 -1.597110e+002 -2.047645e+000 -1.619248e+002
22858631250 -6.582285e+000 -2.279194e+001 -4.588589e+001 -1.635370e+002 -4.591734e+001 -1.607275e+002 -2.031508e+000 -1.625677e+002
22877375000 -6.588172e+000 -2.383478e+001 -4.617873e+001 -1.654321e+002 -4.561444e+001 -1.619507e+002 -2.032705e+000 -1.632250e+002
22896118750 -6.586666e+000 -2.489385e+001 -4.612129e+001 -1.680365e+002 -4.548338e+001 -1.609396e+002 -2.016361e+000 -1.639588e+002
22914862500 -6.601251e+000 -2.586534e+001 -4.631809e+001 -1.706608e+002 -4.560510e+001 -1.632212e+002 -2.003695e+000 -1.645692e+002
22933606250 -6.618316e+000 -2.693011e+001 -4.658479e+001 -1.730564e+002 -4.567285e+001 -1.635461e+002 -2.007088e+000 -1.652286e+002
22952350000 -6.622986e+000 -2.797703e+001 -4.664378e+001 -1.737730e+002 -4.588411e+001 -1.634216e+002 -1.994846e+000 -1.659608e+002
22971093750 -6.627481e+000 -2.901513e+001 -4.693760e+001 -1.736552e+002 -4.599509e+001 -1.647061e+002 -1.987644e+000 -1.665482e+002
22989837500 -6.634953e+000 -3.010571e+001 -4.695814e+001 -1.735204e+002 -4.647765e+001 -1.667632e+002 -1.988964e+000 -1.672359e+002
23008581250 -6.634205e+000 -3.111799e+001 -4.708788e+001 -1.749242e+002 -4.646199e+001 -1.689684e+002 -1.974594e+000 -1.679298e+002
23027325000 -6.634961e+000 -3.213271e+001 -4.711650e+001 -1.745976e+002 -4.648453e+001 -1.704255e+002 -1.965296e+000 -1.685373e+002
23046068750 -6.635614e+000 -3.316374e+001 -4.740174e+001 -1.741525e+002 -4.646534e+001 -1.712845e+002 -1.965856e+000 -1.692038e+002
23064812500 -6.640155e+000 -3.419576e+001 -4.749060e+001 -1.755004e+002 -4.660855e+001 -1.718503e+002 -1.957464e+000 -1.698482e+002
23083556250 -6.641406e+000 -3.530476e+001 -4.764149e+001 -1.764423e+002 -4.675781e+001 -1.721681e+002 -1.952142e+000 -1.704519e+002
23102300000 -6.634675e+000 -3.634078e+001 -4.780619e+001 -1.777917e+002 -4.659715e+001 -1.702983e+002 -1.951833e+000 -1.710681e+002
23121043750 -6.632780e+000 -3.737943e+001 -4.786015e+001 1.798289e+002 -4.674561e+001 -1.725441e+002 -1.946975e+000 -1.717056e+002
23139787500 -6.631590e+000 -3.837006e+001 -4.781243e+001 1.796718e+002 -4.685444e+001 -1.723311e+002 -1.943084e+000 -1.723094e+002
23158531250 -6.633969e+000 -3.941090e+001 -4.802278e+001 1.787358e+002 -4.694559e+001 -1.720398e+002 -1.943795e+000 -1.729290e+002
23177275000 -6.638633e+000 -4.047002e+001 -4.798000e+001 1.769789e+002 -4.696382e+001 -1.718961e+002 -1.939008e+000 -1.735518e+002
23196018750 -6.634480e+000 -4.154753e+001 -4.806700e+001 1.780265e+002 -4.719354e+001 -1.722480e+002 -1.934688e+000 -1.741498e+002
23214762500 -6.624996e+000 -4.257745e+001 -4.803208e+001 1.779126e+002 -4.739802e+001 -1.727471e+002 -1.929239e+000 -1.747631e+002
23233506250 -6.620523e+000 -4.358575e+001 -4.796345e+001 1.768374e+002 -4.742234e+001 -1.725062e+002 -1.926042e+000 -1.753701e+002
23252250000 -6.616217e+000 -4.461580e+001 -4.788939e+001 1.755196e+002 -4.748988e+001 -1.734941e+002 -1.921569e+000 -1.759615e+002
23270993750 -6.620486e+000 -4.564037e+001 -4.811997e+001 1.755215e+002 -4.749905e+001 -1.740915e+002 -1.922861e+000 -1.765402e+002
23289737500 -6.624108e+000 -4.671469e+001 -4.831606e+001 1.722772e+002 -4.760260e+001 -1.734928e+002 -1.917759e+000 -1.771191e+002
23308481250 -6.619987e+000 -4.779591e+001 -4.849722e+001 1.715998e+002 -4.774804e+001 -1.764021e+002 -1.913899e+000 -1.776864e+002
23327225000 -6.612911e+000 -4.880492e+001 -4.858831e+001 1.727598e+002 -4.793409e+001 -1.787966e+002 -1.915959e+000 -1.782455e+002
23345968750 -6.599704e+000 -4.983220e+001 -4.871863e+001 1.720937e+002 -4.784389e+001 -1.787240e+002 -1.909819e+000 -1.788408e+002
23364712500 -6.597229e+000 -5.080310e+001 -4.862251e+001 1.726459e+002 -4.817614e+001 -1.782045e+002 -1.905798e+000 -1.793970e+002
23383456250 -6.595363e+000 -5.184017e+001 -4.874627e+001 1.729608e+002 -4.828795e+001 -1.793883e+002 -1.902339e+000 -1.799597e+002
23402200000 -6.594045e+000 -5.289528e+001 -4.868132e+001 1.719483e+002 -4.825110e+001 -1.799047e+002 -1.897415e+000 1.794664e+002
23420943750 -6.585427e+000 -5.395264e+001 -4.897476e+001 1.697592e+002 -4.815987e+001 1.799535e+002 -1.893786e+000 1.789400e+002
23439687500 -6.577563e+000 -5.496418e+001 -4.909946e+001 1.692930e+002 -4.835705e+001 1.784042e+002 -1.896809e+000 1.783681e+002
23458431250 -6.569242e+000 -5.600339e+001 -4.917587e+001 1.676348e+002 -4.833715e+001 1.785676e+002 -1.892989e+000 1.778047e+002
23477175000 -6.567457e+000 -5.701350e+001 -4.901039e+001 1.664699e+002 -4.847400e+001 1.781466e+002 -1.889961e+000 1.772773e+002
23495918750 -6.561931e+000 -5.803893e+001 -4.927077e+001 1.659271e+002 -4.855170e+001 -1.799666e+002 -1.889990e+000 1.767149e+002
23514662500 -6.554674e+000 -5.909682e+001 -4.912917e+001 1.635381e+002 -4.853485e+001 1.783055e+002 -1.884623e+000 1.761549e+002
23533406250 -6.546098e+000 -6.012011e+001 -4.935293e+001 1.626990e+002 -4.850806e+001 1.757088e+002 -1.882347e+000 1.756181e+002
23552150000 -6.538319e+000 -6.115536e+001 -4.932437e+001 1.629572e+002 -4.866035e+001 1.752840e+002 -1.883627e+000 1.750479e+002
23570893750 -6.532957e+000 -6.219039e+001 -4.936534e+001 1.629098e+002 -4.903964e+001 1.727036e+002 -1.876531e+000 1.744910e+002
23589637500 -6.524108e+000 -6.319140e+001 -4.921365e+001 1.617368e+002 -4.878198e+001 1.720819e+002 -1.874532e+000 1.739849e+002
23608381250 -6.517946e+000 -6.420756e+001 -4.917850e+001 1.612349e+002 -4.919555e+001 1.720611e+002 -1.873439e+000 1.734271e+002
23627125000 -6.507059e+000 -6.526539e+001 -4.928038e+001 1.598569e+002 -4.888518e+001 1.714166e+002 -1.864511e+000 1.728926e+002
23645868750 -6.495927e+000 -6.630067e+001 -4.962731e+001 1.602839e+002 -4.884269e+001 1.704789e+002 -1.866536e+000 1.723807e+002
23664612500 -6.486722e+000 -6.731163e+001 -4.971194e+001 1.614013e+002 -4.895636e+001 1.680461e+002 -1.862528e+000 1.718203e+002
23683356250 -6.479339e+000 -6.830501e+001 -4.954801e+001 1.622301e+002 -4.888809e+001 1.676639e+002 -1.858295e+000 1.712997e+002
23702100000 -6.466647e+000 -6.932487e+001 -4.952219e+001 1.597787e+002 -4.881412e+001 1.684863e+002 -1.855861e+000 1.707801e+002
23720843750 -6.456799e+000 -7.031019e+001 -4.969147e+001 1.613211e+002 -4.886674e+001 1.664489e+002 -1.855881e+000 1.702033e+002
23739587500 -6.446131e+000 -7.134733e+001 -4.998453e+001 1.625375e+002 -4.874824e+001 1.678638e+002 -1.849005e+000 1.696876e+002
23758331250 -6.430596e+000 -7.235098e+001 -4.983947e+001 1.594731e+002 -4.881442e+001 1.656084e+002 -1.850801e+000 1.691546e+002
23777075000 -6.420028e+000 -7.334049e+001 -4.959772e+001 1.623188e+002 -4.913710e+001 1.652857e+002 -1.848069e+000 1.685905e+002
23795818750 -6.404646e+000 -7.437206e+001 -4.982891e+001 1.624879e+002 -4.945166e+001 1.658431e+002 -1.843081e+000 1.680675e+002
23814562500 -6.394619e+000 -7.536580e+001 -4.979320e+001 1.607290e+002 -4.914513e+001 1.667558e+002 -1.846605e+000 1.675293e+002
23833306250 -6.384090e+000 -7.635680e+001 -4.996704e+001 1.586331e+002 -4.928626e+001 1.654348e+002 -1.841298e+000 1.669734e+002
23852050000 -6.371648e+000 -7.737289e+001 -4.994548e+001 1.618505e+002 -4.939071e+001 1.651701e+002 -1.836901e+000 1.664428e+002
23870793750 -6.354333e+000 -7.837758e+001 -4.966801e+001 1.613990e+002 -4.942584e+001 1.665761e+002 -1.836518e+000 1.659274e+002
23889537500 -6.341134e+000 -7.935423e+001 -4.977403e+001 1.591311e+002 -4.958184e+001 1.679525e+002 -1.832851e+000 1.653674e+002
23908281250 -6.332222e+000 -8.033144e+001 -4.983784e+001 1.577722e+002 -4.944093e+001 1.668728e+002 -1.828517e+000 1.648586e+002
23927025000 -6.320125e+000 -8.133640e+001 -4.968077e+001 1.551913e+002 -4.995625e+001 1.629772e+002 -1.830023e+000 1.643175e+002
23945768750 -6.310400e+000 -8.230443e+001 -4.962457e+001 1.553361e+002 -5.002291e+001 1.631550e+002 -1.828821e+000 1.637446e+002
23964512500 -6.297451e+000 -8.333727e+001 -4.979071e+001 1.556154e+002 -5.045764e+001 1.664354e+002 -1.823487e+000 1.632453e+002
23983256250 -6.277392e+000 -8.429488e+001 -5.003416e+001 1.552185e+002 -5.021975e+001 1.657740e+002 -1.826377e+000 1.627120e+002
24002000000 -6.262389e+000 -8.526440e+001 -5.025429e+001 1.544776e+002 -5.008060e+001 1.674910e+002 -1.821486e+000 1.621689e+002
24020743750 -6.250294e+000 -8.623574e+001 -5.039402e+001 1.529308e+002 -5.003737e+001 1.672978e+002 -1.822538e+000 1.616624e+002
24039487500 -6.235237e+000 -8.720206e+001 -5.037297e+001 1.527684e+002 -4.982458e+001 1.649478e+002 -1.828283e+000 1.610921e+002
24058231250 -6.227651e+000 -8.817869e+001 -5.035077e+001 1.504787e+002 -4.990582e+001 1.647966e+002 -1.826804e+000 1.605177e+002
24076975000 -6.213935e+000 -8.920626e+001 -5.029310e+001 1.487563e+002 -4.995520e+001 1.650197e+002 -1.827327e+000 1.600073e+002
24095718750 -6.191599e+000 -9.015688e+001 -5.032939e+001 1.478994e+002 -4.991677e+001 1.654294e+002 -1.833535e+000 1.594435e+002
24114462500 -6.176598e+000 -9.112653e+001 -5.054225e+001 1.472465e+002 -5.006276e+001 1.641058e+002 -1.833686e+000 1.589048e+002
24133206250 -6.161914e+000 -9.206033e+001 -5.065863e+001 1.490410e+002 -5.025492e+001 1.618743e+002 -1.835954e+000 1.584069e+002
24151950000 -6.148415e+000 -9.305754e+001 -5.067068e+001 1.491564e+002 -5.005774e+001 1.627440e+002 -1.840307e+000 1.578599e+002
24170693750 -6.135255e+000 -9.402612e+001 -5.025851e+001 1.466076e+002 -5.016692e+001 1.613831e+002 -1.840923e+000 1.573221e+002
24189437500 -6.117726e+000 -9.503081e+001 -5.058901e+001 1.471771e+002 -5.001833e+001 1.600237e+002 -1.846153e+000 1.568540e+002
24208181250 -6.097272e+000 -9.599648e+001 -5.068304e+001 1.437484e+002 -5.004704e+001 1.577800e+002 -1.854078e+000 1.563110e+002
24226925000 -6.078800e+000 -9.694711e+001 -5.071532e+001 1.432516e+002 -4.973366e+001 1.563408e+002 -1.853015e+000 1.557888e+002
24245668750 -6.062038e+000 -9.788259e+001 -5.083913e+001 1.415086e+002 -5.003507e+001 1.524309e+002 -1.858472e+000 1.552945e+002
24264412500 -6.046265e+000 -9.883375e+001 -5.070967e+001 1.426347e+002 -4.999321e+001 1.535336e+002 -1.864380e+000 1.547420e+002
24283156250 -6.029235e+000 -9.979413e+001 -5.062331e+001 1.373524e+002 -4.987312e+001 1.517827e+002 -1.863905e+000 1.542291e+002
24301900000 -6.009886e+000 -1.007479e+002 -5.082357e+001 1.363048e+002 -4.979444e+001 1.480935e+002 -1.869031e+000 1.537622e+002
24320643750 -5.988304e+000 -1.016941e+002 -5.077755e+001 1.355901e+002 -4.970657e+001 1.428527e+002 -1.875627e+000 1.532078e+002
24339387500 -5.963401e+000 -1.026298e+002 -5.068930e+001 1.342372e+002 -4.990463e+001 1.406590e+002 -1.876778e+000 1.527038e+002
24358131250 -5.949420e+000 -1.035623e+002 -5.099854e+001 1.360414e+002 -4.951065e+001 1.388047e+002 -1.882327e+000 1.522134e+002
24376875000 -5.933437e+000 -1.045212e+002 -5.109387e+001 1.340917e+002 -4.931134e+001 1.374812e+002 -1.885785e+000 1.516918e+002
24395618750 -5.913290e+000 -1.054847e+002 -5.079107e+001 1.318124e+002 -4.903546e+001 1.321870e+002 -1.885769e+000 1.511832e+002
24414362500 -5.895813e+000 -1.064273e+002 -5.087421e+001 1.310257e+002 -4.933664e+001 1.306541e+002 -1.888687e+000 1.506877e+002
24433106250 -5.878408e+000 -1.073551e+002 -5.145667e+001 1.322449e+002 -4.915902e+001 1.281048e+002 -1.891327e+000 1.501454e+002
24451850000 -5.854916e+000 -1.082830e+002 -5.162005e+001 1.320139e+002 -4.924060e+001 1.265158e+002 -1.885521e+000 1.496558e+002
24470593750 -5.839442e+000 -1.091682e+002 -5.188175e+001 1.305293e+002 -4.898959e+001 1.287346e+002 -1.889804e+000 1.491812e+002
24489337500 -5.821526e+000 -1.101001e+002 -5.223742e+001 1.324200e+002 -5.047091e+001 1.264289e+002 -1.891134e+000 1.486530e+002
24508081250 -5.799776e+000 -1.110016e+002 -5.198537e+001 1.293418e+002 -5.095939e+001 1.242041e+002 -1.889741e+000 1.481833e+002
24526825000 -5.781459e+000 -1.119530e+002 -5.216384e+001 1.280029e+002 -5.119873e+001 1.217823e+002 -1.896063e+000 1.477022e+002
24545568750 -5.759148e+000 -1.128713e+002 -5.269842e+001 1.247871e+002 -5.119599e+001 1.196353e+002 -1.891412e+000 1.471759e+002
24564312500 -5.737635e+000 -1.137717e+002 -5.266167e+001 1.227564e+002 -5.089430e+001 1.189170e+002 -1.889987e+000 1.466848e+002
24583056250 -5.723628e+000 -1.146560e+002 -5.253422e+001 1.224569e+002 -5.134307e+001 1.178513e+002 -1.892723e+000 1.461932e+002
24601800000 -5.706397e+000 -1.155813e+002 -5.280928e+001 1.220769e+002 -5.135507e+001 1.169892e+002 -1.892113e+000 1.456555e+002
24620543750 -5.688239e+000 -1.165084e+002 -5.270395e+001 1.207297e+002 -5.168213e+001 1.156250e+002 -1.888601e+000 1.451543e+002
24639287500 -5.669508e+000 -1.174025e+002 -5.348364e+001 1.206809e+002 -5.247933e+001 1.140884e+002 -1.894949e+000 1.446764e+002
24658031250 -5.652144e+000 -1.183029e+002 -5.371719e+001 1.152748e+002 -5.242714e+001 1.080957e+002 -1.893996e+000 1.441375e+002
24676775000 -5.632178e+000 -1.191995e+002 -5.390357e+001 1.170586e+002 -5.272475e+001 1.080267e+002 -1.891617e+000 1.436550e+002
24695518750 -5.617700e+000 -1.201072e+002 -5.439383e+001 1.244053e+002 -5.312811e+001 1.004744e+002 -1.896918e+000 1.431565e+002
24714262500 -5.602252e+000 -1.210301e+002 -5.487532e+001 1.332433e+002 -5.294742e+001 9.866219e+001 -1.893440e+000 1.426261e+002
24733006250 -5.579394e+000 -1.219592e+002 -5.535030e+001 1.397840e+002 -5.309742e+001 1.000312e+002 -1.891861e+000 1.421187e+002
24751750000 -5.563664e+000 -1.228460e+002 -5.534647e+001 1.560181e+002 -5.321749e+001 9.894549e+001 -1.893445e+000 1.416388e+002
24770493750 -5.547332e+000 -1.237322e+002 -5.586709e+001 1.675808e+002 -5.339034e+001 9.150079e+001 -1.890058e+000 1.411336e+002
24789237500 -5.527580e+000 -1.245892e+002 -5.602565e+001 1.794288e+002 -5.334335e+001 8.689435e+001 -1.893546e+000 1.406617e+002
24807981250 -5.512136e+000 -1.254441e+002 -5.602607e+001 -1.654953e+002 -5.328898e+001 8.419678e+001 -1.901017e+000 1.401644e+002
24826725000 -5.496265e+000 -1.263362e+002 -5.636222e+001 -1.583618e+002 -5.356902e+001 7.944251e+001 -1.897897e+000 1.396503e+002
24845468750 -5.476740e+000 -1.272217e+002 -5.643589e+001 -1.465518e+002 -5.365260e+001 7.406120e+001 -1.900359e+000 1.391936e+002
24864212500 -5.453777e+000 -1.280983e+002 -5.589233e+001 -1.379341e+002 -5.367263e+001 7.024803e+001 -1.903151e+000 1.386926e+002
24882956250 -5.435379e+000 -1.289398e+002 -5.579318e+001 -1.285262e+002 -5.365315e+001 6.976936e+001 -1.902246e+000 1.382002e+002
24901700000 -5.417715e+000 -1.297970e+002 -5.585140e+001 -1.144574e+002 -5.395996e+001 6.308008e+001 -1.899896e+000 1.377506e+002
24920443750 -5.404096e+000 -1.306492e+002 -5.605264e+001 -1.067152e+002 -5.280271e+001 5.855364e+001 -1.901727e+000 1.372469e+002
24939187500 -5.384689e+000 -1.315490e+002 -5.703636e+001 -1.022560e+002 -5.277963e+001 6.091600e+001 -1.891001e+000 1.367232e+002
24957931250 -5.367916e+000 -1.324411e+002 -5.707392e+001 -1.068919e+002 -5.277922e+001 7.061201e+001 -1.882862e+000 1.362302e+002
24976675000 -5.347162e+000 -1.332907e+002 -5.690134e+001 -1.164122e+002 -5.263279e+001 7.944743e+001 -1.885188e+000 1.357116e+002
24995418750 -5.325560e+000 -1.341328e+002 -5.710479e+001 -1.321572e+002 -5.322579e+001 9.066282e+001 -1.878975e+000 1.351737e+002
25014162500 -5.306255e+000 -1.349239e+002 -5.733437e+001 -1.481169e+002 -5.317040e+001 9.697941e+001 -1.879073e+000 1.346497e+002
25032906250 -5.290475e+000 -1.357897e+002 -5.698480e+001 -1.550835e+002 -5.333042e+001 1.104779e+002 -1.875842e+000 1.340817e+002
25051650000 -5.272901e+000 -1.366201e+002 -5.776315e+001 -1.568751e+002 -5.360381e+001 1.282512e+002 -1.869020e+000 1.335032e+002
25070393750 -5.249761e+000 -1.374684e+002 -5.769081e+001 -1.661912e+002 -5.285796e+001 1.386288e+002 -1.863130e+000 1.330010e+002
25089137500 -5.231097e+000 -1.382958e+002 -5.870681e+001 -1.695457e+002 -5.328226e+001 1.425714e+002 -1.860078e+000 1.324681e+002
25107881250 -5.212340e+000 -1.390875e+002 -5.880946e+001 -1.760482e+002 -5.348871e+001 1.474373e+002 -1.856218e+000 1.319500e+002
25126625000 -5.195948e+000 -1.398569e+002 -5.903052e+001 1.696094e+002 -5.346668e+001 1.548132e+002 -1.858172e+000 1.314266e+002
25145368750 -5.183909e+000 -1.406761e+002 -5.905497e+001 1.578569e+002 -5.417047e+001 1.589473e+002 -1.861694e+000 1.308585e+002
25164112500 -5.169638e+000 -1.415098e+002 -5.873029e+001 1.412268e+002 -5.415335e+001 1.603693e+002 -1.855627e+000 1.303115e+002
25182856250 -5.152020e+000 -1.423281e+002 -5.889271e+001 1.108740e+002 -5.470612e+001 1.640249e+002 -1.859340e+000 1.297862e+002
25201600000 -5.130603e+000 -1.431688e+002 -5.932551e+001 7.911234e+001 -5.457434e+001 1.696131e+002 -1.859871e+000 1.292377e+002
25220343750 -5.112862e+000 -1.439401e+002 -5.959674e+001 5.302143e+001 -5.479507e+001 1.705665e+002 -1.858415e+000 1.287207e+002
25239087500 -5.097971e+000 -1.447185e+002 -5.982807e+001 2.116116e+001 -5.562391e+001 1.670727e+002 -1.861944e+000 1.282106e+002
25257831250 -5.084169e+000 -1.455179e+002 -5.954300e+001 4.510419e+000 -5.535373e+001 1.619006e+002 -1.871414e+000 1.276482e+002
25276575000 -5.065167e+000 -1.463447e+002 -5.935726e+001 -1.231279e+001 -5.545608e+001 1.506391e+002 -1.870443e+000 1.271293e+002
25295318750 -5.046570e+000 -1.471527e+002 -5.949078e+001 -2.814703e+001 -5.576485e+001 1.377953e+002 -1.875879e+000 1.266040e+002
25314062500 -5.026756e+000 -1.479689e+002 -5.968242e+001 -4.236398e+001 -5.595528e+001 1.260625e+002 -1.878873e+000 1.260355e+002
25332806250 -5.004869e+000 -1.487293e+002 -5.960156e+001 -5.398752e+001 -5.610890e+001 1.152000e+002 -1.881682e+000 1.255428e+002
25351550000 -4.992718e+000 -1.494900e+002 -5.941135e+001 -5.964312e+001 -5.595989e+001 1.057692e+002 -1.895116e+000 1.250692e+002
25370293750 -4.985428e+000 -1.502816e+002 -5.856994e+001 -6.260487e+001 -5.601543e+001 9.051850e+001 -1.909265e+000 1.245597e+002
25389037500 -4.968542e+000 -1.510800e+002 -5.879018e+001 -5.562222e+001 -5.594763e+001 6.751685e+001 -1.924696e+000 1.240594e+002
25407781250 -4.949505e+000 -1.518553e+002 -5.846517e+001 -4.697931e+001 -5.606551e+001 3.984409e+001 -1.932196e+000 1.235843e+002
25426525000 -4.937069e+000 -1.526213e+002 -5.843668e+001 -2.960950e+001 -5.623914e+001 3.225216e+000 -1.946872e+000 1.231064e+002
25445268750 -4.917010e+000 -1.534227e+002 -5.842427e+001 -1.649640e+001 -5.640301e+001 -3.653827e+001 -1.952545e+000 1.226626e+002
25464012500 -4.904352e+000 -1.541105e+002 -5.860733e+001 -1.742936e+001 -5.625196e+001 -8.328747e+001 -1.972383e+000 1.222540e+002
25482756250 -4.896321e+000 -1.549265e+002 -5.789861e+001 -2.074867e+001 -5.575948e+001 -1.330217e+002 -1.989335e+000 1.218121e+002
25501500000 -4.881018e+000 -1.557595e+002 -5.785973e+001 -1.497188e+001 -5.579399e+001 -1.775910e+002 -1.996889e+000 1.213247e+002
25520243750 -4.861237e+000 -1.565155e+002 -5.659064e+001 -1.173381e+001 -5.627593e+001 1.408940e+002 -2.011044e+000 1.209183e+002
25538987500 -4.846374e+000 -1.572913e+002 -5.619097e+001 -1.177247e+001 -5.600166e+001 1.003765e+002 -2.024532e+000 1.204607e+002
25557731250 -4.827648e+000 -1.580548e+002 -5.588149e+001 -1.193836e+001 -5.578694e+001 5.803368e+001 -2.033801e+000 1.200473e+002
25576475000 -4.813914e+000 -1.587795e+002 -5.563014e+001 -1.399305e+001 -5.556118e+001 1.889467e+001 -2.053166e+000 1.196408e+002
25595218750 -4.805804e+000 -1.595552e+002 -5.555358e+001 -1.063116e+001 -5.569690e+001 -1.854792e+001 -2.073791e+000 1.192025e+002
25613962500 -4.788552e+000 -1.603413e+002 -5.522844e+001 1.006633e+000 -5.505362e+001 -5.556973e+001 -2.082354e+000 1.187626e+002
25632706250 -4.770858e+000 -1.610730e+002 -5.432288e+001 1.458812e+001 -5.511574e+001 -8.893687e+001 -2.096079e+000 1.183494e+002
25651450000 -4.753371e+000 -1.618299e+002 -5.344535e+001 2.270724e+001 -5.528240e+001 -1.204822e+002 -2.109818e+000 1.179135e+002
25670193750 -4.735076e+000 -1.625449e+002 -5.331848e+001 3.574628e+001 -5.459224e+001 -1.517863e+002 -2.119624e+000 1.175074e+002
25688937500 -4.724775e+000 -1.632705e+002 -5.332392e+001 3.914766e+001 -5.468484e+001 -1.760781e+002 -2.135826e+000 1.171082e+002
25707681250 -4.714976e+000 -1.640417e+002 -5.310063e+001 3.563879e+001 -5.431932e+001 1.641267e+002 -2.149306e+000 1.166437e+002
25726425000 -4.697733e+000 -1.647915e+002 -5.280769e+001 3.588951e+001 -5.399130e+001 1.449433e+002 -2.162551e+000 1.162263e+002
25745168750 -4.684856e+000 -1.655124e+002 -5.251461e+001 3.351015e+001 -5.404205e+001 1.207747e+002 -2.181133e+000 1.158218e+002
25763912500 -4.669689e+000 -1.662750e+002 -5.250208e+001 2.488028e+001 -5.385638e+001 9.713334e+001 -2.196534e+000 1.153675e+002
25782656250 -4.648040e+000 -1.669560e+002 -5.213008e+001 1.573575e+001 -5.363635e+001 7.366830e+001 -2.208662e+000 1.149737e+002
25801400000 -4.640175e+000 -1.676310e+002 -5.204658e+001 9.066494e+000 -5.315553e+001 4.884626e+001 -2.227032e+000 1.145414e+002
25820143750 -4.628815e+000 -1.683477e+002 -5.170287e+001 2.472165e+000 -5.306336e+001 2.394765e+001 -2.235064e+000 1.141061e+002
25838887500 -4.614674e+000 -1.690972e+002 -5.181806e+001 -1.616805e+000 -5.293449e+001 4.349389e+000 -2.253075e+000 1.136829e+002
25857631250 -4.600429e+000 -1.698248e+002 -5.150902e+001 -1.097134e+001 -5.241599e+001 -8.848148e+000 -2.263591e+000 1.132415e+002
25876375000 -4.588442e+000 -1.705206e+002 -5.096916e+001 -1.686399e+001 -5.195287e+001 -1.317633e+001 -2.281357e+000 1.128271e+002
25895118750 -4.577103e+000 -1.712156e+002 -5.066842e+001 -1.615396e+001 -5.215593e+001 -1.868622e+001 -2.291968e+000 1.124008e+002
25913862500 -4.569150e+000 -1.718846e+002 -5.030139e+001 -1.921213e+001 -5.220532e+001 -2.254661e+001 -2.306155e+000 1.119539e+002
25932606250 -4.561178e+000 -1.726030e+002 -4.969405e+001 -2.300459e+001 -5.206902e+001 -2.269522e+001 -2.325032e+000 1.115382e+002
25951350000 -4.550270e+000 -1.733222e+002 -4.959444e+001 -2.560890e+001 -5.108391e+001 -2.159756e+001 -2.342102e+000 1.110701e+002
25970093750 -4.533296e+000 -1.740332e+002 -4.988100e+001 -2.965420e+001 -5.076336e+001 -2.605385e+001 -2.355610e+000 1.106463e+002
25988837500 -4.520077e+000 -1.747122e+002 -4.938478e+001 -3.081190e+001 -5.072214e+001 -2.451037e+001 -2.370444e+000 1.102333e+002
26007581250 -4.508650e+000 -1.754013e+002 -4.903492e+001 -3.371028e+001 -5.060778e+001 -2.705839e+001 -2.384266e+000 1.098086e+002
26026325000 -4.496622e+000 -1.760818e+002 -4.886120e+001 -3.559450e+001 -5.037336e+001 -3.031951e+001 -2.393301e+000 1.093630e+002
26045068750 -4.482519e+000 -1.767811e+002 -4.874566e+001 -3.942183e+001 -5.051437e+001 -3.349471e+001 -2.415468e+000 1.089284e+002
26063812500 -4.473311e+000 -1.774727e+002 -4.876824e+001 -4.044085e+001 -5.022406e+001 -3.854074e+001 -2.432195e+000 1.084950e+002
26082556250 -4.460752e+000 -1.781755e+002 -4.881636e+001 -4.221859e+001 -4.966871e+001 -4.309119e+001 -2.443291e+000 1.080761e+002
26101300000 -4.448623e+000 -1.788481e+002 -4.866631e+001 -4.481692e+001 -4.989167e+001 -4.300275e+001 -2.462230e+000 1.076447e+002
26120043750 -4.438211e+000 -1.795058e+002 -4.895385e+001 -4.530356e+001 -4.967405e+001 -4.781376e+001 -2.477123e+000 1.071970e+002
26138787500 -4.429616e+000 1.798139e+002 -4.931016e+001 -4.582132e+001 -4.968467e+001 -4.952571e+001 -2.493789e+000 1.067664e+002
26157531250 -4.420006e+000 1.791110e+002 -4.939711e+001 -5.026479e+001 -4.971289e+001 -5.501765e+001 -2.510050e+000 1.063422e+002
26176275000 -4.407892e+000 1.784294e+002 -4.953085e+001 -5.109517e+001 -4.929887e+001 -5.882346e+001 -2.524291e+000 1.058820e+002
26195018750 -4.393304e+000 1.777590e+002 -4.947472e+001 -5.320399e+001 -4.915324e+001 -6.073990e+001 -2.538825e+000 1.054534e+002
26213762500 -4.381262e+000 1.770922e+002 -4.961677e+001 -5.565645e+001 -4.942435e+001 -6.041003e+001 -2.558536e+000 1.049919e+002
26232506250 -4.372170e+000 1.764191e+002 -4.953545e+001 -5.831569e+001 -4.986986e+001 -5.607438e+001 -2.573500e+000 1.045337e+002
26251250000 -4.359903e+000 1.757430e+002 -4.953576e+001 -6.312955e+001 -4.968382e+001 -4.248248e+001 -2.591569e+000 1.040803e+002
26269993750 -4.350396e+000 1.750735e+002 -4.954447e+001 -6.430456e+001 -4.962870e+001 -2.689547e+001 -2.604885e+000 1.036266e+002
26288737500 -4.334045e+000 1.743973e+002 -4.940757e+001 -6.494835e+001 -4.973510e+001 -1.296784e+001 -2.620538e+000 1.031872e+002
26307481250 -4.315615e+000 1.737357e+002 -4.947206e+001 -6.643069e+001 -4.995695e+001 -6.650770e-001 -2.636481e+000 1.027419e+002
26326225000 -4.300034e+000 1.730952e+002 -4.965619e+001 -6.705993e+001 -4.990601e+001 1.151332e+001 -2.658607e+000 1.022860e+002
26344968750 -4.287613e+000 1.724448e+002 -4.992667e+001 -6.831430e+001 -4.960279e+001 2.437590e+001 -2.679993e+000 1.018419e+002
26363712500 -4.275218e+000 1.718058e+002 -5.014167e+001 -6.803001e+001 -4.955643e+001 3.651008e+001 -2.698251e+000 1.013749e+002
26382456250 -4.263966e+000 1.711463e+002 -5.001679e+001 -7.198670e+001 -4.999239e+001 5.419662e+001 -2.719405e+000 1.009019e+002
26401200000 -4.253706e+000 1.704849e+002 -4.990357e+001 -7.154559e+001 -4.981546e+001 7.041212e+001 -2.735527e+000 1.004207e+002
26419943750 -4.239004e+000 1.698422e+002 -5.011337e+001 -7.536304e+001 -4.986198e+001 8.635452e+001 -2.754861e+000 9.994022e+001
26438687500 -4.227426e+000 1.692688e+002 -4.996714e+001 -7.736595e+001 -4.966610e+001 1.007367e+002 -2.778686e+000 9.948181e+001
26457431250 -4.222912e+000 1.686195e+002 -5.004240e+001 -7.870406e+001 -4.966286e+001 1.147201e+002 -2.802045e+000 9.898528e+001
26476175000 -4.215581e+000 1.679493e+002 -5.000303e+001 -8.055235e+001 -4.963966e+001 1.266216e+002 -2.824161e+000 9.850879e+001
26494918750 -4.202854e+000 1.673086e+002 -5.023045e+001 -8.385357e+001 -4.963486e+001 1.415822e+002 -2.845588e+000 9.796957e+001
26513662500 -4.190073e+000 1.666626e+002 -5.094886e+001 -8.760025e+001 -4.973124e+001 1.559039e+002 -2.867370e+000 9.742486e+001
26532406250 -4.172956e+000 1.660383e+002 -5.087734e+001 -9.039816e+001 -4.943643e+001 1.671744e+002 -2.881416e+000 9.695315e+001
26551150000 -4.162083e+000 1.654283e+002 -5.028751e+001 -9.318198e+001 -4.952526e+001 -1.785630e+002 -2.901549e+000 9.646570e+001
26569893750 -4.155691e+000 1.647998e+002 -5.025685e+001 -9.564178e+001 -4.985799e+001 -1.669913e+002 -2.923688e+000 9.597489e+001
26588637500 -4.145267e+000 1.641743e+002 -5.004127e+001 -9.848251e+001 -5.006961e+001 -1.519985e+002 -2.946377e+000 9.547382e+001
26607381250 -4.132033e+000 1.635293e+002 -5.017204e+001 -9.954281e+001 -5.027338e+001 -1.378408e+002 -2.968183e+000 9.497337e+001
26626125000 -4.119872e+000 1.628784e+002 -5.020353e+001 -1.016560e+002 -5.026315e+001 -1.239230e+002 -2.988032e+000 9.443672e+001
26644868750 -4.106925e+000 1.622574e+002 -4.982324e+001 -1.053105e+002 -5.003440e+001 -1.118227e+002 -3.006497e+000 9.394930e+001
26663612500 -4.092728e+000 1.616702e+002 -4.991962e+001 -1.044772e+002 -4.955937e+001 -1.051359e+002 -3.027019e+000 9.345187e+001
26682356250 -4.089628e+000 1.610419e+002 -4.976624e+001 -1.060904e+002 -4.972982e+001 -1.046657e+002 -3.047893e+000 9.296688e+001
26701100000 -4.079097e+000 1.604226e+002 -4.957175e+001 -1.072484e+002 -5.019436e+001 -1.064296e+002 -3.076993e+000 9.247967e+001
26719843750 -4.073172e+000 1.597855e+002 -4.971543e+001 -1.102158e+002 -4.995573e+001 -1.080377e+002 -3.100353e+000 9.194337e+001
26738587500 -4.064414e+000 1.591572e+002 -4.970898e+001 -1.112912e+002 -4.973980e+001 -1.090228e+002 -3.120054e+000 9.140046e+001
26757331250 -4.052550e+000 1.585661e+002 -4.953344e+001 -1.130266e+002 -4.956526e+001 -1.073068e+002 -3.139715e+000 9.089356e+001
26776075000 -4.042162e+000 1.580054e+002 -5.000161e+001 -1.112952e+002 -4.984521e+001 -1.082571e+002 -3.159669e+000 9.037824e+001
26794818750 -4.038706e+000 1.574030e+002 -4.965171e+001 -1.158706e+002 -4.956232e+001 -1.104779e+002 -3.174506e+000 8.985766e+001
26813562500 -4.028599e+000 1.567942e+002 -4.961600e+001 -1.174059e+002 -4.899718e+001 -1.152274e+002 -3.193295e+000 8.935469e+001
26832306250 -4.019437e+000 1.561871e+002 -4.948939e+001 -1.192153e+002 -4.915554e+001 -1.155395e+002 -3.215193e+000 8.882697e+001
26851050000 -4.007200e+000 1.555789e+002 -4.953892e+001 -1.186211e+002 -4.887763e+001 -1.190302e+002 -3.230079e+000 8.831906e+001
26869793750 -3.993990e+000 1.549835e+002 -4.977266e+001 -1.192848e+002 -4.896929e+001 -1.244366e+002 -3.245188e+000 8.781557e+001
26888537500 -3.984358e+000 1.544532e+002 -4.979269e+001 -1.221860e+002 -4.970955e+001 -1.257633e+002 -3.265321e+000 8.728087e+001
26907281250 -3.978345e+000 1.538858e+002 -4.990559e+001 -1.252170e+002 -4.972893e+001 -1.264621e+002 -3.277524e+000 8.679125e+001
26926025000 -3.971491e+000 1.533001e+002 -4.966610e+001 -1.251937e+002 -5.014460e+001 -1.281444e+002 -3.297086e+000 8.630161e+001
26944768750 -3.962735e+000 1.527159e+002 -4.890178e+001 -1.274228e+002 -5.014919e+001 -1.274990e+002 -3.313298e+000 8.578427e+001
26963512500 -3.952319e+000 1.521204e+002 -4.895504e+001 -1.279011e+002 -5.021934e+001 -1.294023e+002 -3.329817e+000 8.525053e+001
26982256250 -3.940259e+000 1.516065e+002 -4.934757e+001 -1.305987e+002 -5.028044e+001 -1.308043e+002 -3.349254e+000 8.475609e+001
27001000000 -3.935946e+000 1.510606e+002 -4.934237e+001 -1.304172e+002 -4.975052e+001 -1.307399e+002 -3.367914e+000 8.421098e+001
27019743750 -3.930528e+000 1.504609e+002 -4.941278e+001 -1.295046e+002 -4.954886e+001 -1.307897e+002 -3.381792e+000 8.369048e+001
27038487500 -3.927017e+000 1.499009e+002 -4.975747e+001 -1.347387e+002 -4.968837e+001 -1.295582e+002 -3.399909e+000 8.319025e+001
27057231250 -3.921877e+000 1.493152e+002 -4.955438e+001 -1.361573e+002 -4.958558e+001 -1.315058e+002 -3.416055e+000 8.266315e+001
27075975000 -3.909072e+000 1.487483e+002 -4.986906e+001 -1.359418e+002 -4.953635e+001 -1.340881e+002 -3.429788e+000 8.214270e+001
27094718750 -3.899829e+000 1.482353e+002 -4.977621e+001 -1.417353e+002 -4.961108e+001 -1.350369e+002 -3.447163e+000 8.163222e+001
27113462500 -3.896337e+000 1.477172e+002 -4.979985e+001 -1.421076e+002 -4.979239e+001 -1.380980e+002 -3.463288e+000 8.109808e+001
27132206250 -3.892292e+000 1.471465e+002 -5.008397e+001 -1.426949e+002 -4.955759e+001 -1.396021e+002 -3.475391e+000 8.054183e+001
27150950000 -3.883920e+000 1.465904e+002 -5.009872e+001 -1.420993e+002 -4.980057e+001 -1.390211e+002 -3.493483e+000 8.002940e+001
27169693750 -3.872759e+000 1.460219e+002 -5.024609e+001 -1.442777e+002 -4.963609e+001 -1.401173e+002 -3.506971e+000 7.951748e+001
27188437500 -3.861834e+000 1.454433e+002 -5.038467e+001 -1.470812e+002 -4.953630e+001 -1.434076e+002 -3.517043e+000 7.902190e+001
27207181250 -3.852509e+000 1.449208e+002 -4.965540e+001 -1.510383e+002 -4.945201e+001 -1.436008e+002 -3.529881e+000 7.849400e+001
27225925000 -3.849320e+000 1.443992e+002 -4.983862e+001 -1.516220e+002 -4.969349e+001 -1.445255e+002 -3.547705e+000 7.794304e+001
27244668750 -3.846220e+000 1.438439e+002 -5.010354e+001 -1.529524e+002 -4.974312e+001 -1.458011e+002 -3.563644e+000 7.740794e+001
27263412500 -3.838126e+000 1.432941e+002 -5.040474e+001 -1.551199e+002 -5.000048e+001 -1.499820e+002 -3.580327e+000 7.688974e+001
27282156250 -3.829978e+000 1.427360e+002 -5.007256e+001 -1.572063e+002 -5.006448e+001 -1.516303e+002 -3.591841e+000 7.633479e+001
27300900000 -3.817199e+000 1.421708e+002 -4.993211e+001 -1.605683e+002 -4.977273e+001 -1.511505e+002 -3.603559e+000 7.582597e+001
27319643750 -3.804922e+000 1.416429e+002 -4.999828e+001 -1.619276e+002 -4.888958e+001 -1.536493e+002 -3.618871e+000 7.534586e+001
27338387500 -3.800671e+000 1.411099e+002 -4.991946e+001 -1.625338e+002 -4.889666e+001 -1.565991e+002 -3.628724e+000 7.482507e+001
27357131250 -3.793740e+000 1.405345e+002 -4.985858e+001 -1.640726e+002 -4.851236e+001 -1.574753e+002 -3.641423e+000 7.433094e+001
27375875000 -3.786515e+000 1.399637e+002 -4.999641e+001 -1.631931e+002 -4.879385e+001 -1.606846e+002 -3.655434e+000 7.383077e+001
27394618750 -3.780633e+000 1.393788e+002 -4.988210e+001 -1.663236e+002 -4.871095e+001 -1.626187e+002 -3.668787e+000 7.331284e+001
27413362500 -3.768712e+000 1.387926e+002 -4.957485e+001 -1.672667e+002 -4.901637e+001 -1.652386e+002 -3.682263e+000 7.284006e+001
27432106250 -3.761205e+000 1.383189e+002 -4.927686e+001 -1.706340e+002 -4.917529e+001 -1.667432e+002 -3.694461e+000 7.233665e+001
27450850000 -3.762909e+000 1.378239e+002 -4.940357e+001 -1.731833e+002 -4.913132e+001 -1.706475e+002 -3.705187e+000 7.181832e+001
27469593750 -3.752800e+000 1.372394e+002 -4.876386e+001 -1.722935e+002 -4.896511e+001 -1.758969e+002 -3.717889e+000 7.128912e+001
27488337500 -3.744653e+000 1.366881e+002 -4.862152e+001 -1.743204e+002 -4.899150e+001 -1.787019e+002 -3.733667e+000 7.077782e+001
27507081250 -3.737423e+000 1.361246e+002 -4.863488e+001 -1.755785e+002 -4.894824e+001 1.782888e+002 -3.742827e+000 7.027827e+001
27525825000 -3.724247e+000 1.355780e+002 -4.892792e+001 -1.750961e+002 -4.884702e+001 1.753666e+002 -3.752617e+000 6.980405e+001
27544568750 -3.716649e+000 1.351026e+002 -4.912579e+001 -1.799810e+002 -4.869118e+001 1.704744e+002 -3.764714e+000 6.930865e+001
27563312500 -3.717343e+000 1.346059e+002 -4.922966e+001 1.769011e+002 -4.850521e+001 1.698726e+002 -3.768413e+000 6.885632e+001
27582056250 -3.709832e+000 1.340631e+002 -4.924395e+001 1.727147e+002 -4.827583e+001 1.646707e+002 -3.776974e+000 6.841544e+001
27600800000 -3.708012e+000 1.335258e+002 -4.914524e+001 1.698076e+002 -4.841732e+001 1.613293e+002 -3.789169e+000 6.791511e+001
27619543750 -3.697474e+000 1.329509e+002 -4.934024e+001 1.667243e+002 -4.884630e+001 1.587058e+002 -3.793857e+000 6.740262e+001
27638287500 -3.681532e+000 1.324477e+002 -4.944579e+001 1.635861e+002 -4.882291e+001 1.544071e+002 -3.803222e+000 6.695565e+001
27657031250 -3.675175e+000 1.319732e+002 -4.963356e+001 1.608563e+002 -4.881856e+001 1.524755e+002 -3.811970e+000 6.648872e+001
27675775000 -3.673243e+000 1.314301e+002 -4.964727e+001 1.570784e+002 -4.904595e+001 1.485874e+002 -3.809746e+000 6.604350e+001
27694518750 -3.667750e+000 1.308915e+002 -4.933270e+001 1.536436e+002 -4.872491e+001 1.480026e+002 -3.811834e+000 6.561834e+001
27713262500 -3.665205e+000 1.303573e+002 -4.967794e+001 1.486291e+002 -4.875906e+001 1.460967e+002 -3.822200e+000 6.513198e+001
27732006250 -3.658741e+000 1.298129e+002 -4.980774e+001 1.486239e+002 -4.882378e+001 1.444100e+002 -3.821301e+000 6.463854e+001
27750750000 -3.646675e+000 1.293003e+002 -4.983036e+001 1.492876e+002 -4.875697e+001 1.442481e+002 -3.826086e+000 6.418985e+001
27769493750 -3.647268e+000 1.288252e+002 -5.037376e+001 1.562464e+002 -4.880506e+001 1.431089e+002 -3.830820e+000 6.365749e+001
27788237500 -3.644617e+000 1.283066e+002 -5.047279e+001 1.551607e+002 -4.907921e+001 1.404170e+002 -3.830104e+000 6.318732e+001
27806981250 -3.640060e+000 1.277692e+002 -5.041071e+001 1.513755e+002 -4.886154e+001 1.384021e+002 -3.837324e+000 6.272674e+001
27825725000 -3.638312e+000 1.272463e+002 -5.094246e+001 1.470699e+002 -4.958723e+001 1.404708e+002 -3.843624e+000 6.221490e+001
27844468750 -3.628709e+000 1.266947e+002 -5.102747e+001 1.443147e+002 -4.932704e+001 1.382989e+002 -3.841856e+000 6.168782e+001
27863212500 -3.612145e+000 1.261919e+002 -5.112566e+001 1.445096e+002 -4.936441e+001 1.342763e+002 -3.843368e+000 6.123359e+001
27881956250 -3.606909e+000 1.257081e+002 -5.128034e+001 1.417207e+002 -4.996680e+001 1.323096e+002 -3.844962e+000 6.072239e+001
27900700000 -3.609155e+000 1.251799e+002 -5.155168e+001 1.363055e+002 -5.006560e+001 1.288884e+002 -3.841302e+000 6.027790e+001
27919443750 -3.606436e+000 1.246878e+002 -5.196434e+001 1.325900e+002 -5.021450e+001 1.291741e+002 -3.848495e+000 5.983583e+001
27938187500 -3.605705e+000 1.241539e+002 -5.183290e+001 1.275791e+002 -5.058447e+001 1.317733e+002 -3.851774e+000 5.929427e+001
27956931250 -3.596455e+000 1.236022e+002 -5.166077e+001 1.241613e+002 -5.109234e+001 1.289915e+002 -3.851116e+000 5.879176e+001
27975675000 -3.579124e+000 1.231176e+002 -5.158465e+001 1.206896e+002 -5.122370e+001 1.305017e+002 -3.858001e+000 5.830802e+001
27994418750 -3.576874e+000 1.226264e+002 -5.158038e+001 1.137304e+002 -5.181158e+001 1.339492e+002 -3.860899e+000 5.776156e+001
28013162500 -3.572029e+000 1.220944e+002 -5.179663e+001 1.109510e+002 -5.225222e+001 1.343995e+002 -3.859470e+000 5.726574e+001
28031906250 -3.567365e+000 1.215745e+002 -5.194209e+001 1.098211e+002 -5.252320e+001 1.290596e+002 -3.867627e+000 5.681947e+001
28050650000 -3.567645e+000 1.210391e+002 -5.206171e+001 1.067131e+002 -5.240511e+001 1.286805e+002 -3.878209e+000 5.629393e+001
28069393750 -3.561709e+000 1.204450e+002 -5.250278e+001 1.055263e+002 -5.250144e+001 1.218618e+002 -3.882984e+000 5.579661e+001
28088137500 -3.550222e+000 1.199772e+002 -5.247888e+001 1.022333e+002 -5.270180e+001 1.197411e+002 -3.897890e+000 5.527726e+001
28106881250 -3.551501e+000 1.194972e+002 -5.223291e+001 1.018176e+002 -5.284659e+001 1.172149e+002 -3.904487e+000 5.470139e+001
28125625000 -3.546868e+000 1.189649e+002 -5.235591e+001 9.862706e+001 -5.296833e+001 1.145556e+002 -3.913460e+000 5.417223e+001
28144368750 -3.545479e+000 1.184392e+002 -5.259904e+001 9.928346e+001 -5.332423e+001 1.139694e+002 -3.928422e+000 5.365735e+001
28163112500 -3.544871e+000 1.178895e+002 -5.339006e+001 1.026551e+002 -5.354558e+001 1.206940e+002 -3.942955e+000 5.311950e+001
28181856250 -3.535259e+000 1.173512e+002 -5.350882e+001 9.965913e+001 -5.440948e+001 1.296351e+002 -3.956829e+000 5.261230e+001
28200600000 -3.522571e+000 1.169398e+002 -5.335948e+001 8.616599e+001 -5.484225e+001 1.410982e+002 -3.977956e+000 5.208147e+001
28219343750 -3.526963e+000 1.164458e+002 -5.352363e+001 8.054182e+001 -5.491043e+001 1.505235e+002 -3.988630e+000 5.152233e+001
28238087500 -3.524133e+000 1.159454e+002 -5.363885e+001 8.116924e+001 -5.480739e+001 1.625184e+002 -3.995728e+000 5.101990e+001
28256831250 -3.517988e+000 1.154718e+002 -5.346890e+001 8.182836e+001 -5.467324e+001 1.759433e+002 -4.012158e+000 5.050250e+001
28275575000 -3.518113e+000 1.149485e+002 -5.357744e+001 8.229848e+001 -5.482520e+001 -1.717117e+002 -4.026769e+000 4.993566e+001
28294318750 -3.505131e+000 1.144372e+002 -5.376294e+001 7.660710e+001 -5.569741e+001 -1.610636e+002 -4.051722e+000 4.939550e+001
28313062500 -3.499597e+000 1.139962e+002 -5.345982e+001 7.396589e+001 -5.560392e+001 -1.464397e+002 -4.072938e+000 4.880901e+001
28331806250 -3.503534e+000 1.135438e+002 -5.367042e+001 7.763434e+001 -5.567392e+001 -1.323533e+002 -4.084734e+000 4.820285e+001
28350550000 -3.498985e+000 1.130457e+002 -5.384301e+001 7.398453e+001 -5.566975e+001 -1.201079e+002 -4.102089e+000 4.766091e+001
28369293750 -3.503267e+000 1.125570e+002 -5.409304e+001 7.277930e+001 -5.560414e+001 -1.126290e+002 -4.127458e+000 4.707517e+001
28388037500 -3.501711e+000 1.119959e+002 -5.406018e+001 7.254126e+001 -5.553447e+001 -9.916469e+001 -4.152840e+000 4.650403e+001
28406781250 -3.493624e+000 1.114809e+002 -5.415047e+001 7.088102e+001 -5.531786e+001 -8.850640e+001 -4.181725e+000 4.590689e+001
28425525000 -3.487645e+000 1.110547e+002 -5.432990e+001 7.411487e+001 -5.486589e+001 -8.551494e+001 -4.208028e+000 4.527327e+001
28444268750 -3.491369e+000 1.106075e+002 -5.427277e+001 7.369266e+001 -5.468591e+001 -7.684085e+001 -4.228826e+000 4.465145e+001
28463012500 -3.491877e+000 1.101598e+002 -5.464527e+001 6.549557e+001 -5.509031e+001 -6.115171e+001 -4.253931e+000 4.405963e+001
28481756250 -3.496622e+000 1.097301e+002 -5.473361e+001 6.319921e+001 -5.503115e+001 -4.810969e+001 -4.280517e+000 4.343694e+001
28500500000 -3.493383e+000 1.092204e+002 -5.486464e+001 5.824306e+001 -5.518113e+001 -3.199095e+001 -4.307790e+000 4.284176e+001
28519243750 -3.481962e+000 1.087593e+002 -5.475208e+001 5.627645e+001 -5.487422e+001 -2.026031e+001 -4.336146e+000 4.225109e+001
28537987500 -3.476386e+000 1.083603e+002 -5.507900e+001 5.145504e+001 -5.457442e+001 -4.248868e+000 -4.370919e+000 4.159914e+001
28556731250 -3.477600e+000 1.079162e+002 -5.496118e+001 4.996813e+001 -5.496219e+001 7.070851e+000 -4.394897e+000 4.096397e+001
28575475000 -3.471857e+000 1.074724e+002 -5.456549e+001 4.588465e+001 -5.495459e+001 1.673562e+001 -4.427824e+000 4.034124e+001
28594218750 -3.474301e+000 1.070088e+002 -5.404680e+001 3.484594e+001 -5.542779e+001 1.825652e+001 -4.462535e+000 3.970036e+001
28612962500 -3.472633e+000 1.065016e+002 -5.419725e+001 2.996404e+001 -5.497534e+001 2.190128e+001 -4.491796e+000 3.905748e+001
28631706250 -3.462879e+000 1.060434e+002 -5.402065e+001 2.913235e+001 -5.535995e+001 2.040201e+001 -4.529191e+000 3.840303e+001
28650450000 -3.460494e+000 1.056243e+002 -5.384951e+001 2.457973e+001 -5.597062e+001 1.297942e+001 -4.564205e+000 3.768224e+001
28669193750 -3.458249e+000 1.051867e+002 -5.395649e+001 1.823753e+001 -5.602747e+001 -3.895402e+000 -4.598060e+000 3.703310e+001
28687937500 -3.456043e+000 1.047582e+002 -5.376392e+001 1.400209e+001 -5.567178e+001 -2.720525e+001 -4.639994e+000 3.634549e+001
28706681250 -3.463377e+000 1.042961e+002 -5.380398e+001 7.562192e+000 -5.539775e+001 -4.398011e+001 -4.680546e+000 3.568941e+001
28725425000 -3.462368e+000 1.038007e+002 -5.350567e+001 5.482532e+000 -5.460035e+001 -6.074794e+001 -4.720270e+000 3.501981e+001
28744168750 -3.451646e+000 1.033708e+002 -5.367467e+001 2.332619e+000 -5.438651e+001 -7.954948e+001 -4.766942e+000 3.434292e+001
28762912500 -3.448298e+000 1.029649e+002 -5.343621e+001 -3.833337e+000 -5.416999e+001 -9.676472e+001 -4.810913e+000 3.363387e+001
28781656250 -3.442881e+000 1.025232e+002 -5.313189e+001 -3.696880e+000 -5.390687e+001 -1.165920e+002 -4.846200e+000 3.295008e+001
28800400000 -3.437693e+000 1.021049e+002 -5.289521e+001 -8.230116e+000 -5.389001e+001 -1.346117e+002 -4.891497e+000 3.228560e+001
28819143750 -3.443027e+000 1.016708e+002 -5.304228e+001 -1.340559e+001 -5.363585e+001 -1.535717e+002 -4.934648e+000 3.156081e+001
28837887500 -3.438050e+000 1.011865e+002 -5.347823e+001 -1.701797e+001 -5.395160e+001 -1.696955e+002 -4.978543e+000 3.090292e+001
28856631250 -3.430521e+000 1.007414e+002 -5.319647e+001 -2.263296e+001 -5.406396e+001 1.724530e+002 -5.035071e+000 3.016353e+001
28875375000 -3.429754e+000 1.003192e+002 -5.329434e+001 -2.690511e+001 -5.391777e+001 1.582042e+002 -5.082685e+000 2.938976e+001
28894118750 -3.423553e+000 9.987577e+001 -5.322135e+001 -2.601298e+001 -5.329203e+001 1.397371e+002 -5.128209e+000 2.865084e+001
28912862500 -3.419974e+000 9.943301e+001 -5.279554e+001 -2.906832e+001 -5.306446e+001 1.187679e+002 -5.179447e+000 2.793516e+001
28931606250 -3.421749e+000 9.898173e+001 -5.253316e+001 -2.982890e+001 -5.297832e+001 1.020659e+002 -5.225294e+000 2.715152e+001
28950350000 -3.415916e+000 9.848891e+001 -5.228227e+001 -3.142135e+001 -5.333807e+001 8.385688e+001 -5.281056e+000 2.641106e+001
28969093750 -3.407796e+000 9.806778e+001 -5.216849e+001 -3.337989e+001 -5.375900e+001 6.691113e+001 -5.335303e+000 2.563342e+001
28987837500 -3.402725e+000 9.765167e+001 -5.222913e+001 -3.449279e+001 -5.347869e+001 4.981905e+001 -5.388048e+000 2.484454e+001
29006581250 -3.396758e+000 9.724558e+001 -5.216546e+001 -3.741310e+001 -5.319434e+001 3.300607e+001 -5.442603e+000 2.409222e+001
29025325000 -3.396157e+000 9.683351e+001 -5.209369e+001 -3.682940e+001 -5.261255e+001 1.537883e+001 -5.501458e+000 2.327318e+001
29044068750 -3.392539e+000 9.634712e+001 -5.197996e+001 -3.918386e+001 -5.242991e+001 -8.027308e+000 -5.556892e+000 2.245692e+001
29062812500 -3.382331e+000 9.583127e+001 -5.203915e+001 -4.184668e+001 -5.148018e+001 -2.420506e+001 -5.620629e+000 2.167209e+001
29081556250 -3.372081e+000 9.542345e+001 -5.215301e+001 -4.233757e+001 -5.080708e+001 -3.298838e+001 -5.685467e+000 2.084190e+001
29100300000 -3.366598e+000 9.498878e+001 -5.200570e+001 -4.364128e+001 -5.072494e+001 -3.591338e+001 -5.745082e+000 1.999830e+001
29119043750 -3.367531e+000 9.454817e+001 -5.206938e+001 -4.457066e+001 -5.061978e+001 -3.669318e+001 -5.806493e+000 1.921506e+001
29137787500 -3.362813e+000 9.410215e+001 -5.304129e+001 -4.381110e+001 -5.077293e+001 -3.910399e+001 -5.870017e+000 1.836813e+001
29156531250 -3.361782e+000 9.358949e+001 -5.341532e+001 -4.755442e+001 -5.070331e+001 -3.959570e+001 -5.930662e+000 1.754715e+001
29175275000 -3.352643e+000 9.307838e+001 -5.326720e+001 -4.999146e+001 -5.048653e+001 -4.002398e+001 -6.001098e+000 1.670943e+001
29194018750 -3.345223e+000 9.262016e+001 -5.327485e+001 -5.266175e+001 -5.050080e+001 -4.248508e+001 -6.072636e+000 1.581360e+001
29212762500 -3.344601e+000 9.215482e+001 -5.322218e+001 -5.524208e+001 -5.068709e+001 -4.340003e+001 -6.136700e+000 1.492196e+001
29231506250 -3.338373e+000 9.170786e+001 -5.316471e+001 -5.558689e+001 -5.037837e+001 -4.370168e+001 -6.207846e+000 1.408288e+001
29250250000 -3.341426e+000 9.123772e+001 -5.311357e+001 -5.504533e+001 -5.043401e+001 -4.546728e+001 -6.278955e+000 1.319077e+001
29268993750 -3.342359e+000 9.070682e+001 -5.258551e+001 -5.352864e+001 -5.032028e+001 -4.775270e+001 -6.348055e+000 1.231713e+001
29287737500 -3.333195e+000 9.021259e+001 -5.220966e+001 -5.505058e+001 -5.019748e+001 -4.986952e+001 -6.426616e+000 1.147040e+001
29306481250 -3.332582e+000 8.975468e+001 -5.190985e+001 -5.526571e+001 -5.007226e+001 -5.269752e+001 -6.507205e+000 1.057879e+001
29325225000 -3.330174e+000 8.928258e+001 -5.159848e+001 -5.429850e+001 -5.005731e+001 -5.315434e+001 -6.584573e+000 9.693575e+000
29343968750 -3.334558e+000 8.884272e+001 -5.140546e+001 -5.433495e+001 -5.011882e+001 -5.250451e+001 -6.668644e+000 8.806797e+000
29362712500 -3.341754e+000 8.837246e+001 -5.105087e+001 -5.535407e+001 -5.009664e+001 -5.431744e+001 -6.749185e+000 7.902852e+000
29381456250 -3.341751e+000 8.782404e+001 -5.123894e+001 -5.697455e+001 -4.972754e+001 -5.548246e+001 -6.827816e+000 7.050484e+000
29400200000 -3.339855e+000 8.732806e+001 -5.109458e+001 -5.738647e+001 -4.913255e+001 -6.090588e+001 -6.922840e+000 6.178011e+000
29418943750 -3.345915e+000 8.684377e+001 -5.091813e+001 -5.892296e+001 -4.891388e+001 -6.231422e+001 -7.014694e+000 5.292615e+000
29437687500 -3.352882e+000 8.635864e+001 -5.083083e+001 -5.942994e+001 -4.867690e+001 -6.432094e+001 -7.102443e+000 4.443047e+000
29456431250 -3.360352e+000 8.591879e+001 -5.035360e+001 -6.157721e+001 -4.857079e+001 -6.503201e+001 -7.201647e+000 3.558728e+000
29475175000 -3.376187e+000 8.543798e+001 -4.988562e+001 -6.346181e+001 -4.846427e+001 -6.672002e+001 -7.300806e+000 2.686022e+000
29493918750 -3.384867e+000 8.493016e+001 -4.945124e+001 -6.539989e+001 -4.831221e+001 -6.820574e+001 -7.400011e+000 1.839721e+000
29512662500 -3.389549e+000 8.446005e+001 -4.895616e+001 -6.589149e+001 -4.791500e+001 -7.073667e+001 -7.509140e+000 9.509016e-001
29531406250 -3.402034e+000 8.400570e+001 -4.869633e+001 -6.792617e+001 -4.788100e+001 -7.213762e+001 -7.616349e+000 5.751260e-002
29550150000 -3.409493e+000 8.357360e+001 -4.839716e+001 -6.987706e+001 -4.757619e+001 -7.524663e+001 -7.728126e+000 -7.589056e-001
29568893750 -3.427169e+000 8.317622e+001 -4.731873e+001 -7.359314e+001 -4.737256e+001 -7.746712e+001 -7.849831e+000 -1.585500e+000
29587637500 -3.444871e+000 8.271845e+001 -4.666977e+001 -7.276884e+001 -4.723822e+001 -7.988052e+001 -7.964881e+000 -2.396166e+000
29606381250 -3.451430e+000 8.227386e+001 -4.647894e+001 -7.275403e+001 -4.695594e+001 -8.437276e+001 -8.092405e+000 -3.147897e+000
29625125000 -3.462086e+000 8.186678e+001 -4.604233e+001 -7.342818e+001 -4.667255e+001 -8.651010e+001 -8.226850e+000 -3.917689e+000
29643868750 -3.473815e+000 8.147137e+001 -4.576540e+001 -7.523267e+001 -4.659758e+001 -8.918546e+001 -8.360372e+000 -4.665003e+000
29662612500 -3.486663e+000 8.110007e+001 -4.555301e+001 -7.752326e+001 -4.649780e+001 -9.099306e+001 -8.498254e+000 -5.382560e+000
29681356250 -3.507546e+000 8.075046e+001 -4.528310e+001 -8.158737e+001 -4.605336e+001 -9.234761e+001 -8.642204e+000 -6.044824e+000
29700100000 -3.528791e+000 8.032225e+001 -4.509417e+001 -8.444649e+001 -4.556164e+001 -9.486936e+001 -8.784933e+000 -6.676278e+000
29718843750 -3.543830e+000 7.992245e+001 -4.502313e+001 -8.712802e+001 -4.540124e+001 -9.512856e+001 -8.936903e+000 -7.209884e+000
29737587500 -3.557764e+000 7.956627e+001 -4.483458e+001 -9.022087e+001 -4.513846e+001 -9.833871e+001 -9.091026e+000 -7.751737e+000
29756331250 -3.577630e+000 7.922359e+001 -4.448858e+001 -9.458510e+001 -4.488486e+001 -1.021284e+002 -9.247140e+000 -8.238873e+000
29775075000 -3.587578e+000 7.893320e+001 -4.433295e+001 -9.787463e+001 -4.462241e+001 -1.064609e+002 -9.411766e+000 -8.624938e+000
29793818750 -3.607298e+000 7.863520e+001 -4.421479e+001 -1.018559e+002 -4.427597e+001 -1.102495e+002 -9.581819e+000 -8.974800e+000
29812562500 -3.640297e+000 7.835639e+001 -4.390430e+001 -1.056602e+002 -4.412663e+001 -1.145184e+002 -9.738830e+000 -9.323576e+000
29831306250 -3.665280e+000 7.800987e+001 -4.367267e+001 -1.084327e+002 -4.404235e+001 -1.169180e+002 -9.889877e+000 -9.546429e+000
29850050000 -3.685207e+000 7.772304e+001 -4.358165e+001 -1.122000e+002 -4.391750e+001 -1.208686e+002 -1.004768e+001 -9.813327e+000
29868793750 -3.706486e+000 7.743138e+001 -4.343777e+001 -1.150764e+002 -4.385946e+001 -1.240840e+002 -1.019126e+001 -1.008869e+001
29887537500 -3.717413e+000 7.716725e+001 -4.342471e+001 -1.186343e+002 -4.369342e+001 -1.273872e+002 -1.032330e+001 -1.023195e+001
29906281250 -3.734677e+000 7.702184e+001 -4.336646e+001 -1.211641e+002 -4.346980e+001 -1.294664e+002 -1.045459e+001 -1.039588e+001
29925025000 -3.762013e+000 7.683142e+001 -4.337730e+001 -1.234928e+002 -4.337363e+001 -1.335312e+002 -1.057182e+001 -1.049632e+001
29943768750 -3.781573e+000 7.659959e+001 -4.343056e+001 -1.262950e+002 -4.337630e+001 -1.367910e+002 -1.069023e+001 -1.047398e+001
29962512500 -3.797482e+000 7.641648e+001 -4.340161e+001 -1.285749e+002 -4.320879e+001 -1.398514e+002 -1.081146e+001 -1.052327e+001
29981256250 -3.811300e+000 7.619986e+001 -4.334536e+001 -1.314671e+002 -4.319027e+001 -1.424285e+002 -1.091243e+001 -1.059900e+001
30000000000 -3.814672e+000 7.604425e+001 -4.312843e+001 -1.334913e+002 -4.306461e+001 -1.452808e+002 -1.100483e+001 -1.059187e+001
