!Agilent Technologies,E8364B,MY43040894,A.07.50.67
!Agilent E8364B: A.07.50.67
!Date: Wednesday, May 13, 2020 06:24:24
!Correction: S11(Full 2 Port(1,2)) 
!S21(Full 2 Port(1,2)) 
!S12(Full 2 Port(1,2)) 
!S22(Full 2 Port(1,2)) 
!S2P File: Measurements: S11, S21, S12, S22:
# Hz S  dB   R 50
10000000 -4.082095e-002 -1.868404e+000 -4.302858e+001 1.637874e+001 -4.850217e+001 1.088416e+002 -1.351681e-001 -4.185084e+000
28743750 -4.418741e-002 -2.153734e+000 -4.399958e+001 1.472685e+001 -5.040294e+001 1.076371e+002 -1.442050e-001 -4.857090e+000
47487500 -4.723919e-002 -2.468282e+000 -4.482843e+001 1.504020e+001 -5.110590e+001 1.104883e+002 -1.541317e-001 -5.599883e+000
66231250 -4.897738e-002 -2.792556e+000 -4.613966e+001 2.296930e+001 -5.165537e+001 1.151680e+002 -1.634729e-001 -6.365177e+000
84975000 -5.243283e-002 -3.150870e+000 -4.705940e+001 2.381069e+001 -5.230761e+001 1.231091e+002 -1.743193e-001 -7.208456e+000
103718750 -5.694808e-002 -3.510976e+000 -4.820201e+001 2.378089e+001 -5.304082e+001 1.302065e+002 -1.845108e-001 -8.103189e+000
122462500 -6.335358e-002 -3.911001e+000 -4.956684e+001 2.442775e+001 -5.404100e+001 1.363620e+002 -1.926841e-001 -9.031528e+000
141206250 -6.727179e-002 -4.327160e+000 -5.115893e+001 2.944539e+001 -5.469065e+001 1.454263e+002 -2.027783e-001 -1.000230e+001
159950000 -7.249244e-002 -4.779160e+000 -5.214771e+001 2.872000e+001 -5.529704e+001 1.536160e+002 -2.128187e-001 -1.101875e+001
178693750 -7.671293e-002 -5.242392e+000 -5.326095e+001 3.083197e+001 -5.617169e+001 1.610052e+002 -2.238249e-001 -1.209397e+001
197437500 -8.087133e-002 -5.736732e+000 -5.465808e+001 3.177685e+001 -5.694186e+001 1.671201e+002 -2.354163e-001 -1.322715e+001
216181250 -8.664132e-002 -6.249984e+000 -5.601950e+001 3.383342e+001 -5.820374e+001 1.784386e+002 -2.459522e-001 -1.440040e+001
234925000 -9.061296e-002 -6.790602e+000 -5.725884e+001 3.432041e+001 -5.895592e+001 -1.753552e+002 -2.568525e-001 -1.563313e+001
253668750 -9.258587e-002 -7.314722e+000 -5.773608e+001 3.004467e+001 -5.887009e+001 -1.631588e+002 -2.645738e-001 -1.681264e+001
272412500 -9.578864e-002 -7.854665e+000 -5.827412e+001 2.821837e+001 -5.878606e+001 -1.446440e+002 -2.719249e-001 -1.796864e+001
291156250 -9.726441e-002 -8.392637e+000 -5.841138e+001 1.932310e+001 -5.908170e+001 -1.215024e+002 -2.784863e-001 -1.913472e+001
309900000 -9.978969e-002 -8.925207e+000 -5.957496e+001 1.741428e+001 -5.952201e+001 -1.043778e+002 -2.865781e-001 -2.030552e+001
328643750 -1.015186e-001 -9.449118e+000 -5.993858e+001 1.127079e+001 -5.993415e+001 -8.920383e+001 -2.967618e-001 -2.146146e+001
347387500 -1.050277e-001 -9.966675e+000 -6.036779e+001 5.650797e+000 -6.017763e+001 -7.857267e+001 -3.029678e-001 -2.263788e+001
366131250 -1.064468e-001 -1.048301e+001 -6.025895e+001 7.326081e+000 -6.035632e+001 -6.282020e+001 -3.102477e-001 -2.378923e+001
384875000 -1.113894e-001 -1.100481e+001 -6.054021e+001 5.574362e+000 -6.046605e+001 -5.379594e+001 -3.203287e-001 -2.493473e+001
403618750 -1.152627e-001 -1.153686e+001 -6.077295e+001 6.286513e+000 -6.062058e+001 -4.178169e+001 -3.306411e-001 -2.608274e+001
422362500 -1.175062e-001 -1.205918e+001 -6.091721e+001 3.672523e+000 -6.056175e+001 -3.366871e+001 -3.420635e-001 -2.720666e+001
441106250 -1.216909e-001 -1.258243e+001 -6.123594e+001 3.820601e-001 -6.065338e+001 -1.951308e+001 -3.519946e-001 -2.835181e+001
459850000 -1.235439e-001 -1.311086e+001 -6.189043e+001 2.044999e+000 -5.983649e+001 -8.970249e+000 -3.607590e-001 -2.949836e+001
478593750 -1.269874e-001 -1.363797e+001 -6.212731e+001 6.564896e-001 -5.973167e+001 -5.501674e+000 -3.700829e-001 -3.061019e+001
497337500 -1.307952e-001 -1.417258e+001 -6.193172e+001 -8.372675e+000 -5.984872e+001 -4.068033e+000 -3.806637e-001 -3.175164e+001
516081250 -1.334137e-001 -1.468424e+001 -6.213130e+001 -7.682930e+000 -6.025487e+001 -5.563977e+000 -3.920013e-001 -3.286725e+001
534825000 -1.359638e-001 -1.522190e+001 -6.210819e+001 -8.894387e+000 -6.066073e+001 -2.384832e+000 -4.027444e-001 -3.397902e+001
553568750 -1.363326e-001 -1.573721e+001 -6.179830e+001 -8.594707e+000 -6.040227e+001 -1.174481e+000 -4.190584e-001 -3.510978e+001
572312500 -1.374377e-001 -1.625952e+001 -6.139124e+001 -1.432314e+001 -6.039865e+001 -2.433690e+000 -4.328514e-001 -3.624260e+001
591056250 -1.380696e-001 -1.678606e+001 -6.134984e+001 -1.299706e+001 -6.075477e+001 -4.580840e+000 -4.470057e-001 -3.737429e+001
609800000 -1.389104e-001 -1.731618e+001 -6.146388e+001 -1.548937e+001 -6.063866e+001 -6.667632e+000 -4.619780e-001 -3.850042e+001
628543750 -1.404643e-001 -1.782627e+001 -6.137099e+001 -1.440322e+001 -6.117425e+001 -6.583066e+000 -4.756888e-001 -3.962135e+001
647287500 -1.406010e-001 -1.836018e+001 -6.130092e+001 -1.643834e+001 -6.069375e+001 -8.999530e+000 -4.913296e-001 -4.074816e+001
666031250 -1.424004e-001 -1.887402e+001 -6.106108e+001 -1.882561e+001 -6.110112e+001 -2.983428e+000 -5.083579e-001 -4.187438e+001
684775000 -1.459232e-001 -1.938643e+001 -6.117644e+001 -2.537240e+001 -6.142222e+001 -3.144470e+000 -5.265289e-001 -4.300396e+001
703518750 -1.472501e-001 -1.990346e+001 -6.109307e+001 -2.719296e+001 -6.164452e+001 -2.907022e+000 -5.435815e-001 -4.413461e+001
722262500 -1.498935e-001 -2.041319e+001 -6.132362e+001 -2.861755e+001 -6.177875e+001 -4.197371e+000 -5.615978e-001 -4.524927e+001
741006250 -1.520884e-001 -2.093369e+001 -6.063921e+001 -2.917166e+001 -6.184024e+001 -4.919538e+000 -5.796739e-001 -4.635212e+001
759750000 -1.535306e-001 -2.146121e+001 -6.070133e+001 -2.697989e+001 -6.178102e+001 -6.752800e+000 -5.984127e-001 -4.748183e+001
778493750 -1.548660e-001 -2.198617e+001 -6.060015e+001 -2.214426e+001 -6.157816e+001 -7.811885e+000 -6.187304e-001 -4.859629e+001
797237500 -1.550787e-001 -2.249705e+001 -6.102555e+001 -2.634243e+001 -6.176891e+001 -6.465755e+000 -6.368901e-001 -4.971406e+001
815981250 -1.548457e-001 -2.300787e+001 -6.112358e+001 -2.495328e+001 -6.160372e+001 -5.092342e+000 -6.551963e-001 -5.083303e+001
834725000 -1.548411e-001 -2.352185e+001 -6.152741e+001 -2.907565e+001 -6.137794e+001 -4.098877e+000 -6.729463e-001 -5.194906e+001
853468750 -1.563847e-001 -2.404614e+001 -6.162679e+001 -2.929348e+001 -6.168601e+001 -6.316968e+000 -6.933563e-001 -5.306167e+001
872212500 -1.568605e-001 -2.456779e+001 -6.153588e+001 -2.763646e+001 -6.207710e+001 -4.641674e+000 -7.155305e-001 -5.416536e+001
890956250 -1.594945e-001 -2.508326e+001 -6.149310e+001 -2.649663e+001 -6.202647e+001 -8.993847e+000 -7.355322e-001 -5.527419e+001
909700000 -1.591058e-001 -2.559077e+001 -6.138339e+001 -2.467012e+001 -6.212162e+001 -8.661689e+000 -7.549461e-001 -5.638992e+001
928443750 -1.607915e-001 -2.610688e+001 -6.126934e+001 -2.306650e+001 -6.249255e+001 -1.059199e+001 -7.745529e-001 -5.749659e+001
947187500 -1.623259e-001 -2.662866e+001 -6.126321e+001 -2.429938e+001 -6.221045e+001 -7.963856e+000 -7.928330e-001 -5.860332e+001
965931250 -1.625580e-001 -2.715348e+001 -6.110625e+001 -2.256809e+001 -6.233944e+001 -1.067964e+001 -8.140355e-001 -5.971074e+001
984675000 -1.633731e-001 -2.768230e+001 -6.132854e+001 -2.400003e+001 -6.240868e+001 -1.141443e+001 -8.330233e-001 -6.081903e+001
1003418750 -1.656119e-001 -2.819898e+001 -6.139624e+001 -2.321559e+001 -6.236355e+001 -1.217004e+001 -8.516096e-001 -6.192463e+001
1022162500 -1.670575e-001 -2.869779e+001 -6.161944e+001 -2.285628e+001 -6.211708e+001 -9.992298e+000 -8.715978e-001 -6.302738e+001
1040906250 -1.694926e-001 -2.920080e+001 -6.148814e+001 -2.216755e+001 -6.227737e+001 -6.482234e+000 -8.891050e-001 -6.411931e+001
1059650000 -1.713912e-001 -2.971754e+001 -6.122374e+001 -2.374722e+001 -6.170687e+001 -7.098319e+000 -9.079734e-001 -6.519106e+001
1078393750 -1.731894e-001 -3.021737e+001 -6.102291e+001 -2.299248e+001 -6.177180e+001 -9.044199e+000 -9.282658e-001 -6.628217e+001
1097137500 -1.741679e-001 -3.073522e+001 -6.130208e+001 -2.058455e+001 -6.137762e+001 -1.509846e+001 -9.471418e-001 -6.734982e+001
1115881250 -1.766659e-001 -3.125803e+001 -6.111148e+001 -1.642540e+001 -6.174136e+001 -1.148864e+001 -9.662468e-001 -6.842262e+001
1134625000 -1.792161e-001 -3.178074e+001 -6.122669e+001 -1.462646e+001 -6.165859e+001 -1.205214e+001 -9.829656e-001 -6.949772e+001
1153368750 -1.806021e-001 -3.229945e+001 -6.110362e+001 -1.265117e+001 -6.206748e+001 -1.413547e+001 -9.985188e-001 -7.057940e+001
1172112500 -1.839590e-001 -3.280220e+001 -6.083723e+001 -1.180613e+001 -6.213823e+001 -1.536944e+001 -1.015724e+000 -7.166085e+001
1190856250 -1.863519e-001 -3.330840e+001 -6.078720e+001 -1.130293e+001 -6.213552e+001 -1.563829e+001 -1.030929e+000 -7.272649e+001
1209600000 -1.862702e-001 -3.381461e+001 -6.078748e+001 -1.292456e+001 -6.218532e+001 -1.473726e+001 -1.047908e+000 -7.379041e+001
1228343750 -1.876197e-001 -3.433995e+001 -6.046228e+001 -1.224872e+001 -6.212049e+001 -1.487187e+001 -1.064240e+000 -7.483807e+001
1247087500 -1.895581e-001 -3.485642e+001 -6.038763e+001 -1.250754e+001 -6.202100e+001 -1.554759e+001 -1.079280e+000 -7.589454e+001
1265831250 -1.918326e-001 -3.536048e+001 -6.019107e+001 -1.152353e+001 -6.210017e+001 -1.765878e+001 -1.091185e+000 -7.692857e+001
1284575000 -1.922113e-001 -3.585272e+001 -5.999559e+001 -1.103627e+001 -6.191629e+001 -1.712229e+001 -1.104231e+000 -7.799104e+001
1303318750 -1.943638e-001 -3.635907e+001 -6.020631e+001 -1.169510e+001 -6.160757e+001 -1.951038e+001 -1.115776e+000 -7.904203e+001
1322062500 -1.949772e-001 -3.686178e+001 -5.972162e+001 -1.233181e+001 -6.112144e+001 -1.947394e+001 -1.128846e+000 -8.008163e+001
1340806250 -1.951927e-001 -3.736519e+001 -5.989566e+001 -1.273926e+001 -6.117881e+001 -1.815892e+001 -1.142518e+000 -8.112350e+001
1359550000 -1.960849e-001 -3.787524e+001 -6.004520e+001 -1.414285e+001 -6.100636e+001 -1.585252e+001 -1.154871e+000 -8.215467e+001
1378293750 -1.966665e-001 -3.839603e+001 -6.018002e+001 -1.333867e+001 -6.102216e+001 -1.848524e+001 -1.167753e+000 -8.318386e+001
1397037500 -1.987441e-001 -3.889806e+001 -6.026731e+001 -1.553839e+001 -6.056814e+001 -2.170354e+001 -1.178796e+000 -8.422649e+001
1415781250 -2.002841e-001 -3.939433e+001 -5.999797e+001 -1.572455e+001 -6.046592e+001 -2.144397e+001 -1.188571e+000 -8.523743e+001
1434525000 -2.013253e-001 -3.989165e+001 -5.979462e+001 -1.436276e+001 -6.067355e+001 -2.113939e+001 -1.200010e+000 -8.627294e+001
1453268750 -2.016236e-001 -4.039844e+001 -5.966652e+001 -1.481832e+001 -6.063911e+001 -2.244559e+001 -1.210949e+000 -8.728873e+001
1472012500 -1.994005e-001 -4.091262e+001 -5.978058e+001 -1.485928e+001 -6.056889e+001 -2.547144e+001 -1.221133e+000 -8.830574e+001
1490756250 -1.992493e-001 -4.143074e+001 -5.969510e+001 -1.549043e+001 -6.082930e+001 -2.390835e+001 -1.231919e+000 -8.933298e+001
1509500000 -2.001833e-001 -4.194295e+001 -5.976511e+001 -1.512733e+001 -6.070910e+001 -2.640886e+001 -1.242495e+000 -9.034861e+001
1528243750 -2.037262e-001 -4.245734e+001 -5.969389e+001 -1.773690e+001 -6.071546e+001 -2.715165e+001 -1.251964e+000 -9.136899e+001
1546987500 -2.051655e-001 -4.295874e+001 -5.967083e+001 -1.947391e+001 -6.041978e+001 -3.265951e+001 -1.261165e+000 -9.237005e+001
1565731250 -2.044539e-001 -4.346367e+001 -5.946730e+001 -2.016256e+001 -6.068233e+001 -3.263433e+001 -1.272864e+000 -9.338239e+001
1584475000 -2.027165e-001 -4.397661e+001 -5.960050e+001 -2.073068e+001 -6.052110e+001 -2.758848e+001 -1.283094e+000 -9.437812e+001
1603218750 -2.017505e-001 -4.449062e+001 -5.995860e+001 -2.152811e+001 -6.062239e+001 -2.940301e+001 -1.292710e+000 -9.537434e+001
1621962500 -2.048046e-001 -4.501456e+001 -5.982803e+001 -2.328591e+001 -6.075378e+001 -2.840020e+001 -1.303508e+000 -9.636539e+001
1640706250 -2.088511e-001 -4.553785e+001 -5.994635e+001 -2.337280e+001 -6.068107e+001 -3.085156e+001 -1.313402e+000 -9.735600e+001
1659450000 -2.126205e-001 -4.603866e+001 -5.986795e+001 -2.270228e+001 -6.070910e+001 -3.036919e+001 -1.325184e+000 -9.835625e+001
1678193750 -2.127974e-001 -4.655014e+001 -5.982390e+001 -2.373385e+001 -6.094248e+001 -3.238700e+001 -1.336264e+000 -9.935343e+001
1696937500 -2.104231e-001 -4.706712e+001 -5.947000e+001 -2.424792e+001 -6.078747e+001 -3.075601e+001 -1.347976e+000 -1.003475e+002
1715681250 -2.104500e-001 -4.759733e+001 -5.952632e+001 -2.510821e+001 -6.078420e+001 -3.229506e+001 -1.357905e+000 -1.013169e+002
1734425000 -2.120437e-001 -4.810934e+001 -5.909455e+001 -2.624690e+001 -6.041407e+001 -3.355232e+001 -1.371094e+000 -1.022908e+002
1753168750 -2.142916e-001 -4.863663e+001 -5.913680e+001 -2.718563e+001 -6.055248e+001 -3.078599e+001 -1.385795e+000 -1.032781e+002
1771912500 -2.198371e-001 -4.915043e+001 -5.912193e+001 -2.900421e+001 -6.046876e+001 -3.322031e+001 -1.397852e+000 -1.042603e+002
1790656250 -2.229554e-001 -4.963873e+001 -5.903555e+001 -2.786567e+001 -6.014605e+001 -3.505227e+001 -1.409819e+000 -1.052432e+002
1809400000 -2.240344e-001 -5.012032e+001 -5.870764e+001 -3.100031e+001 -6.008588e+001 -3.671574e+001 -1.421879e+000 -1.062275e+002
1828143750 -2.228391e-001 -5.061293e+001 -5.874751e+001 -2.898340e+001 -6.013379e+001 -3.473833e+001 -1.434590e+000 -1.071837e+002
1846887500 -2.225331e-001 -5.113562e+001 -5.917720e+001 -2.769159e+001 -6.012970e+001 -3.367263e+001 -1.449697e+000 -1.081482e+002
1865631250 -2.247316e-001 -5.168139e+001 -5.902000e+001 -2.894036e+001 -6.021112e+001 -3.418629e+001 -1.464349e+000 -1.091116e+002
1884375000 -2.267383e-001 -5.220317e+001 -5.909959e+001 -2.960983e+001 -6.009754e+001 -3.343489e+001 -1.477982e+000 -1.100739e+002
1903118750 -2.328315e-001 -5.269434e+001 -5.886248e+001 -3.173833e+001 -6.037820e+001 -3.623853e+001 -1.494163e+000 -1.110410e+002
1921862500 -2.347166e-001 -5.317192e+001 -5.898359e+001 -3.443248e+001 -6.015403e+001 -3.674429e+001 -1.508983e+000 -1.120137e+002
1940606250 -2.325473e-001 -5.368099e+001 -5.883480e+001 -3.669302e+001 -6.000597e+001 -3.485605e+001 -1.521167e+000 -1.129750e+002
1959350000 -2.324272e-001 -5.418467e+001 -5.892184e+001 -3.774455e+001 -5.993871e+001 -3.418852e+001 -1.536063e+000 -1.139345e+002
1978093750 -2.339838e-001 -5.469504e+001 -5.898978e+001 -3.755738e+001 -5.949698e+001 -3.428800e+001 -1.553577e+000 -1.149039e+002
1996837500 -2.380540e-001 -5.519728e+001 -5.910269e+001 -3.890493e+001 -5.923381e+001 -3.459707e+001 -1.570228e+000 -1.158611e+002
2015581250 -2.435298e-001 -5.568731e+001 -5.906670e+001 -3.853994e+001 -5.938527e+001 -4.087962e+001 -1.587619e+000 -1.168091e+002
2034325000 -2.456428e-001 -5.616734e+001 -5.872370e+001 -3.857912e+001 -5.913624e+001 -4.138098e+001 -1.605373e+000 -1.177654e+002
2053068750 -2.463254e-001 -5.663262e+001 -5.906697e+001 -3.726192e+001 -5.891520e+001 -4.341476e+001 -1.621192e+000 -1.187233e+002
2071812500 -2.445922e-001 -5.713767e+001 -5.904535e+001 -3.815149e+001 -5.899562e+001 -4.108139e+001 -1.638129e+000 -1.196793e+002
2090556250 -2.451449e-001 -5.765589e+001 -5.949491e+001 -3.676342e+001 -5.920492e+001 -3.766302e+001 -1.653944e+000 -1.206394e+002
2109300000 -2.496201e-001 -5.816319e+001 -5.947239e+001 -3.631955e+001 -5.874440e+001 -3.666870e+001 -1.673458e+000 -1.215734e+002
2128043750 -2.564301e-001 -5.865007e+001 -5.962048e+001 -3.769633e+001 -5.891317e+001 -3.801081e+001 -1.691857e+000 -1.225171e+002
2146787500 -2.615947e-001 -5.911648e+001 -5.968646e+001 -3.738536e+001 -5.886939e+001 -3.617344e+001 -1.708846e+000 -1.234574e+002
2165531250 -2.605394e-001 -5.960248e+001 -5.964730e+001 -3.667118e+001 -5.913374e+001 -3.544861e+001 -1.722803e+000 -1.244005e+002
2184275000 -2.613373e-001 -6.008828e+001 -5.934098e+001 -3.812477e+001 -5.926909e+001 -3.642819e+001 -1.737206e+000 -1.253514e+002
2203018750 -2.599518e-001 -6.058810e+001 -5.922647e+001 -3.820540e+001 -5.936730e+001 -3.525435e+001 -1.755499e+000 -1.262932e+002
2221762500 -2.605750e-001 -6.110825e+001 -5.917042e+001 -4.213331e+001 -5.941844e+001 -3.486676e+001 -1.773640e+000 -1.272439e+002
2240506250 -2.633452e-001 -6.162267e+001 -5.916975e+001 -4.179807e+001 -5.951083e+001 -3.720673e+001 -1.789024e+000 -1.281611e+002
2259250000 -2.664918e-001 -6.213854e+001 -5.918858e+001 -4.272971e+001 -5.944398e+001 -3.866772e+001 -1.805589e+000 -1.290782e+002
2277993750 -2.678897e-001 -6.262653e+001 -5.914482e+001 -4.390119e+001 -5.953456e+001 -4.163893e+001 -1.819889e+000 -1.300104e+002
2296737500 -2.689304e-001 -6.309914e+001 -5.947084e+001 -4.703774e+001 -5.948291e+001 -4.021976e+001 -1.833331e+000 -1.309348e+002
2315481250 -2.714660e-001 -6.360582e+001 -5.939907e+001 -4.950995e+001 -6.016118e+001 -3.970490e+001 -1.849147e+000 -1.318765e+002
2334225000 -2.710398e-001 -6.413845e+001 -5.940289e+001 -4.857203e+001 -5.967702e+001 -3.583178e+001 -1.865063e+000 -1.328057e+002
2352968750 -2.764308e-001 -6.466241e+001 -5.945171e+001 -4.811761e+001 -5.980209e+001 -3.721291e+001 -1.881791e+000 -1.337157e+002
2371712500 -2.838574e-001 -6.515530e+001 -5.933841e+001 -4.872188e+001 -5.997725e+001 -3.781781e+001 -1.899363e+000 -1.346155e+002
2390456250 -2.853676e-001 -6.563055e+001 -5.909907e+001 -4.604862e+001 -5.983025e+001 -3.789760e+001 -1.914494e+000 -1.355138e+002
2409200000 -2.862047e-001 -6.610455e+001 -5.891182e+001 -4.652562e+001 -5.985836e+001 -3.710905e+001 -1.926818e+000 -1.364337e+002
2427943750 -2.865759e-001 -6.661674e+001 -5.891275e+001 -4.763888e+001 -5.988008e+001 -3.755524e+001 -1.941464e+000 -1.373630e+002
2446687500 -2.864454e-001 -6.712179e+001 -5.924091e+001 -4.940250e+001 -5.925506e+001 -3.661787e+001 -1.954940e+000 -1.383026e+002
2465431250 -2.893803e-001 -6.763557e+001 -5.906541e+001 -5.029070e+001 -5.941406e+001 -3.577957e+001 -1.968132e+000 -1.392096e+002
2484175000 -2.926894e-001 -6.814343e+001 -5.884935e+001 -5.301408e+001 -5.950862e+001 -3.687474e+001 -1.984273e+000 -1.401101e+002
2502918750 -2.965800e-001 -6.862132e+001 -5.896021e+001 -5.298229e+001 -5.924545e+001 -3.973105e+001 -1.998765e+000 -1.410004e+002
2521662500 -2.988175e-001 -6.910302e+001 -5.839469e+001 -5.662973e+001 -5.905112e+001 -4.513437e+001 -2.011175e+000 -1.419015e+002
2540406250 -2.982438e-001 -6.960980e+001 -5.822195e+001 -5.853432e+001 -5.935832e+001 -4.563885e+001 -2.021420e+000 -1.428355e+002
2559150000 -2.978261e-001 -7.012415e+001 -5.851420e+001 -5.848930e+001 -5.930061e+001 -4.797104e+001 -2.033902e+000 -1.437630e+002
2577893750 -2.981988e-001 -7.062218e+001 -5.860156e+001 -5.984469e+001 -5.921651e+001 -4.962471e+001 -2.048491e+000 -1.446741e+002
2596637500 -3.047749e-001 -7.111652e+001 -5.918443e+001 -6.188412e+001 -5.916930e+001 -5.111721e+001 -2.065448e+000 -1.455710e+002
2615381250 -3.052001e-001 -7.159883e+001 -5.960342e+001 -6.214480e+001 -5.909374e+001 -4.980801e+001 -2.080797e+000 -1.464314e+002
2634125000 -3.062582e-001 -7.207529e+001 -6.000898e+001 -6.259836e+001 -5.885141e+001 -5.058938e+001 -2.094511e+000 -1.473109e+002
2652868750 -3.083846e-001 -7.254668e+001 -6.007261e+001 -6.248613e+001 -5.893069e+001 -4.995371e+001 -2.106458e+000 -1.481922e+002
2671612500 -3.099127e-001 -7.302606e+001 -6.002320e+001 -6.135393e+001 -5.880824e+001 -4.717698e+001 -2.121291e+000 -1.491023e+002
2690356250 -3.114693e-001 -7.350725e+001 -5.989925e+001 -6.383184e+001 -5.881897e+001 -4.738915e+001 -2.135446e+000 -1.500270e+002
2709100000 -3.179430e-001 -7.398301e+001 -5.961391e+001 -6.678079e+001 -5.874842e+001 -4.628478e+001 -2.149644e+000 -1.509342e+002
2727843750 -3.226887e-001 -7.447230e+001 -5.966417e+001 -6.527014e+001 -5.863134e+001 -4.982638e+001 -2.167208e+000 -1.518009e+002
2746587500 -3.261721e-001 -7.492973e+001 -5.969495e+001 -6.309563e+001 -5.827178e+001 -5.461779e+001 -2.180059e+000 -1.526749e+002
2765331250 -3.295292e-001 -7.538449e+001 -5.982986e+001 -6.396169e+001 -5.831563e+001 -5.617818e+001 -2.191895e+000 -1.535474e+002
2784075000 -3.291025e-001 -7.585947e+001 -5.991030e+001 -6.291317e+001 -5.823359e+001 -5.525777e+001 -2.203978e+000 -1.544527e+002
2802818750 -3.309330e-001 -7.632983e+001 -5.989585e+001 -6.305985e+001 -5.834236e+001 -5.358281e+001 -2.216734e+000 -1.553368e+002
2821562500 -3.330242e-001 -7.682642e+001 -5.986512e+001 -6.415958e+001 -5.849713e+001 -5.452588e+001 -2.231059e+000 -1.562350e+002
2840306250 -3.365714e-001 -7.733500e+001 -6.013047e+001 -6.253895e+001 -5.903326e+001 -5.134594e+001 -2.243491e+000 -1.570987e+002
2859050000 -3.388030e-001 -7.781052e+001 -6.003728e+001 -6.268467e+001 -5.910205e+001 -5.283024e+001 -2.255314e+000 -1.579538e+002
2877793750 -3.411518e-001 -7.827300e+001 -5.981946e+001 -6.389440e+001 -5.908338e+001 -5.286481e+001 -2.266586e+000 -1.587890e+002
2896537500 -3.428912e-001 -7.875520e+001 -5.981536e+001 -6.378053e+001 -5.890850e+001 -5.515264e+001 -2.284281e+000 -1.596594e+002
2915281250 -3.404834e-001 -7.926762e+001 -5.986903e+001 -6.320321e+001 -5.898692e+001 -5.651173e+001 -2.296677e+000 -1.605796e+002
2934025000 -3.426143e-001 -7.973383e+001 -5.974483e+001 -6.365311e+001 -5.921984e+001 -5.762526e+001 -2.306170e+000 -1.614388e+002
2952768750 -3.447691e-001 -8.020820e+001 -5.998746e+001 -6.429305e+001 -5.935333e+001 -5.811779e+001 -2.323715e+000 -1.623025e+002
2971512500 -3.470050e-001 -8.070633e+001 -6.042281e+001 -6.399813e+001 -5.946414e+001 -5.901587e+001 -2.338916e+000 -1.631907e+002
2990256250 -3.477276e-001 -8.117525e+001 -6.027091e+001 -6.435609e+001 -5.949640e+001 -5.728896e+001 -2.351515e+000 -1.640096e+002
3009000000 -3.506213e-001 -8.165620e+001 -6.027988e+001 -6.360522e+001 -5.935896e+001 -5.834652e+001 -2.369119e+000 -1.648773e+002
3027743750 -3.498154e-001 -8.216174e+001 -5.968351e+001 -6.239071e+001 -5.927569e+001 -5.989172e+001 -2.379241e+000 -1.657751e+002
3046487500 -3.529289e-001 -8.263280e+001 -5.937932e+001 -6.126537e+001 -5.919868e+001 -6.241422e+001 -2.390079e+000 -1.666181e+002
3065231250 -3.547063e-001 -8.312362e+001 -5.895858e+001 -6.202726e+001 -5.936447e+001 -6.396720e+001 -2.402927e+000 -1.675053e+002
3083975000 -3.565145e-001 -8.363625e+001 -5.907613e+001 -6.215267e+001 -5.954053e+001 -6.301278e+001 -2.416826e+000 -1.683919e+002
3102718750 -3.611022e-001 -8.412212e+001 -5.915896e+001 -6.362759e+001 -5.959471e+001 -6.432135e+001 -2.429792e+000 -1.692040e+002
3121462500 -3.644487e-001 -8.460555e+001 -5.935208e+001 -6.365298e+001 -5.977089e+001 -6.455161e+001 -2.445148e+000 -1.700637e+002
3140206250 -3.639790e-001 -8.508886e+001 -5.935145e+001 -6.461429e+001 -5.970873e+001 -6.606334e+001 -2.455057e+000 -1.709373e+002
3158950000 -3.684837e-001 -8.557975e+001 -5.911500e+001 -6.669822e+001 -5.966225e+001 -6.666754e+001 -2.467067e+000 -1.717804e+002
3177693750 -3.665335e-001 -8.606730e+001 -5.892050e+001 -6.813361e+001 -5.971967e+001 -6.498173e+001 -2.483845e+000 -1.726694e+002
3196437500 -3.682419e-001 -8.654272e+001 -5.888716e+001 -6.762612e+001 -5.989260e+001 -6.505225e+001 -2.492922e+000 -1.735545e+002
3215181250 -3.776468e-001 -8.704066e+001 -5.863169e+001 -7.010204e+001 -5.978053e+001 -6.714096e+001 -2.510603e+000 -1.743596e+002
3233925000 -3.723537e-001 -8.753699e+001 -5.877682e+001 -7.157005e+001 -5.960675e+001 -7.156091e+001 -2.525338e+000 -1.752570e+002
3252668750 -3.770061e-001 -8.799748e+001 -5.878796e+001 -7.261725e+001 -5.962029e+001 -7.605682e+001 -2.534639e+000 -1.761246e+002
3271412500 -3.843074e-001 -8.847567e+001 -5.853031e+001 -7.438921e+001 -5.914100e+001 -7.983775e+001 -2.550815e+000 -1.769542e+002
3290156250 -3.824958e-001 -8.897569e+001 -5.847286e+001 -7.401798e+001 -5.893207e+001 -8.068237e+001 -2.563648e+000 -1.778423e+002
3308900000 -3.856097e-001 -8.944044e+001 -5.819278e+001 -7.421175e+001 -5.910073e+001 -8.208809e+001 -2.574473e+000 -1.787149e+002
3327643750 -3.936394e-001 -8.990916e+001 -5.819427e+001 -7.553477e+001 -5.911262e+001 -8.252560e+001 -2.583443e+000 -1.795666e+002
3346387500 -3.957263e-001 -9.038433e+001 -5.799800e+001 -7.541739e+001 -5.885891e+001 -8.133445e+001 -2.595684e+000 1.796034e+002
3365131250 -3.978147e-001 -9.084474e+001 -5.801025e+001 -7.794529e+001 -5.883053e+001 -7.952306e+001 -2.606106e+000 1.787390e+002
3383875000 -4.038492e-001 -9.131955e+001 -5.771971e+001 -7.808117e+001 -5.849126e+001 -7.994849e+001 -2.617607e+000 1.779004e+002
3402618750 -4.030411e-001 -9.179363e+001 -5.719002e+001 -8.059973e+001 -5.826395e+001 -8.156363e+001 -2.628162e+000 1.770695e+002
3421362500 -4.105436e-001 -9.224780e+001 -5.713486e+001 -8.120061e+001 -5.810760e+001 -8.241556e+001 -2.640988e+000 1.762077e+002
3440106250 -4.129778e-001 -9.271357e+001 -5.721391e+001 -8.312128e+001 -5.812664e+001 -8.224705e+001 -2.649247e+000 1.753642e+002
3458850000 -4.147231e-001 -9.318998e+001 -5.733064e+001 -8.383469e+001 -5.815863e+001 -8.277817e+001 -2.661797e+000 1.745239e+002
3477593750 -4.210367e-001 -9.366463e+001 -5.752183e+001 -8.539588e+001 -5.807354e+001 -8.423919e+001 -2.672136e+000 1.736572e+002
3496337500 -4.262025e-001 -9.412386e+001 -5.763694e+001 -8.409489e+001 -5.801137e+001 -8.339231e+001 -2.684310e+000 1.728246e+002
3515081250 -4.299217e-001 -9.460841e+001 -5.754524e+001 -8.382407e+001 -5.760479e+001 -8.492288e+001 -2.692131e+000 1.719798e+002
3533825000 -4.321173e-001 -9.507384e+001 -5.764452e+001 -8.481922e+001 -5.762296e+001 -8.440897e+001 -2.701759e+000 1.711185e+002
3552568750 -4.314950e-001 -9.554478e+001 -5.741627e+001 -8.402811e+001 -5.728262e+001 -8.399029e+001 -2.710855e+000 1.702831e+002
3571312500 -4.361430e-001 -9.603983e+001 -5.726268e+001 -8.441770e+001 -5.771095e+001 -8.856820e+001 -2.724156e+000 1.694402e+002
3590056250 -4.345513e-001 -9.649359e+001 -5.716529e+001 -8.456140e+001 -5.783223e+001 -8.860522e+001 -2.732446e+000 1.685674e+002
3608800000 -4.410228e-001 -9.696919e+001 -5.725883e+001 -8.512074e+001 -5.743636e+001 -9.014854e+001 -2.739220e+000 1.677509e+002
3627543750 -4.444756e-001 -9.744789e+001 -5.716182e+001 -8.770963e+001 -5.711576e+001 -9.085626e+001 -2.752969e+000 1.669324e+002
3646287500 -4.416909e-001 -9.789319e+001 -5.712859e+001 -8.785727e+001 -5.689058e+001 -9.087647e+001 -2.758721e+000 1.660638e+002
3665031250 -4.507230e-001 -9.835943e+001 -5.706394e+001 -8.782463e+001 -5.667545e+001 -8.942854e+001 -2.767074e+000 1.652570e+002
3683775000 -4.532144e-001 -9.881841e+001 -5.678906e+001 -8.982175e+001 -5.669025e+001 -8.612511e+001 -2.778921e+000 1.644420e+002
3702518750 -4.548640e-001 -9.930653e+001 -5.678091e+001 -9.119790e+001 -5.674923e+001 -8.643073e+001 -2.786460e+000 1.635609e+002
3721262500 -4.580961e-001 -9.974632e+001 -5.693599e+001 -9.150598e+001 -5.696169e+001 -8.754734e+001 -2.795263e+000 1.627546e+002
3740006250 -4.600877e-001 -1.002169e+002 -5.724378e+001 -9.081992e+001 -5.681175e+001 -8.809051e+001 -2.809738e+000 1.619118e+002
3758750000 -4.616309e-001 -1.007070e+002 -5.752852e+001 -9.145945e+001 -5.683353e+001 -9.045350e+001 -2.819319e+000 1.610571e+002
3777493750 -4.630581e-001 -1.011408e+002 -5.764163e+001 -9.284198e+001 -5.705825e+001 -9.043961e+001 -2.829876e+000 1.602383e+002
3796237500 -4.681889e-001 -1.016272e+002 -5.751406e+001 -9.391076e+001 -5.690390e+001 -9.217702e+001 -2.844425e+000 1.593884e+002
3814981250 -4.706067e-001 -1.020971e+002 -5.760036e+001 -9.373528e+001 -5.685486e+001 -9.253488e+001 -2.851716e+000 1.585254e+002
3833725000 -4.765918e-001 -1.025128e+002 -5.764369e+001 -9.362827e+001 -5.672337e+001 -9.241209e+001 -2.862379e+000 1.577247e+002
3852468750 -4.790711e-001 -1.029902e+002 -5.741738e+001 -9.433205e+001 -5.685346e+001 -9.479163e+001 -2.873991e+000 1.568593e+002
3871212500 -4.843450e-001 -1.034709e+002 -5.714635e+001 -9.498502e+001 -5.725987e+001 -9.330614e+001 -2.881407e+000 1.560162e+002
3889956250 -4.877462e-001 -1.038810e+002 -5.715797e+001 -9.517604e+001 -5.730518e+001 -9.257983e+001 -2.893428e+000 1.552031e+002
3908700000 -4.863938e-001 -1.043662e+002 -5.703114e+001 -9.532639e+001 -5.714663e+001 -9.322837e+001 -2.905392e+000 1.543314e+002
3927443750 -4.932907e-001 -1.048160e+002 -5.693932e+001 -9.883865e+001 -5.725373e+001 -9.456895e+001 -2.909922e+000 1.534958e+002
3946187500 -4.968703e-001 -1.052216e+002 -5.684507e+001 -1.004911e+002 -5.737092e+001 -9.586511e+001 -2.923749e+000 1.526720e+002
3964931250 -4.972121e-001 -1.056992e+002 -5.683978e+001 -1.023105e+002 -5.721447e+001 -9.801355e+001 -2.936335e+000 1.518075e+002
3983675000 -5.042085e-001 -1.061291e+002 -5.678749e+001 -1.016952e+002 -5.701226e+001 -1.001169e+002 -2.944378e+000 1.509761e+002
4002418750 -5.083295e-001 -1.065449e+002 -5.670781e+001 -9.966412e+001 -5.641925e+001 -9.595647e+001 -2.955918e+000 1.501533e+002
4021162500 -5.096645e-001 -1.070312e+002 -5.681198e+001 -9.863725e+001 -5.631953e+001 -9.623180e+001 -2.968927e+000 1.493020e+002
4039906250 -5.124308e-001 -1.074695e+002 -5.698400e+001 -9.974013e+001 -5.638662e+001 -9.603885e+001 -2.978081e+000 1.484466e+002
4058650000 -5.175912e-001 -1.079042e+002 -5.683493e+001 -9.914272e+001 -5.662881e+001 -9.713031e+001 -2.991231e+000 1.475954e+002
4077393750 -5.200627e-001 -1.083889e+002 -5.679806e+001 -9.755207e+001 -5.684351e+001 -9.861342e+001 -3.003790e+000 1.467451e+002
4096137500 -5.246059e-001 -1.088164e+002 -5.669493e+001 -9.670969e+001 -5.700402e+001 -9.977666e+001 -3.012659e+000 1.459010e+002
4114881250 -5.272871e-001 -1.092778e+002 -5.679194e+001 -9.532173e+001 -5.700211e+001 -1.006719e+002 -3.027120e+000 1.450420e+002
4133625000 -5.274850e-001 -1.097372e+002 -5.684011e+001 -9.599148e+001 -5.700599e+001 -9.999535e+001 -3.037319e+000 1.441956e+002
4152368750 -5.333360e-001 -1.101902e+002 -5.685333e+001 -9.864292e+001 -5.693464e+001 -1.000406e+002 -3.049528e+000 1.433551e+002
4171112500 -5.365738e-001 -1.106499e+002 -5.658660e+001 -9.968490e+001 -5.712051e+001 -1.006815e+002 -3.062565e+000 1.424965e+002
4189856250 -5.372086e-001 -1.110924e+002 -5.655569e+001 -9.904216e+001 -5.703206e+001 -9.854745e+001 -3.071550e+000 1.416346e+002
4208600000 -5.417209e-001 -1.115609e+002 -5.655194e+001 -1.007833e+002 -5.700632e+001 -9.941608e+001 -3.081459e+000 1.407984e+002
4227343750 -5.433521e-001 -1.119974e+002 -5.633475e+001 -9.885566e+001 -5.705764e+001 -1.010680e+002 -3.095954e+000 1.399463e+002
4246087500 -5.461495e-001 -1.124649e+002 -5.645500e+001 -1.000969e+002 -5.712703e+001 -1.017664e+002 -3.105011e+000 1.390824e+002
4264831250 -5.509182e-001 -1.129314e+002 -5.651897e+001 -9.975623e+001 -5.719710e+001 -1.018283e+002 -3.116721e+000 1.382417e+002
4283575000 -5.525929e-001 -1.133885e+002 -5.653160e+001 -9.973264e+001 -5.704498e+001 -1.016570e+002 -3.128562e+000 1.373993e+002
4302318750 -5.545989e-001 -1.138345e+002 -5.652769e+001 -1.003622e+002 -5.670225e+001 -1.041131e+002 -3.140887e+000 1.365584e+002
4321062500 -5.587062e-001 -1.143144e+002 -5.653391e+001 -1.012446e+002 -5.660817e+001 -1.055838e+002 -3.149501e+000 1.357021e+002
4339806250 -5.639832e-001 -1.147461e+002 -5.646669e+001 -1.024333e+002 -5.686530e+001 -1.066102e+002 -3.161105e+000 1.348598e+002
4358550000 -5.661462e-001 -1.152249e+002 -5.651950e+001 -1.005825e+002 -5.657705e+001 -1.079609e+002 -3.175316e+000 1.340101e+002
4377293750 -5.663549e-001 -1.157051e+002 -5.645600e+001 -9.824489e+001 -5.648362e+001 -1.089053e+002 -3.188887e+000 1.331888e+002
4396037500 -5.719123e-001 -1.161379e+002 -5.644276e+001 -9.750488e+001 -5.649681e+001 -1.084837e+002 -3.199489e+000 1.323132e+002
4414781250 -5.752779e-001 -1.166004e+002 -5.650069e+001 -1.000467e+002 -5.657396e+001 -1.081569e+002 -3.206262e+000 1.314466e+002
4433525000 -5.760628e-001 -1.170756e+002 -5.649706e+001 -1.023641e+002 -5.678646e+001 -1.101707e+002 -3.217866e+000 1.306026e+002
4452268750 -5.814332e-001 -1.174932e+002 -5.638914e+001 -1.032722e+002 -5.663549e+001 -1.112706e+002 -3.227963e+000 1.297248e+002
4471012500 -5.867742e-001 -1.179357e+002 -5.610084e+001 -1.046532e+002 -5.662024e+001 -1.135799e+002 -3.234063e+000 1.288834e+002
4489756250 -5.863988e-001 -1.184098e+002 -5.627340e+001 -1.058318e+002 -5.643514e+001 -1.138526e+002 -3.244298e+000 1.280301e+002
4508500000 -5.927336e-001 -1.188364e+002 -5.639750e+001 -1.090752e+002 -5.623516e+001 -1.143898e+002 -3.252279e+000 1.271540e+002
4527243750 -5.939324e-001 -1.192841e+002 -5.635416e+001 -1.105951e+002 -5.613517e+001 -1.153782e+002 -3.259621e+000 1.262929e+002
4545987500 -5.981911e-001 -1.197636e+002 -5.645039e+001 -1.122102e+002 -5.602356e+001 -1.164471e+002 -3.269831e+000 1.254423e+002
4564731250 -6.020350e-001 -1.201775e+002 -5.633687e+001 -1.124507e+002 -5.586001e+001 -1.185561e+002 -3.278633e+000 1.245589e+002
4583475000 -6.073861e-001 -1.206248e+002 -5.621068e+001 -1.121100e+002 -5.572202e+001 -1.186068e+002 -3.284398e+000 1.236933e+002
4602218750 -6.111813e-001 -1.210803e+002 -5.628987e+001 -1.138189e+002 -5.547196e+001 -1.188878e+002 -3.288641e+000 1.228312e+002
4620962500 -6.138455e-001 -1.215167e+002 -5.608507e+001 -1.156004e+002 -5.560580e+001 -1.208922e+002 -3.296950e+000 1.219874e+002
4639706250 -6.229290e-001 -1.219516e+002 -5.601603e+001 -1.154844e+002 -5.548601e+001 -1.231641e+002 -3.304284e+000 1.211154e+002
4658450000 -6.273562e-001 -1.224156e+002 -5.624691e+001 -1.186306e+002 -5.539880e+001 -1.216195e+002 -3.308445e+000 1.202591e+002
4677193750 -6.290567e-001 -1.228493e+002 -5.602777e+001 -1.197888e+002 -5.541227e+001 -1.236068e+002 -3.318062e+000 1.193784e+002
4695937500 -6.334357e-001 -1.232911e+002 -5.617945e+001 -1.219712e+002 -5.534541e+001 -1.248847e+002 -3.323435e+000 1.184970e+002
4714681250 -6.402045e-001 -1.237398e+002 -5.634713e+001 -1.220556e+002 -5.549971e+001 -1.253298e+002 -3.331310e+000 1.176611e+002
4733425000 -6.454858e-001 -1.241787e+002 -5.623463e+001 -1.217846e+002 -5.549567e+001 -1.252868e+002 -3.337731e+000 1.167414e+002
4752168750 -6.497332e-001 -1.246383e+002 -5.602079e+001 -1.228590e+002 -5.548697e+001 -1.253290e+002 -3.343650e+000 1.158953e+002
4770912500 -6.560516e-001 -1.250954e+002 -5.611553e+001 -1.225899e+002 -5.541539e+001 -1.254055e+002 -3.353356e+000 1.150424e+002
4789656250 -6.592968e-001 -1.255276e+002 -5.600641e+001 -1.245023e+002 -5.546434e+001 -1.271250e+002 -3.358018e+000 1.140986e+002
4808400000 -6.665031e-001 -1.259711e+002 -5.588876e+001 -1.274508e+002 -5.548564e+001 -1.273227e+002 -3.360174e+000 1.132392e+002
4827143750 -6.720454e-001 -1.264304e+002 -5.582713e+001 -1.283110e+002 -5.542402e+001 -1.280862e+002 -3.369822e+000 1.123849e+002
4845887500 -6.760122e-001 -1.268764e+002 -5.581244e+001 -1.295569e+002 -5.548560e+001 -1.293692e+002 -3.380154e+000 1.114657e+002
4864631250 -6.819243e-001 -1.273218e+002 -5.585632e+001 -1.289959e+002 -5.525113e+001 -1.295408e+002 -3.382942e+000 1.106162e+002
4883375000 -6.860771e-001 -1.277923e+002 -5.588785e+001 -1.305057e+002 -5.549994e+001 -1.315125e+002 -3.393551e+000 1.097627e+002
4902118750 -6.882536e-001 -1.282402e+002 -5.579134e+001 -1.305559e+002 -5.555428e+001 -1.319944e+002 -3.402890e+000 1.088176e+002
4920862500 -6.970956e-001 -1.286887e+002 -5.569281e+001 -1.319876e+002 -5.550544e+001 -1.332390e+002 -3.406744e+000 1.079694e+002
4939606250 -6.994300e-001 -1.291558e+002 -5.571759e+001 -1.306773e+002 -5.584779e+001 -1.341544e+002 -3.419230e+000 1.071006e+002
4958350000 -7.049543e-001 -1.295931e+002 -5.597999e+001 -1.328574e+002 -5.584501e+001 -1.350232e+002 -3.424910e+000 1.061606e+002
4977093750 -7.105514e-001 -1.300277e+002 -5.623988e+001 -1.338030e+002 -5.578680e+001 -1.351656e+002 -3.426086e+000 1.053107e+002
4995837500 -7.123829e-001 -1.305018e+002 -5.628923e+001 -1.364573e+002 -5.584113e+001 -1.366186e+002 -3.439478e+000 1.044416e+002
5014581250 -7.149064e-001 -1.309116e+002 -5.640795e+001 -1.369652e+002 -5.601025e+001 -1.381342e+002 -3.446758e+000 1.035215e+002
5033325000 -7.224082e-001 -1.313695e+002 -5.630307e+001 -1.373110e+002 -5.603658e+001 -1.373246e+002 -3.454197e+000 1.026756e+002
5052068750 -7.241552e-001 -1.318367e+002 -5.630942e+001 -1.388946e+002 -5.579403e+001 -1.366277e+002 -3.467721e+000 1.017488e+002
5070812500 -7.264929e-001 -1.322504e+002 -5.628783e+001 -1.404390e+002 -5.568897e+001 -1.364140e+002 -3.471541e+000 1.008210e+002
5089556250 -7.346991e-001 -1.327010e+002 -5.614931e+001 -1.404654e+002 -5.584267e+001 -1.380203e+002 -3.479503e+000 9.994961e+001
5108300000 -7.365379e-001 -1.331521e+002 -5.636206e+001 -1.421723e+002 -5.596428e+001 -1.382771e+002 -3.491705e+000 9.904951e+001
5127043750 -7.402168e-001 -1.335723e+002 -5.624634e+001 -1.414036e+002 -5.583809e+001 -1.386132e+002 -3.496685e+000 9.811819e+001
5145787500 -7.436104e-001 -1.340101e+002 -5.624126e+001 -1.423563e+002 -5.575262e+001 -1.384857e+002 -3.500942e+000 9.721456e+001
5164531250 -7.450289e-001 -1.344667e+002 -5.634307e+001 -1.433578e+002 -5.582881e+001 -1.398743e+002 -3.510423e+000 9.631168e+001
5183275000 -7.490449e-001 -1.348660e+002 -5.648817e+001 -1.439149e+002 -5.587370e+001 -1.406020e+002 -3.516280e+000 9.537542e+001
5202018750 -7.556350e-001 -1.353052e+002 -5.640650e+001 -1.459307e+002 -5.596906e+001 -1.407995e+002 -3.522877e+000 9.446449e+001
5220762500 -7.577688e-001 -1.357566e+002 -5.631818e+001 -1.462375e+002 -5.614307e+001 -1.406445e+002 -3.533027e+000 9.355727e+001
5239506250 -7.617782e-001 -1.361770e+002 -5.642778e+001 -1.453790e+002 -5.653778e+001 -1.411578e+002 -3.538653e+000 9.261233e+001
5258250000 -7.664468e-001 -1.366118e+002 -5.642759e+001 -1.456231e+002 -5.640515e+001 -1.421013e+002 -3.545142e+000 9.170119e+001
5276993750 -7.692646e-001 -1.370642e+002 -5.650760e+001 -1.462945e+002 -5.645224e+001 -1.431949e+002 -3.552729e+000 9.077785e+001
5295737500 -7.740861e-001 -1.374907e+002 -5.650718e+001 -1.472016e+002 -5.671555e+001 -1.426008e+002 -3.557348e+000 8.984117e+001
5314481250 -7.812454e-001 -1.379231e+002 -5.647182e+001 -1.478369e+002 -5.655790e+001 -1.439756e+002 -3.564380e+000 8.892695e+001
5333225000 -7.838972e-001 -1.383705e+002 -5.673172e+001 -1.488898e+002 -5.647029e+001 -1.426523e+002 -3.570701e+000 8.799705e+001
5351968750 -7.871197e-001 -1.387949e+002 -5.685303e+001 -1.490059e+002 -5.659367e+001 -1.433095e+002 -3.575737e+000 8.706328e+001
5370712500 -7.913389e-001 -1.392243e+002 -5.683966e+001 -1.498293e+002 -5.632273e+001 -1.435648e+002 -3.581092e+000 8.613722e+001
5389456250 -7.948987e-001 -1.396763e+002 -5.661485e+001 -1.482820e+002 -5.640223e+001 -1.437359e+002 -3.592504e+000 8.519813e+001
5408200000 -8.003380e-001 -1.400972e+002 -5.633673e+001 -1.490760e+002 -5.630272e+001 -1.445968e+002 -3.597870e+000 8.426148e+001
5426943750 -8.052934e-001 -1.405409e+002 -5.640000e+001 -1.472017e+002 -5.631797e+001 -1.463081e+002 -3.605216e+000 8.332450e+001
5445687500 -8.100514e-001 -1.409787e+002 -5.625836e+001 -1.472393e+002 -5.621636e+001 -1.464443e+002 -3.611072e+000 8.234735e+001
5464431250 -8.161771e-001 -1.413890e+002 -5.627542e+001 -1.468596e+002 -5.621356e+001 -1.478303e+002 -3.616868e+000 8.139398e+001
5483175000 -8.229998e-001 -1.418408e+002 -5.611796e+001 -1.463798e+002 -5.633006e+001 -1.479131e+002 -3.620500e+000 8.046883e+001
5501918750 -8.273057e-001 -1.422814e+002 -5.602164e+001 -1.470492e+002 -5.643169e+001 -1.482829e+002 -3.627472e+000 7.949213e+001
5520662500 -8.323355e-001 -1.427088e+002 -5.618194e+001 -1.486921e+002 -5.630172e+001 -1.489989e+002 -3.629900e+000 7.854475e+001
5539406250 -8.385349e-001 -1.431655e+002 -5.606799e+001 -1.474784e+002 -5.629792e+001 -1.498765e+002 -3.636354e+000 7.760616e+001
5558150000 -8.401413e-001 -1.436032e+002 -5.601163e+001 -1.486586e+002 -5.643898e+001 -1.513233e+002 -3.643059e+000 7.662618e+001
5576893750 -8.483426e-001 -1.440216e+002 -5.599884e+001 -1.502738e+002 -5.645571e+001 -1.514327e+002 -3.647955e+000 7.564623e+001
5595637500 -8.536786e-001 -1.444848e+002 -5.613651e+001 -1.524715e+002 -5.635424e+001 -1.528508e+002 -3.655835e+000 7.468291e+001
5614381250 -8.560859e-001 -1.449202e+002 -5.606693e+001 -1.537602e+002 -5.616448e+001 -1.547443e+002 -3.663340e+000 7.367486e+001
5633125000 -8.616292e-001 -1.453349e+002 -5.627954e+001 -1.551980e+002 -5.624104e+001 -1.559594e+002 -3.662873e+000 7.270023e+001
5651868750 -8.672200e-001 -1.457863e+002 -5.622997e+001 -1.566217e+002 -5.622400e+001 -1.559656e+002 -3.671927e+000 7.175002e+001
5670612500 -8.704064e-001 -1.462107e+002 -5.632133e+001 -1.574028e+002 -5.612017e+001 -1.578602e+002 -3.678353e+000 7.072848e+001
5689356250 -8.780458e-001 -1.466214e+002 -5.649548e+001 -1.582770e+002 -5.643710e+001 -1.572767e+002 -3.679167e+000 6.973537e+001
5708100000 -8.824417e-001 -1.470738e+002 -5.655003e+001 -1.566879e+002 -5.648769e+001 -1.586744e+002 -3.685547e+000 6.874834e+001
5726843750 -8.843114e-001 -1.474967e+002 -5.658038e+001 -1.581006e+002 -5.621843e+001 -1.609039e+002 -3.691045e+000 6.772360e+001
5745587500 -8.908741e-001 -1.478943e+002 -5.670519e+001 -1.574030e+002 -5.606586e+001 -1.587583e+002 -3.691039e+000 6.671929e+001
5764331250 -8.970834e-001 -1.483452e+002 -5.681097e+001 -1.567794e+002 -5.628054e+001 -1.621458e+002 -3.699675e+000 6.572517e+001
5783075000 -9.008134e-001 -1.487605e+002 -5.680338e+001 -1.570055e+002 -5.617541e+001 -1.630550e+002 -3.703421e+000 6.468752e+001
5801818750 -9.047383e-001 -1.491685e+002 -5.665401e+001 -1.578027e+002 -5.642398e+001 -1.614176e+002 -3.701809e+000 6.363931e+001
5820562500 -9.115031e-001 -1.496017e+002 -5.673864e+001 -1.595949e+002 -5.621643e+001 -1.631868e+002 -3.703878e+000 6.264994e+001
5839306250 -9.142870e-001 -1.500323e+002 -5.716501e+001 -1.589971e+002 -5.623075e+001 -1.633668e+002 -3.712163e+000 6.156898e+001
5858050000 -9.191802e-001 -1.504199e+002 -5.716005e+001 -1.612174e+002 -5.637258e+001 -1.622261e+002 -3.709980e+000 6.053111e+001
5876793750 -9.292768e-001 -1.508477e+002 -5.734947e+001 -1.620365e+002 -5.631049e+001 -1.626774e+002 -3.716436e+000 5.956390e+001
5895537500 -9.311653e-001 -1.513161e+002 -5.734316e+001 -1.629318e+002 -5.642160e+001 -1.646389e+002 -3.723315e+000 5.847514e+001
5914281250 -9.324749e-001 -1.516967e+002 -5.746706e+001 -1.643044e+002 -5.635901e+001 -1.668750e+002 -3.722423e+000 5.741329e+001
5933025000 -9.406154e-001 -1.521322e+002 -5.751012e+001 -1.637565e+002 -5.628005e+001 -1.692439e+002 -3.727962e+000 5.640986e+001
5951768750 -9.423721e-001 -1.525985e+002 -5.768835e+001 -1.619207e+002 -5.630822e+001 -1.706809e+002 -3.732419e+000 5.529493e+001
5970512500 -9.437872e-001 -1.529765e+002 -5.768484e+001 -1.633467e+002 -5.627312e+001 -1.726358e+002 -3.728764e+000 5.425084e+001
5989256250 -9.542930e-001 -1.534053e+002 -5.792075e+001 -1.629843e+002 -5.622139e+001 -1.716357e+002 -3.734439e+000 5.321678e+001
6008000000 -9.564119e-001 -1.538819e+002 -5.795998e+001 -1.629598e+002 -5.630497e+001 -1.737158e+002 -3.738018e+000 5.211236e+001
6026743750 -9.597716e-001 -1.542654e+002 -5.782186e+001 -1.624666e+002 -5.638134e+001 -1.729066e+002 -3.733456e+000 5.106042e+001
6045487500 -9.698134e-001 -1.547095e+002 -5.776358e+001 -1.625057e+002 -5.662495e+001 -1.723777e+002 -3.737554e+000 5.000835e+001
6064231250 -9.723547e-001 -1.551812e+002 -5.744973e+001 -1.617994e+002 -5.651943e+001 -1.732207e+002 -3.742472e+000 4.887318e+001
6082975000 -9.739510e-001 -1.555713e+002 -5.769381e+001 -1.626470e+002 -5.644963e+001 -1.734752e+002 -3.735572e+000 4.781263e+001
6101718750 -9.832714e-001 -1.560191e+002 -5.771872e+001 -1.632615e+002 -5.635456e+001 -1.721551e+002 -3.742499e+000 4.672346e+001
6120462500 -9.844636e-001 -1.564902e+002 -5.762820e+001 -1.636717e+002 -5.621596e+001 -1.738030e+002 -3.743628e+000 4.559482e+001
6139206250 -9.893071e-001 -1.568807e+002 -5.771016e+001 -1.658941e+002 -5.625082e+001 -1.735642e+002 -3.742247e+000 4.453093e+001
6157950000 -1.000307e+000 -1.573284e+002 -5.769129e+001 -1.656284e+002 -5.639571e+001 -1.740176e+002 -3.748268e+000 4.340975e+001
6176693750 -1.000962e+000 -1.578190e+002 -5.769491e+001 -1.675358e+002 -5.650496e+001 -1.753189e+002 -3.746945e+000 4.226758e+001
6195437500 -1.007581e+000 -1.582377e+002 -5.755922e+001 -1.685563e+002 -5.638104e+001 -1.739855e+002 -3.745743e+000 4.118187e+001
6214181250 -1.012486e+000 -1.586925e+002 -5.749823e+001 -1.694140e+002 -5.647116e+001 -1.743200e+002 -3.749251e+000 4.004089e+001
6232925000 -1.017983e+000 -1.591252e+002 -5.762064e+001 -1.714085e+002 -5.636568e+001 -1.764882e+002 -3.748960e+000 3.893615e+001
6251668750 -1.024303e+000 -1.595607e+002 -5.772863e+001 -1.723270e+002 -5.652859e+001 -1.775337e+002 -3.749521e+000 3.781723e+001
6270412500 -1.033497e+000 -1.600186e+002 -5.726766e+001 -1.740192e+002 -5.660701e+001 -1.787253e+002 -3.747385e+000 3.667564e+001
6289156250 -1.036369e+000 -1.604636e+002 -5.739079e+001 -1.735203e+002 -5.647294e+001 -1.788056e+002 -3.744821e+000 3.553828e+001
6307900000 -1.036951e+000 -1.608985e+002 -5.746012e+001 -1.730415e+002 -5.641637e+001 -1.790820e+002 -3.742490e+000 3.437359e+001
6326643750 -1.046220e+000 -1.613203e+002 -5.729309e+001 -1.737882e+002 -5.635033e+001 -1.790978e+002 -3.739753e+000 3.323433e+001
6345387500 -1.051830e+000 -1.617600e+002 -5.739190e+001 -1.738222e+002 -5.638036e+001 -1.785129e+002 -3.739865e+000 3.207880e+001
6364131250 -1.054925e+000 -1.621830e+002 -5.731108e+001 -1.749591e+002 -5.625158e+001 -1.779994e+002 -3.738364e+000 3.091026e+001
6382875000 -1.064009e+000 -1.625950e+002 -5.691413e+001 -1.766831e+002 -5.617743e+001 -1.766541e+002 -3.736004e+000 2.975399e+001
6401618750 -1.070147e+000 -1.630354e+002 -5.688691e+001 -1.767847e+002 -5.621899e+001 -1.757002e+002 -3.733835e+000 2.857825e+001
6420362500 -1.075091e+000 -1.634625e+002 -5.665765e+001 -1.783948e+002 -5.609002e+001 -1.777493e+002 -3.730400e+000 2.739622e+001
6439106250 -1.083232e+000 -1.638822e+002 -5.648490e+001 -1.785944e+002 -5.618877e+001 -1.777115e+002 -3.725822e+000 2.621593e+001
6457850000 -1.086562e+000 -1.643190e+002 -5.644702e+001 -1.796631e+002 -5.607775e+001 -1.790263e+002 -3.724587e+000 2.503739e+001
6476593750 -1.091206e+000 -1.647302e+002 -5.644901e+001 -1.797573e+002 -5.585549e+001 -1.797071e+002 -3.720926e+000 2.386576e+001
6495337500 -1.097565e+000 -1.651398e+002 -5.644209e+001 1.790921e+002 -5.583982e+001 1.795897e+002 -3.713380e+000 2.269797e+001
6514081250 -1.101540e+000 -1.655801e+002 -5.621991e+001 1.785121e+002 -5.574865e+001 1.777786e+002 -3.710957e+000 2.151159e+001
6532825000 -1.107096e+000 -1.659838e+002 -5.623700e+001 1.765200e+002 -5.561966e+001 1.761219e+002 -3.703301e+000 2.032967e+001
6551568750 -1.115534e+000 -1.664064e+002 -5.638659e+001 1.748738e+002 -5.559055e+001 1.758907e+002 -3.696562e+000 1.914605e+001
6570312500 -1.119571e+000 -1.668392e+002 -5.610781e+001 1.744808e+002 -5.550845e+001 1.757882e+002 -3.693365e+000 1.794877e+001
6589056250 -1.123911e+000 -1.672487e+002 -5.604787e+001 1.732266e+002 -5.552497e+001 1.751303e+002 -3.687122e+000 1.673027e+001
6607800000 -1.132204e+000 -1.676668e+002 -5.578509e+001 1.724559e+002 -5.553732e+001 1.733499e+002 -3.678191e+000 1.554279e+001
6626543750 -1.133915e+000 -1.680757e+002 -5.573060e+001 1.711904e+002 -5.532619e+001 1.730609e+002 -3.672585e+000 1.434517e+001
6645287500 -1.145055e+000 -1.684811e+002 -5.580722e+001 1.705823e+002 -5.516159e+001 1.725401e+002 -3.667305e+000 1.312199e+001
6664031250 -1.151630e+000 -1.689412e+002 -5.574918e+001 1.704356e+002 -5.495875e+001 1.714834e+002 -3.659652e+000 1.191152e+001
6682775000 -1.152603e+000 -1.693456e+002 -5.564981e+001 1.698494e+002 -5.496979e+001 1.725337e+002 -3.655209e+000 1.069201e+001
6701518750 -1.159260e+000 -1.697507e+002 -5.582502e+001 1.691870e+002 -5.485063e+001 1.719536e+002 -3.649477e+000 9.452333e+000
6720262500 -1.168685e+000 -1.701927e+002 -5.563729e+001 1.682448e+002 -5.485334e+001 1.706547e+002 -3.638313e+000 8.236258e+000
6739006250 -1.172549e+000 -1.706236e+002 -5.540350e+001 1.667131e+002 -5.490263e+001 1.695563e+002 -3.634100e+000 7.017210e+000
6757750000 -1.180144e+000 -1.710372e+002 -5.565090e+001 1.658364e+002 -5.486591e+001 1.690524e+002 -3.625534e+000 5.773706e+000
6776493750 -1.187068e+000 -1.714820e+002 -5.561217e+001 1.656333e+002 -5.487269e+001 1.673364e+002 -3.611595e+000 4.562373e+000
6795237500 -1.190356e+000 -1.719121e+002 -5.581858e+001 1.657034e+002 -5.488824e+001 1.677970e+002 -3.608241e+000 3.333468e+000
6813981250 -1.197631e+000 -1.723299e+002 -5.583474e+001 1.637210e+002 -5.492516e+001 1.670649e+002 -3.598979e+000 2.079829e+000
6832725000 -1.205037e+000 -1.727735e+002 -5.578549e+001 1.631965e+002 -5.484927e+001 1.660704e+002 -3.586477e+000 8.485665e-001
6851468750 -1.207883e+000 -1.732018e+002 -5.585917e+001 1.628988e+002 -5.491656e+001 1.659471e+002 -3.580921e+000 -3.884133e-001
6870212500 -1.215422e+000 -1.736254e+002 -5.592171e+001 1.618148e+002 -5.467355e+001 1.642094e+002 -3.570249e+000 -1.635372e+000
6888956250 -1.221072e+000 -1.740564e+002 -5.602784e+001 1.608395e+002 -5.470494e+001 1.634585e+002 -3.557904e+000 -2.881749e+000
6907700000 -1.224855e+000 -1.744784e+002 -5.610453e+001 1.597676e+002 -5.479969e+001 1.623824e+002 -3.552491e+000 -4.158997e+000
6926443750 -1.234871e+000 -1.749173e+002 -5.622151e+001 1.594548e+002 -5.469006e+001 1.626351e+002 -3.541501e+000 -5.431977e+000
6945187500 -1.240458e+000 -1.753471e+002 -5.628616e+001 1.592615e+002 -5.470365e+001 1.622600e+002 -3.528111e+000 -6.702790e+000
6963931250 -1.244791e+000 -1.757824e+002 -5.612230e+001 1.589880e+002 -5.476120e+001 1.613367e+002 -3.520967e+000 -7.975421e+000
6982675000 -1.253396e+000 -1.762117e+002 -5.589605e+001 1.600692e+002 -5.492788e+001 1.614331e+002 -3.508674e+000 -9.242267e+000
7001418750 -1.257727e+000 -1.766268e+002 -5.588694e+001 1.585957e+002 -5.481808e+001 1.598577e+002 -3.497125e+000 -1.050761e+001
7020162500 -1.263896e+000 -1.770500e+002 -5.588939e+001 1.581905e+002 -5.467949e+001 1.589490e+002 -3.490630e+000 -1.177402e+001
7038906250 -1.274097e+000 -1.774465e+002 -5.626689e+001 1.574590e+002 -5.461870e+001 1.597038e+002 -3.477273e+000 -1.305368e+001
7057650000 -1.277827e+000 -1.778786e+002 -5.622144e+001 1.564938e+002 -5.461841e+001 1.573063e+002 -3.466362e+000 -1.434325e+001
7076393750 -1.283641e+000 -1.783108e+002 -5.623668e+001 1.559644e+002 -5.471283e+001 1.558575e+002 -3.456489e+000 -1.563689e+001
7095137500 -1.292837e+000 -1.787360e+002 -5.612693e+001 1.557166e+002 -5.478910e+001 1.552055e+002 -3.440039e+000 -1.693789e+001
7113881250 -1.296338e+000 -1.791712e+002 -5.616473e+001 1.555266e+002 -5.472456e+001 1.545383e+002 -3.429088e+000 -1.823708e+001
7132625000 -1.302440e+000 -1.795766e+002 -5.595686e+001 1.561731e+002 -5.473889e+001 1.538913e+002 -3.417989e+000 -1.953258e+001
7151368750 -1.311214e+000 1.799996e+002 -5.592819e+001 1.556491e+002 -5.462505e+001 1.530296e+002 -3.403043e+000 -2.082724e+001
7170112500 -1.315489e+000 1.795602e+002 -5.598268e+001 1.542060e+002 -5.450745e+001 1.529933e+002 -3.392096e+000 -2.213436e+001
7188856250 -1.323142e+000 1.791515e+002 -5.574333e+001 1.538737e+002 -5.454288e+001 1.523600e+002 -3.378572e+000 -2.345643e+001
7207600000 -1.332073e+000 1.787174e+002 -5.576373e+001 1.535714e+002 -5.449010e+001 1.524439e+002 -3.364967e+000 -2.475876e+001
7226343750 -1.337017e+000 1.782951e+002 -5.572071e+001 1.531792e+002 -5.465987e+001 1.511377e+002 -3.353057e+000 -2.607747e+001
7245087500 -1.344949e+000 1.779139e+002 -5.561661e+001 1.534346e+002 -5.459963e+001 1.494835e+002 -3.339352e+000 -2.740809e+001
7263831250 -1.351388e+000 1.774785e+002 -5.570778e+001 1.523785e+002 -5.444076e+001 1.480850e+002 -3.324544e+000 -2.872158e+001
7282575000 -1.357494e+000 1.770562e+002 -5.573916e+001 1.513190e+002 -5.457799e+001 1.476402e+002 -3.313135e+000 -3.004575e+001
7301318750 -1.364123e+000 1.766578e+002 -5.581282e+001 1.510707e+002 -5.452404e+001 1.482504e+002 -3.298702e+000 -3.138631e+001
7320062500 -1.372799e+000 1.762088e+002 -5.565658e+001 1.519637e+002 -5.441739e+001 1.476142e+002 -3.284192e+000 -3.270646e+001
7338806250 -1.378611e+000 1.757879e+002 -5.570106e+001 1.507909e+002 -5.434426e+001 1.471848e+002 -3.271120e+000 -3.403170e+001
7357550000 -1.385186e+000 1.753929e+002 -5.546457e+001 1.497862e+002 -5.423864e+001 1.454861e+002 -3.257918e+000 -3.537672e+001
7376293750 -1.393154e+000 1.749421e+002 -5.535390e+001 1.494718e+002 -5.425161e+001 1.448042e+002 -3.243461e+000 -3.668840e+001
7395037500 -1.399094e+000 1.745048e+002 -5.538177e+001 1.487673e+002 -5.408881e+001 1.432333e+002 -3.223490e+000 -3.801929e+001
7413781250 -1.400073e+000 1.740901e+002 -5.535064e+001 1.468716e+002 -5.384958e+001 1.419194e+002 -3.212005e+000 -3.935580e+001
7432525000 -1.414384e+000 1.736424e+002 -5.535211e+001 1.472467e+002 -5.394235e+001 1.413991e+002 -3.195903e+000 -4.071524e+001
7451268750 -1.417691e+000 1.731945e+002 -5.528628e+001 1.463144e+002 -5.391179e+001 1.414932e+002 -3.174576e+000 -4.205739e+001
7470012500 -1.414564e+000 1.727439e+002 -5.508641e+001 1.454477e+002 -5.385160e+001 1.396068e+002 -3.163277e+000 -4.339532e+001
7488756250 -1.430687e+000 1.723559e+002 -5.508762e+001 1.440458e+002 -5.377031e+001 1.394769e+002 -3.149554e+000 -4.475055e+001
7507500000 -1.436851e+000 1.718954e+002 -5.480221e+001 1.424390e+002 -5.371059e+001 1.384436e+002 -3.131526e+000 -4.610500e+001
7526243750 -1.435663e+000 1.714635e+002 -5.479716e+001 1.410291e+002 -5.381404e+001 1.377972e+002 -3.121570e+000 -4.743586e+001
7544987500 -1.449470e+000 1.710738e+002 -5.470959e+001 1.394371e+002 -5.376096e+001 1.370636e+002 -3.106848e+000 -4.878571e+001
7563731250 -1.454187e+000 1.706050e+002 -5.465029e+001 1.379273e+002 -5.383788e+001 1.354152e+002 -3.087763e+000 -5.015048e+001
7582475000 -1.453166e+000 1.701821e+002 -5.466876e+001 1.366192e+002 -5.376782e+001 1.345044e+002 -3.077936e+000 -5.150201e+001
7601218750 -1.467552e+000 1.697995e+002 -5.457851e+001 1.356652e+002 -5.375599e+001 1.325435e+002 -3.060149e+000 -5.287283e+001
7619962500 -1.471365e+000 1.693289e+002 -5.461298e+001 1.334130e+002 -5.371307e+001 1.313270e+002 -3.043372e+000 -5.423022e+001
7638706250 -1.473485e+000 1.689064e+002 -5.442910e+001 1.316555e+002 -5.391192e+001 1.306046e+002 -3.032060e+000 -5.557983e+001
7657450000 -1.483650e+000 1.685179e+002 -5.427784e+001 1.296164e+002 -5.386147e+001 1.287675e+002 -3.016091e+000 -5.695723e+001
7676193750 -1.487116e+000 1.680371e+002 -5.455672e+001 1.286226e+002 -5.384793e+001 1.275450e+002 -3.000748e+000 -5.830769e+001
7694937500 -1.492292e+000 1.676289e+002 -5.446656e+001 1.264220e+002 -5.396828e+001 1.276627e+002 -2.990433e+000 -5.967562e+001
7713681250 -1.502106e+000 1.672254e+002 -5.430855e+001 1.252526e+002 -5.381300e+001 1.269135e+002 -2.973128e+000 -6.106615e+001
7732425000 -1.508340e+000 1.667488e+002 -5.414602e+001 1.240606e+002 -5.392398e+001 1.254495e+002 -2.957552e+000 -6.242352e+001
7751168750 -1.514186e+000 1.663431e+002 -5.420598e+001 1.222344e+002 -5.415696e+001 1.241605e+002 -2.944660e+000 -6.379929e+001
7769912500 -1.521976e+000 1.659214e+002 -5.415635e+001 1.213932e+002 -5.408088e+001 1.228346e+002 -2.927682e+000 -6.517902e+001
7788656250 -1.527021e+000 1.654596e+002 -5.435191e+001 1.201434e+002 -5.425956e+001 1.215695e+002 -2.911584e+000 -6.654721e+001
7807400000 -1.534355e+000 1.650756e+002 -5.445611e+001 1.180829e+002 -5.424213e+001 1.207866e+002 -2.900721e+000 -6.795159e+001
7826143750 -1.541312e+000 1.646743e+002 -5.440276e+001 1.170063e+002 -5.416246e+001 1.212966e+002 -2.887791e+000 -6.933075e+001
7844887500 -1.554460e+000 1.642206e+002 -5.431469e+001 1.158274e+002 -5.419786e+001 1.199909e+002 -2.871066e+000 -7.070641e+001
7863631250 -1.554325e+000 1.638060e+002 -5.434081e+001 1.131622e+002 -5.406534e+001 1.197699e+002 -2.858088e+000 -7.207451e+001
7882375000 -1.562410e+000 1.634078e+002 -5.440417e+001 1.120544e+002 -5.423031e+001 1.196654e+002 -2.843814e+000 -7.344347e+001
7901118750 -1.578439e+000 1.629842e+002 -5.436677e+001 1.104268e+002 -5.434202e+001 1.199742e+002 -2.829448e+000 -7.483411e+001
7919862500 -1.577218e+000 1.625393e+002 -5.455488e+001 1.110424e+002 -5.450747e+001 1.202291e+002 -2.813531e+000 -7.621434e+001
7938606250 -1.584213e+000 1.621552e+002 -5.463260e+001 1.117397e+002 -5.472080e+001 1.201310e+002 -2.797206e+000 -7.756332e+001
7957350000 -1.600412e+000 1.617149e+002 -5.484080e+001 1.113406e+002 -5.456439e+001 1.191399e+002 -2.781845e+000 -7.895517e+001
7976093750 -1.599717e+000 1.612726e+002 -5.482146e+001 1.109274e+002 -5.469037e+001 1.179320e+002 -2.765485e+000 -8.034167e+001
7994837500 -1.607826e+000 1.608844e+002 -5.499743e+001 1.098268e+002 -5.466985e+001 1.179519e+002 -2.748914e+000 -8.168004e+001
8013581250 -1.622223e+000 1.604431e+002 -5.501426e+001 1.088936e+002 -5.488372e+001 1.169320e+002 -2.735616e+000 -8.307404e+001
8032325000 -1.622550e+000 1.599977e+002 -5.490959e+001 1.081397e+002 -5.508282e+001 1.171755e+002 -2.723135e+000 -8.443395e+001
8051068750 -1.634434e+000 1.596100e+002 -5.491502e+001 1.078872e+002 -5.513058e+001 1.172874e+002 -2.706730e+000 -8.579057e+001
8069812500 -1.647251e+000 1.591504e+002 -5.505102e+001 1.066117e+002 -5.502818e+001 1.163652e+002 -2.695544e+000 -8.716336e+001
8088556250 -1.650701e+000 1.586856e+002 -5.523703e+001 1.051426e+002 -5.506689e+001 1.164433e+002 -2.678534e+000 -8.852906e+001
8107300000 -1.660415e+000 1.582855e+002 -5.510428e+001 1.047844e+002 -5.519156e+001 1.150910e+002 -2.660621e+000 -8.988979e+001
8126043750 -1.670569e+000 1.578364e+002 -5.515901e+001 1.059674e+002 -5.510361e+001 1.135460e+002 -2.647264e+000 -9.125278e+001
8144787500 -1.671990e+000 1.573979e+002 -5.522741e+001 1.050426e+002 -5.542064e+001 1.126825e+002 -2.632608e+000 -9.260767e+001
8163531250 -1.683112e+000 1.570042e+002 -5.555587e+001 1.026800e+002 -5.535313e+001 1.119285e+002 -2.616122e+000 -9.396393e+001
8182275000 -1.694955e+000 1.565316e+002 -5.579998e+001 1.016639e+002 -5.540727e+001 1.097014e+002 -2.604324e+000 -9.530527e+001
8201018750 -1.698426e+000 1.560894e+002 -5.583918e+001 1.012314e+002 -5.559983e+001 1.099539e+002 -2.588894e+000 -9.666838e+001
8219762500 -1.708646e+000 1.556845e+002 -5.607064e+001 9.977467e+001 -5.552411e+001 1.081962e+002 -2.574463e+000 -9.799652e+001
8238506250 -1.717685e+000 1.552097e+002 -5.602696e+001 1.009204e+002 -5.584789e+001 1.079461e+002 -2.563071e+000 -9.933387e+001
8257250000 -1.721027e+000 1.547914e+002 -5.609813e+001 1.012132e+002 -5.600774e+001 1.066443e+002 -2.549026e+000 -1.006952e+002
8275993750 -1.730907e+000 1.543880e+002 -5.633684e+001 1.008304e+002 -5.610948e+001 1.054381e+002 -2.532749e+000 -1.020400e+002
8294737500 -1.741180e+000 1.539077e+002 -5.633065e+001 1.003365e+002 -5.616158e+001 1.043611e+002 -2.523086e+000 -1.033862e+002
8313481250 -1.744774e+000 1.534801e+002 -5.632597e+001 9.932343e+001 -5.611212e+001 1.018946e+002 -2.509838e+000 -1.047421e+002
8332225000 -1.753727e+000 1.530663e+002 -5.633432e+001 9.996468e+001 -5.622177e+001 1.018565e+002 -2.494114e+000 -1.060718e+002
8350968750 -1.763294e+000 1.526034e+002 -5.616948e+001 9.906033e+001 -5.638422e+001 1.001663e+002 -2.484888e+000 -1.073957e+002
8369712500 -1.767769e+000 1.521874e+002 -5.648563e+001 9.622934e+001 -5.726015e+001 9.616047e+001 -2.471076e+000 -1.087314e+002
8388456250 -1.778702e+000 1.517773e+002 -5.641472e+001 9.548966e+001 -5.752700e+001 9.556471e+001 -2.457080e+000 -1.100522e+002
8407200000 -1.787849e+000 1.512931e+002 -5.646668e+001 9.438050e+001 -5.749493e+001 9.488274e+001 -2.447961e+000 -1.113681e+002
8425943750 -1.792251e+000 1.508709e+002 -5.661022e+001 9.367416e+001 -5.775211e+001 9.423914e+001 -2.434669e+000 -1.127082e+002
8444687500 -1.801303e+000 1.504447e+002 -5.673532e+001 9.255759e+001 -5.775871e+001 9.373235e+001 -2.422190e+000 -1.140182e+002
8463431250 -1.806968e+000 1.499841e+002 -5.715053e+001 9.318017e+001 -5.766454e+001 9.367786e+001 -2.409278e+000 -1.153502e+002
8482175000 -1.809774e+000 1.495716e+002 -5.709451e+001 9.401126e+001 -5.772928e+001 9.224210e+001 -2.397125e+000 -1.166535e+002
8500918750 -1.820843e+000 1.491493e+002 -5.713101e+001 9.401545e+001 -5.778903e+001 9.176270e+001 -2.383861e+000 -1.179715e+002
8519662500 -1.827771e+000 1.486949e+002 -5.710460e+001 9.458942e+001 -5.777028e+001 9.101328e+001 -2.374672e+000 -1.192702e+002
8538406250 -1.832794e+000 1.482739e+002 -5.711229e+001 9.381847e+001 -5.779122e+001 9.255724e+001 -2.363698e+000 -1.205664e+002
8557150000 -1.844514e+000 1.478324e+002 -5.714605e+001 9.217480e+001 -5.791792e+001 9.301989e+001 -2.353666e+000 -1.218677e+002
8575893750 -1.850814e+000 1.473817e+002 -5.708597e+001 9.187656e+001 -5.774093e+001 9.277850e+001 -2.343272e+000 -1.231543e+002
8594637500 -1.858942e+000 1.469726e+002 -5.685064e+001 9.350764e+001 -5.801369e+001 9.151816e+001 -2.332937e+000 -1.244416e+002
8613381250 -1.867815e+000 1.465265e+002 -5.651324e+001 9.354132e+001 -5.805796e+001 9.382954e+001 -2.323986e+000 -1.257200e+002
8632125000 -1.876178e+000 1.460666e+002 -5.643659e+001 9.319822e+001 -5.810496e+001 9.278799e+001 -2.315336e+000 -1.270013e+002
8650868750 -1.883671e+000 1.456450e+002 -5.623470e+001 9.330267e+001 -5.827713e+001 9.323832e+001 -2.304779e+000 -1.282837e+002
8669612500 -1.893695e+000 1.451992e+002 -5.637937e+001 9.237930e+001 -5.819666e+001 9.223766e+001 -2.296719e+000 -1.295616e+002
8688356250 -1.899807e+000 1.447459e+002 -5.653250e+001 9.273208e+001 -5.820551e+001 9.157459e+001 -2.289150e+000 -1.308258e+002
8707100000 -1.908136e+000 1.443347e+002 -5.641525e+001 9.162283e+001 -5.817208e+001 9.207672e+001 -2.281275e+000 -1.320880e+002
8725843750 -1.917153e+000 1.438804e+002 -5.650925e+001 9.230161e+001 -5.829084e+001 9.213141e+001 -2.273690e+000 -1.333338e+002
8744587500 -1.923523e+000 1.434200e+002 -5.661040e+001 9.267675e+001 -5.844067e+001 9.177885e+001 -2.269696e+000 -1.345827e+002
8763331250 -1.931145e+000 1.429881e+002 -5.667389e+001 9.254021e+001 -5.823504e+001 9.083781e+001 -2.264815e+000 -1.358395e+002
8782075000 -1.938104e+000 1.425236e+002 -5.662490e+001 9.138601e+001 -5.807247e+001 9.093035e+001 -2.257306e+000 -1.370746e+002
8800818750 -1.941167e+000 1.420819e+002 -5.645020e+001 9.121326e+001 -5.706890e+001 9.332489e+001 -2.252071e+000 -1.383221e+002
8819562500 -1.949608e+000 1.416631e+002 -5.652081e+001 9.105289e+001 -5.683463e+001 9.312837e+001 -2.246781e+000 -1.395599e+002
8838306250 -1.960546e+000 1.411962e+002 -5.639060e+001 9.130622e+001 -5.687903e+001 9.334326e+001 -2.240542e+000 -1.407916e+002
8857050000 -1.966348e+000 1.407507e+002 -5.623331e+001 9.089402e+001 -5.664692e+001 9.250282e+001 -2.239632e+000 -1.420158e+002
8875793750 -1.975608e+000 1.403135e+002 -5.605088e+001 9.035804e+001 -5.659649e+001 9.196371e+001 -2.235004e+000 -1.432363e+002
8894537500 -1.984893e+000 1.398539e+002 -5.573223e+001 9.016940e+001 -5.660644e+001 9.026754e+001 -2.231413e+000 -1.444492e+002
8913281250 -1.987892e+000 1.394146e+002 -5.576431e+001 8.806133e+001 -5.659306e+001 9.153093e+001 -2.231143e+000 -1.456662e+002
8932025000 -1.998200e+000 1.389925e+002 -5.572976e+001 8.733179e+001 -5.642344e+001 9.059365e+001 -2.228047e+000 -1.468832e+002
8950768750 -2.006179e+000 1.385244e+002 -5.559515e+001 8.734627e+001 -5.640408e+001 8.940521e+001 -2.222565e+000 -1.481002e+002
8969512500 -2.011203e+000 1.380788e+002 -5.542673e+001 8.735664e+001 -5.628294e+001 8.808237e+001 -2.223532e+000 -1.492987e+002
8988256250 -2.020235e+000 1.376312e+002 -5.531689e+001 8.815726e+001 -5.622875e+001 8.675185e+001 -2.220848e+000 -1.505119e+002
9007000000 -2.029800e+000 1.371695e+002 -5.550409e+001 8.762512e+001 -5.634785e+001 8.505673e+001 -2.216975e+000 -1.517002e+002
9025743750 -2.033070e+000 1.367461e+002 -5.553886e+001 8.549172e+001 -5.601499e+001 8.560049e+001 -2.218498e+000 -1.528796e+002
9044487500 -2.044483e+000 1.363286e+002 -5.559652e+001 8.510604e+001 -5.576245e+001 8.470014e+001 -2.216907e+000 -1.540828e+002
9063231250 -2.051442e+000 1.358788e+002 -5.573938e+001 8.331548e+001 -5.602719e+001 8.417141e+001 -2.213918e+000 -1.552610e+002
9081975000 -2.058241e+000 1.354422e+002 -5.585986e+001 8.199069e+001 -5.589986e+001 8.468088e+001 -2.219085e+000 -1.564449e+002
9100718750 -2.068141e+000 1.349867e+002 -5.591113e+001 8.089471e+001 -5.585856e+001 8.497617e+001 -2.216000e+000 -1.576364e+002
9119462500 -2.074224e+000 1.345305e+002 -5.582183e+001 7.850968e+001 -5.594447e+001 8.446163e+001 -2.215366e+000 -1.588015e+002
9138206250 -2.080162e+000 1.341075e+002 -5.573217e+001 7.910288e+001 -5.588269e+001 8.372887e+001 -2.220279e+000 -1.599678e+002
9156950000 -2.092323e+000 1.336638e+002 -5.570853e+001 7.959904e+001 -5.580245e+001 8.252897e+001 -2.217170e+000 -1.611408e+002
9175693750 -2.100112e+000 1.332068e+002 -5.593386e+001 7.854373e+001 -5.564772e+001 8.304059e+001 -2.215751e+000 -1.622909e+002
9194437500 -2.108123e+000 1.327645e+002 -5.584791e+001 7.712311e+001 -5.559958e+001 8.188438e+001 -2.219326e+000 -1.634496e+002
9213181250 -2.120384e+000 1.323029e+002 -5.577795e+001 7.730069e+001 -5.555278e+001 8.172594e+001 -2.216588e+000 -1.646199e+002
9231925000 -2.127519e+000 1.318338e+002 -5.567091e+001 7.766142e+001 -5.533478e+001 8.103352e+001 -2.219630e+000 -1.657656e+002
9250668750 -2.132171e+000 1.314190e+002 -5.557925e+001 7.671487e+001 -5.521593e+001 8.096464e+001 -2.224618e+000 -1.669197e+002
9269412500 -2.143560e+000 1.309704e+002 -5.562655e+001 7.565388e+001 -5.506068e+001 7.914980e+001 -2.223755e+000 -1.680546e+002
9288156250 -2.149754e+000 1.305007e+002 -5.553884e+001 7.496938e+001 -5.506205e+001 7.914371e+001 -2.226444e+000 -1.691892e+002
9306900000 -2.158072e+000 1.300631e+002 -5.545998e+001 7.480225e+001 -5.499150e+001 7.866636e+001 -2.230891e+000 -1.703355e+002
9325643750 -2.169525e+000 1.295918e+002 -5.542545e+001 7.262742e+001 -5.498238e+001 7.840467e+001 -2.229886e+000 -1.714751e+002
9344387500 -2.175660e+000 1.291372e+002 -5.553221e+001 7.278191e+001 -5.485424e+001 7.669798e+001 -2.233761e+000 -1.725987e+002
9363131250 -2.183461e+000 1.287078e+002 -5.553858e+001 7.267025e+001 -5.502115e+001 7.578155e+001 -2.239352e+000 -1.737358e+002
9381875000 -2.195037e+000 1.282525e+002 -5.574860e+001 7.172222e+001 -5.505743e+001 7.549413e+001 -2.241178e+000 -1.748417e+002
9400618750 -2.201194e+000 1.277955e+002 -5.591730e+001 6.946734e+001 -5.530339e+001 7.519551e+001 -2.247154e+000 -1.759574e+002
9419362500 -2.209455e+000 1.273493e+002 -5.593465e+001 6.887431e+001 -5.542022e+001 7.470878e+001 -2.252516e+000 -1.770868e+002
9438106250 -2.220025e+000 1.268669e+002 -5.582331e+001 6.768616e+001 -5.527996e+001 7.392249e+001 -2.253469e+000 -1.782149e+002
9456850000 -2.222929e+000 1.264016e+002 -5.576348e+001 6.897873e+001 -5.527441e+001 7.290714e+001 -2.261599e+000 -1.793210e+002
9475593750 -2.231710e+000 1.259689e+002 -5.577813e+001 6.729287e+001 -5.529041e+001 7.223248e+001 -2.266906e+000 1.795444e+002
9494337500 -2.242853e+000 1.254968e+002 -5.574964e+001 6.737093e+001 -5.507716e+001 7.375740e+001 -2.269508e+000 1.784534e+002
9513081250 -2.246097e+000 1.250431e+002 -5.560137e+001 6.740766e+001 -5.501038e+001 7.303394e+001 -2.276137e+000 1.773600e+002
9531825000 -2.257014e+000 1.245964e+002 -5.549592e+001 6.645911e+001 -5.483782e+001 7.063561e+001 -2.282957e+000 1.762469e+002
9550568750 -2.266908e+000 1.241063e+002 -5.540661e+001 6.499680e+001 -5.478909e+001 6.976443e+001 -2.285066e+000 1.751593e+002
9569312500 -2.269415e+000 1.236512e+002 -5.563726e+001 6.238787e+001 -5.477722e+001 6.868267e+001 -2.294222e+000 1.740710e+002
9588056250 -2.279669e+000 1.232223e+002 -5.547906e+001 5.894696e+001 -5.467817e+001 6.771378e+001 -2.300420e+000 1.729671e+002
9606800000 -2.290159e+000 1.227563e+002 -5.509174e+001 5.835422e+001 -5.486504e+001 6.613041e+001 -2.303771e+000 1.718768e+002
9625543750 -2.294981e+000 1.223065e+002 -5.508094e+001 5.788499e+001 -5.485559e+001 6.444602e+001 -2.312272e+000 1.707974e+002
9644287500 -2.307161e+000 1.218496e+002 -5.511700e+001 5.580173e+001 -5.493009e+001 6.256481e+001 -2.320151e+000 1.697000e+002
9663031250 -2.314997e+000 1.213598e+002 -5.505949e+001 5.390616e+001 -5.508076e+001 6.090118e+001 -2.322128e+000 1.686243e+002
9681775000 -2.319872e+000 1.209099e+002 -5.502589e+001 5.350301e+001 -5.529897e+001 5.805656e+001 -2.331982e+000 1.675625e+002
9700518750 -2.331448e+000 1.204612e+002 -5.541263e+001 5.216014e+001 -5.540454e+001 5.693465e+001 -2.337236e+000 1.664708e+002
9719262500 -2.338560e+000 1.199867e+002 -5.574122e+001 5.313345e+001 -5.535042e+001 5.533311e+001 -2.343329e+000 1.654160e+002
9738006250 -2.344103e+000 1.195481e+002 -5.601013e+001 5.194984e+001 -5.534505e+001 5.501038e+001 -2.355303e+000 1.643503e+002
9756750000 -2.358935e+000 1.190767e+002 -5.607034e+001 5.151149e+001 -5.551786e+001 5.385262e+001 -2.363278e+000 1.632778e+002
9775493750 -2.365487e+000 1.185758e+002 -5.616318e+001 5.089255e+001 -5.548288e+001 5.293232e+001 -2.367872e+000 1.622282e+002
9794237500 -2.366022e+000 1.181174e+002 -5.605601e+001 4.973868e+001 -5.532679e+001 5.266953e+001 -2.374222e+000 1.611731e+002
9812981250 -2.376930e+000 1.176728e+002 -5.587218e+001 4.763308e+001 -5.523175e+001 5.168097e+001 -2.381804e+000 1.601230e+002
9831725000 -2.386682e+000 1.171951e+002 -5.586393e+001 4.721981e+001 -5.504692e+001 4.935878e+001 -2.391418e+000 1.590724e+002
9850468750 -2.392061e+000 1.167499e+002 -5.585771e+001 4.588438e+001 -5.498085e+001 4.951137e+001 -2.398649e+000 1.580414e+002
9869212500 -2.398611e+000 1.163181e+002 -5.580753e+001 4.525814e+001 -5.501787e+001 4.858455e+001 -2.406171e+000 1.570274e+002
9887956250 -2.410199e+000 1.158430e+002 -5.583858e+001 4.276300e+001 -5.507221e+001 4.737202e+001 -2.418913e+000 1.559832e+002
9906700000 -2.414387e+000 1.153536e+002 -5.571811e+001 4.272771e+001 -5.517289e+001 4.621151e+001 -2.427042e+000 1.549316e+002
9925443750 -2.421494e+000 1.149322e+002 -5.575485e+001 4.172576e+001 -5.506596e+001 4.254826e+001 -2.433883e+000 1.539236e+002
9944187500 -2.435688e+000 1.144573e+002 -5.589518e+001 4.100877e+001 -5.518327e+001 4.094530e+001 -2.447377e+000 1.529042e+002
9962931250 -2.440694e+000 1.139790e+002 -5.598306e+001 3.984479e+001 -5.511632e+001 3.974663e+001 -2.455590e+000 1.518658e+002
9981675000 -2.450887e+000 1.135374e+002 -5.595689e+001 3.993314e+001 -5.513100e+001 3.725125e+001 -2.462691e+000 1.508520e+002
10000418750 -2.462018e+000 1.130450e+002 -5.617389e+001 3.998977e+001 -5.514234e+001 3.671585e+001 -2.475224e+000 1.498277e+002
10019162500 -2.465430e+000 1.125664e+002 -5.624501e+001 3.979060e+001 -5.540314e+001 3.647784e+001 -2.485274e+000 1.487888e+002
10037906250 -2.474742e+000 1.121283e+002 -5.649637e+001 3.908262e+001 -5.521169e+001 3.496385e+001 -2.493064e+000 1.478016e+002
10056650000 -2.483184e+000 1.116567e+002 -5.646284e+001 3.745053e+001 -5.544350e+001 3.457087e+001 -2.509187e+000 1.467812e+002
10075393750 -2.488829e+000 1.111838e+002 -5.654657e+001 3.636390e+001 -5.569347e+001 3.445144e+001 -2.520140e+000 1.457564e+002
10094137500 -2.499291e+000 1.107340e+002 -5.674718e+001 3.676786e+001 -5.579058e+001 3.321503e+001 -2.531948e+000 1.447600e+002
10112881250 -2.508169e+000 1.102303e+002 -5.674661e+001 3.459035e+001 -5.569814e+001 3.329308e+001 -2.546340e+000 1.437426e+002
10131625000 -2.511609e+000 1.097610e+002 -5.642354e+001 3.218200e+001 -5.578506e+001 3.273290e+001 -2.557443e+000 1.427357e+002
10150368750 -2.524349e+000 1.093082e+002 -5.605139e+001 2.927864e+001 -5.577210e+001 3.169145e+001 -2.567725e+000 1.417534e+002
10169112500 -2.532833e+000 1.088112e+002 -5.602705e+001 2.864806e+001 -5.584629e+001 3.055661e+001 -2.579896e+000 1.407240e+002
10187856250 -2.538097e+000 1.083362e+002 -5.603316e+001 2.879484e+001 -5.571534e+001 2.910135e+001 -2.588367e+000 1.397379e+002
10206600000 -2.548462e+000 1.078869e+002 -5.597522e+001 2.634850e+001 -5.606442e+001 2.841463e+001 -2.602006e+000 1.387523e+002
10225343750 -2.558842e+000 1.073979e+002 -5.606342e+001 2.499190e+001 -5.616099e+001 2.701358e+001 -2.619620e+000 1.377316e+002
10244087500 -2.564917e+000 1.069137e+002 -5.613316e+001 2.484599e+001 -5.663253e+001 2.628189e+001 -2.626837e+000 1.367330e+002
10262831250 -2.574804e+000 1.064632e+002 -5.632620e+001 2.360311e+001 -5.663109e+001 2.396246e+001 -2.640325e+000 1.357697e+002
10281575000 -2.583212e+000 1.059727e+002 -5.664362e+001 2.163366e+001 -5.657683e+001 2.264093e+001 -2.657395e+000 1.347385e+002
10300318750 -2.595680e+000 1.054603e+002 -5.684702e+001 2.104522e+001 -5.670772e+001 2.137925e+001 -2.666538e+000 1.337400e+002
10319062500 -2.601313e+000 1.049924e+002 -5.720052e+001 2.134132e+001 -5.678001e+001 2.025872e+001 -2.676838e+000 1.327767e+002
10337806250 -2.608221e+000 1.045309e+002 -5.746571e+001 1.952533e+001 -5.677996e+001 1.810700e+001 -2.693823e+000 1.317834e+002
10356550000 -2.618824e+000 1.040380e+002 -5.726672e+001 1.827666e+001 -5.680556e+001 1.652046e+001 -2.704189e+000 1.307882e+002
10375293750 -2.624390e+000 1.035791e+002 -5.742142e+001 1.710568e+001 -5.690334e+001 1.544818e+001 -2.717288e+000 1.298233e+002
10394037500 -2.633399e+000 1.031143e+002 -5.754091e+001 1.568087e+001 -5.729384e+001 1.539772e+001 -2.734507e+000 1.288244e+002
10412781250 -2.642814e+000 1.026189e+002 -5.793021e+001 1.490996e+001 -5.749579e+001 1.702946e+001 -2.747909e+000 1.278514e+002
10431525000 -2.648968e+000 1.021435e+002 -5.771720e+001 1.439455e+001 -5.759642e+001 1.442695e+001 -2.760952e+000 1.268943e+002
10450268750 -2.657282e+000 1.016674e+002 -5.795992e+001 1.209132e+001 -5.769998e+001 1.272271e+001 -2.776425e+000 1.258994e+002
10469012500 -2.665046e+000 1.011814e+002 -5.806727e+001 8.808995e+000 -5.792813e+001 1.106983e+001 -2.787958e+000 1.249340e+002
10487756250 -2.674310e+000 1.007190e+002 -5.833841e+001 7.225818e+000 -5.808480e+001 9.422524e+000 -2.801207e+000 1.239859e+002
10506500000 -2.684028e+000 1.002531e+002 -5.877971e+001 9.705128e+000 -5.784048e+001 7.701668e+000 -2.817353e+000 1.230042e+002
10525243750 -2.691785e+000 9.975754e+001 -5.887648e+001 8.937827e+000 -5.825371e+001 9.293540e+000 -2.827255e+000 1.220542e+002
10543987500 -2.698858e+000 9.928769e+001 -5.898317e+001 8.422915e+000 -5.834910e+001 9.014731e+000 -2.840768e+000 1.211038e+002
10562731250 -2.707838e+000 9.880557e+001 -5.915326e+001 1.049618e+001 -5.910094e+001 1.249564e+001 -2.855837e+000 1.201160e+002
10581475000 -2.713645e+000 9.832861e+001 -5.943027e+001 9.764400e+000 -5.949608e+001 1.226244e+001 -2.868361e+000 1.191610e+002
10600218750 -2.722750e+000 9.787133e+001 -5.948717e+001 9.574336e+000 -5.957401e+001 9.910376e+000 -2.884040e+000 1.182248e+002
10618962500 -2.731226e+000 9.739066e+001 -5.985942e+001 7.333355e+000 -5.987095e+001 9.717349e+000 -2.899735e+000 1.172390e+002
10637706250 -2.740353e+000 9.688191e+001 -5.994960e+001 8.815764e+000 -5.991471e+001 9.734283e+000 -2.910302e+000 1.162920e+002
10656450000 -2.747093e+000 9.641184e+001 -6.002713e+001 8.548263e+000 -6.006779e+001 7.670358e+000 -2.923815e+000 1.153574e+002
10675193750 -2.756785e+000 9.591225e+001 -6.015015e+001 1.081728e+001 -5.988525e+001 5.008121e+000 -2.939277e+000 1.143921e+002
10693937500 -2.762286e+000 9.542426e+001 -6.043131e+001 1.048939e+001 -6.033531e+001 9.537747e+000 -2.949181e+000 1.134530e+002
10712681250 -2.767936e+000 9.496715e+001 -6.023513e+001 1.104563e+001 -6.046706e+001 4.460894e+000 -2.964136e+000 1.125092e+002
10731425000 -2.780231e+000 9.447849e+001 -6.039958e+001 8.107752e+000 -6.091191e+001 7.647416e+000 -2.982254e+000 1.115392e+002
10750168750 -2.784673e+000 9.397205e+001 -6.024794e+001 4.680314e+000 -6.140454e+001 6.276860e+000 -2.993116e+000 1.106090e+002
10768912500 -2.792663e+000 9.347671e+001 -6.040634e+001 5.121989e+000 -6.144950e+001 5.487736e+000 -3.008124e+000 1.096671e+002
10787656250 -2.800165e+000 9.297490e+001 -6.089449e+001 5.041308e+000 -6.164398e+001 6.602647e+000 -3.022979e+000 1.087052e+002
10806400000 -2.804845e+000 9.247378e+001 -6.086377e+001 4.488583e+000 -6.175126e+001 6.378606e+000 -3.033846e+000 1.077804e+002
10825143750 -2.809759e+000 9.199763e+001 -6.103860e+001 7.123263e+000 -6.166059e+001 4.980191e+000 -3.048579e+000 1.068395e+002
10843887500 -2.819186e+000 9.149353e+001 -6.107992e+001 8.700377e+000 -6.264388e+001 4.001401e+000 -3.060724e+000 1.058933e+002
10862631250 -2.824867e+000 9.097921e+001 -6.130497e+001 6.645337e+000 -6.283354e+001 4.219133e+000 -3.073392e+000 1.049749e+002
10881375000 -2.831867e+000 9.047374e+001 -6.131948e+001 7.232738e+000 -6.293810e+001 7.299405e+000 -3.090273e+000 1.040417e+002
10900118750 -2.839652e+000 8.996439e+001 -6.138174e+001 9.596870e+000 -6.288358e+001 7.831226e+000 -3.105681e+000 1.030921e+002
10918862500 -2.845582e+000 8.946102e+001 -6.137967e+001 1.312773e+001 -6.276267e+001 1.041411e+001 -3.118642e+000 1.021631e+002
10937606250 -2.852097e+000 8.895712e+001 -6.124923e+001 1.237233e+001 -6.315012e+001 1.364764e+001 -3.133811e+000 1.012261e+002
10956350000 -2.862675e+000 8.844832e+001 -6.114893e+001 1.096805e+001 -6.323521e+001 1.505460e+001 -3.148611e+000 1.002716e+002
10975093750 -2.870621e+000 8.793404e+001 -6.111700e+001 1.207503e+001 -6.318796e+001 1.396593e+001 -3.162773e+000 9.935455e+001
10993837500 -2.878887e+000 8.741138e+001 -6.171495e+001 1.298867e+001 -6.287047e+001 9.943390e+000 -3.181350e+000 9.842565e+001
11012581250 -2.886914e+000 8.689690e+001 -6.197125e+001 1.236021e+001 -6.296205e+001 1.068586e+001 -3.194528e+000 9.749300e+001
11031325000 -2.890409e+000 8.639149e+001 -6.190335e+001 1.214834e+001 -6.320015e+001 1.345620e+001 -3.209620e+000 9.659130e+001
11050068750 -2.901046e+000 8.589973e+001 -6.180326e+001 1.272649e+001 -6.312680e+001 1.404988e+001 -3.229970e+000 9.566074e+001
11068812500 -2.909361e+000 8.540042e+001 -6.200658e+001 1.130820e+001 -6.310489e+001 1.374068e+001 -3.242862e+000 9.472131e+001
11087556250 -2.915832e+000 8.488251e+001 -6.250570e+001 7.804037e+000 -6.315147e+001 1.482928e+001 -3.260042e+000 9.382700e+001
11106300000 -2.924562e+000 8.438335e+001 -6.289044e+001 4.936728e+000 -6.329841e+001 1.597477e+001 -3.279796e+000 9.288775e+001
11125043750 -2.931227e+000 8.386967e+001 -6.272641e+001 5.413067e+000 -6.321568e+001 1.159301e+001 -3.293459e+000 9.194650e+001
11143787500 -2.939018e+000 8.335231e+001 -6.297803e+001 4.656456e+000 -6.344219e+001 1.506825e+001 -3.309226e+000 9.106199e+001
11162531250 -2.946697e+000 8.286116e+001 -6.356340e+001 3.968245e+000 -6.331720e+001 1.080087e+001 -3.325939e+000 9.013397e+001
11181275000 -2.956919e+000 8.232682e+001 -6.442958e+001 4.386652e+000 -6.311916e+001 1.349494e+001 -3.338262e+000 8.920131e+001
11200018750 -2.962986e+000 8.181934e+001 -6.488618e+001 6.635643e+000 -6.309487e+001 1.428629e+001 -3.353374e+000 8.830960e+001
11218762500 -2.973032e+000 8.128941e+001 -6.467011e+001 6.240772e+000 -6.314732e+001 1.484355e+001 -3.374232e+000 8.739235e+001
11237506250 -2.979835e+000 8.076974e+001 -6.463258e+001 7.205132e+000 -6.326656e+001 1.392814e+001 -3.389163e+000 8.645612e+001
11256250000 -2.987546e+000 8.026836e+001 -6.465080e+001 3.747887e+000 -6.345838e+001 1.547843e+001 -3.405785e+000 8.556336e+001
11274993750 -3.000191e+000 7.976770e+001 -6.441258e+001 2.407478e+000 -6.233727e+001 1.401301e+001 -3.428130e+000 8.461698e+001
11293737500 -3.006973e+000 7.924041e+001 -6.441244e+001 1.120900e+000 -6.270428e+001 1.932636e+001 -3.439463e+000 8.368166e+001
11312481250 -3.013578e+000 7.872592e+001 -6.448177e+001 9.956613e-001 -6.230735e+001 1.609681e+001 -3.454700e+000 8.280117e+001
11331225000 -3.024259e+000 7.821018e+001 -6.438889e+001 2.886694e+000 -6.246862e+001 1.444266e+001 -3.472639e+000 8.187447e+001
11349968750 -3.029729e+000 7.767490e+001 -6.470202e+001 -2.273456e+000 -6.251186e+001 1.111283e+001 -3.485463e+000 8.096593e+001
11368712500 -3.034757e+000 7.716372e+001 -6.466951e+001 -4.505968e+000 -6.288099e+001 1.217404e+001 -3.503085e+000 8.006815e+001
11387456250 -3.045684e+000 7.666145e+001 -6.489103e+001 -8.827512e+000 -6.241726e+001 7.642824e+000 -3.521192e+000 7.914864e+001
11406200000 -3.053389e+000 7.612860e+001 -6.511278e+001 -7.847730e+000 -6.276344e+001 9.485592e+000 -3.535626e+000 7.824417e+001
11424943750 -3.061098e+000 7.562079e+001 -6.458778e+001 -9.538800e+000 -6.277074e+001 1.060426e+001 -3.554201e+000 7.734424e+001
11443687500 -3.066844e+000 7.508794e+001 -6.426696e+001 -1.029146e+001 -6.250668e+001 9.358426e+000 -3.573589e+000 7.640182e+001
11462431250 -3.075552e+000 7.455470e+001 -6.448468e+001 -1.503532e+001 -6.239342e+001 6.399635e+000 -3.586345e+000 7.550035e+001
11481175000 -3.081003e+000 7.404177e+001 -6.455583e+001 -1.504370e+001 -6.242406e+001 8.112287e+000 -3.603733e+000 7.458891e+001
11499918750 -3.089358e+000 7.350774e+001 -6.471848e+001 -1.185109e+001 -6.303279e+001 1.667870e+001 -3.623361e+000 7.364984e+001
11518662500 -3.097889e+000 7.298241e+001 -6.470459e+001 -1.037242e+001 -6.306778e+001 3.331768e+001 -3.634930e+000 7.274696e+001
11537406250 -3.104946e+000 7.243468e+001 -6.502052e+001 -1.020631e+001 -6.307722e+001 4.764859e+001 -3.656827e+000 7.184997e+001
11556150000 -3.113281e+000 7.186978e+001 -6.493254e+001 -1.012036e+001 -6.286858e+001 6.269786e+001 -3.674260e+000 7.092574e+001
11574893750 -3.120240e+000 7.134211e+001 -6.504721e+001 -1.191765e+001 -6.294710e+001 6.970867e+001 -3.689832e+000 7.001844e+001
11593637500 -3.126472e+000 7.080154e+001 -6.436646e+001 -1.618533e+001 -6.289819e+001 8.490339e+001 -3.711327e+000 6.910442e+001
11612381250 -3.135508e+000 7.026326e+001 -6.375611e+001 -1.630708e+001 -6.274332e+001 9.891010e+001 -3.730737e+000 6.815060e+001
11631125000 -3.142051e+000 6.971484e+001 -6.321925e+001 -1.792117e+001 -6.313459e+001 1.141905e+002 -3.746682e+000 6.725534e+001
11649868750 -3.152173e+000 6.918383e+001 -6.354393e+001 -1.179603e+001 -6.290060e+001 1.289700e+002 -3.768115e+000 6.634080e+001
11668612500 -3.157417e+000 6.862115e+001 -6.368540e+001 -1.352496e+001 -6.337394e+001 1.465404e+002 -3.782582e+000 6.539518e+001
11687356250 -3.164984e+000 6.807128e+001 -6.344455e+001 -1.294064e+001 -6.341249e+001 1.572192e+002 -3.800242e+000 6.450757e+001
11706100000 -3.172004e+000 6.754490e+001 -6.341802e+001 -1.563061e+001 -6.365678e+001 1.740672e+002 -3.821777e+000 6.359025e+001
11724843750 -3.180502e+000 6.699363e+001 -6.386791e+001 -1.774621e+001 -6.317646e+001 -1.766882e+002 -3.839479e+000 6.264275e+001
11743587500 -3.188594e+000 6.644450e+001 -6.385102e+001 -2.672286e+001 -6.404579e+001 -1.572636e+002 -3.854401e+000 6.174023e+001
11762331250 -3.195643e+000 6.589613e+001 -6.362506e+001 -4.534905e+001 -6.384714e+001 -1.415725e+002 -3.877693e+000 6.080662e+001
11781075000 -3.203767e+000 6.534228e+001 -6.335539e+001 -5.984929e+001 -6.415093e+001 -1.239363e+002 -3.892501e+000 5.981387e+001
11799818750 -3.212257e+000 6.481983e+001 -6.343562e+001 -7.372900e+001 -6.369278e+001 -1.041576e+002 -3.906315e+000 5.891959e+001
11818562500 -3.218162e+000 6.426863e+001 -6.370129e+001 -8.760961e+001 -6.399794e+001 -8.420139e+001 -3.930528e+000 5.799096e+001
11837306250 -3.225978e+000 6.370960e+001 -6.384138e+001 -1.074507e+002 -6.408354e+001 -7.129319e+001 -3.946030e+000 5.702089e+001
11856050000 -3.234039e+000 6.316822e+001 -6.374421e+001 -1.237522e+002 -6.379889e+001 -5.833529e+001 -3.959365e+000 5.614384e+001
11874793750 -3.242725e+000 6.261319e+001 -6.401507e+001 -1.383748e+002 -6.390743e+001 -4.489486e+001 -3.983425e+000 5.526209e+001
11893537500 -3.250198e+000 6.205185e+001 -6.398924e+001 -1.516008e+002 -6.386707e+001 -2.921367e+001 -4.007997e+000 5.429447e+001
11912281250 -3.258954e+000 6.150346e+001 -6.402855e+001 -1.696539e+002 -6.400551e+001 -2.333127e+001 -4.017694e+000 5.337599e+001
11931025000 -3.265223e+000 6.096358e+001 -6.402489e+001 1.762376e+002 -6.403503e+001 -2.899325e+001 -4.043416e+000 5.248357e+001
11949768750 -3.276924e+000 6.040234e+001 -6.377113e+001 1.639294e+002 -6.473058e+001 -4.877002e+001 -4.064935e+000 5.150183e+001
11968512500 -3.284011e+000 5.985601e+001 -6.331781e+001 1.466060e+002 -6.468317e+001 -6.623276e+001 -4.071047e+000 5.057896e+001
11987256250 -3.288569e+000 5.931495e+001 -6.341947e+001 1.299271e+002 -6.488346e+001 -8.253654e+001 -4.098059e+000 4.968718e+001
12006000000 -3.299441e+000 5.876602e+001 -6.333881e+001 1.186675e+002 -6.464745e+001 -9.454123e+001 -4.116869e+000 4.872465e+001
12024743750 -3.305558e+000 5.821245e+001 -6.360963e+001 1.155355e+002 -6.455392e+001 -1.063320e+002 -4.129010e+000 4.780547e+001
12043487500 -3.309920e+000 5.766193e+001 -6.351415e+001 1.105851e+002 -6.488934e+001 -1.217242e+002 -4.155941e+000 4.690530e+001
12062231250 -3.323357e+000 5.712474e+001 -6.395048e+001 9.683041e+001 -6.458627e+001 -1.374746e+002 -4.172337e+000 4.593205e+001
12080975000 -3.327531e+000 5.654988e+001 -6.379650e+001 7.244506e+001 -6.493702e+001 -1.532726e+002 -4.182704e+000 4.500209e+001
12099718750 -3.332854e+000 5.598549e+001 -6.380278e+001 5.640732e+001 -6.441560e+001 -1.619537e+002 -4.211407e+000 4.410871e+001
12118462500 -3.343873e+000 5.544689e+001 -6.434382e+001 4.324677e+001 -6.432912e+001 -1.727018e+002 -4.228845e+000 4.314067e+001
12137206250 -3.348402e+000 5.486776e+001 -6.426913e+001 2.673269e+001 -6.449426e+001 1.687934e+002 -4.243279e+000 4.222856e+001
12155950000 -3.353365e+000 5.432341e+001 -6.395258e+001 7.837249e+000 -6.456047e+001 1.538838e+002 -4.271511e+000 4.130316e+001
12174693750 -3.368057e+000 5.379683e+001 -6.396480e+001 1.219657e+000 -6.390718e+001 1.368088e+002 -4.288423e+000 4.034131e+001
12193437500 -3.374433e+000 5.320499e+001 -6.485704e+001 5.577822e+000 -6.413812e+001 1.262924e+002 -4.303461e+000 3.942920e+001
12212181250 -3.380027e+000 5.263844e+001 -6.500393e+001 5.681077e+000 -6.402309e+001 1.075572e+002 -4.333910e+000 3.855725e+001
12230925000 -3.390261e+000 5.206857e+001 -6.528018e+001 4.362680e+000 -6.426411e+001 8.710162e+001 -4.351824e+000 3.758906e+001
12249668750 -3.397527e+000 5.148540e+001 -6.489751e+001 7.035836e+000 -6.393291e+001 6.682006e+001 -4.369303e+000 3.666899e+001
12268412500 -3.403025e+000 5.094063e+001 -6.457827e+001 8.957567e+000 -6.386984e+001 4.554809e+001 -4.394567e+000 3.574710e+001
12287156250 -3.413757e+000 5.036897e+001 -6.513911e+001 9.522729e+000 -6.447137e+001 3.212531e+001 -4.410666e+000 3.474293e+001
12305900000 -3.421123e+000 4.979455e+001 -6.517822e+001 6.774243e+000 -6.504100e+001 2.198130e+001 -4.426835e+000 3.379559e+001
12324643750 -3.428465e+000 4.924036e+001 -6.626180e+001 6.355283e+000 -6.584122e+001 1.759105e+001 -4.445332e+000 3.286887e+001
12343387500 -3.436703e+000 4.867051e+001 -6.686658e+001 2.465881e+000 -6.591910e+001 1.555480e+001 -4.468031e+000 3.190235e+001
12362131250 -3.444769e+000 4.809470e+001 -6.679225e+001 -1.400558e+001 -6.550970e+001 2.464760e+001 -4.486722e+000 3.095895e+001
12380875000 -3.450331e+000 4.756171e+001 -6.684591e+001 -3.267407e+001 -6.512299e+001 4.262569e+001 -4.509386e+000 3.001668e+001
12399618750 -3.462157e+000 4.699146e+001 -6.690486e+001 -4.529305e+001 -6.498848e+001 6.189681e+001 -4.531575e+000 2.905650e+001
12418362500 -3.470327e+000 4.641175e+001 -6.693215e+001 -6.239997e+001 -6.479102e+001 7.598174e+001 -4.548802e+000 2.810996e+001
12437106250 -3.480778e+000 4.585581e+001 -6.721928e+001 -7.812983e+001 -6.497881e+001 9.229619e+001 -4.572763e+000 2.717091e+001
12455850000 -3.491262e+000 4.527544e+001 -6.706660e+001 -8.945340e+001 -6.539407e+001 1.004054e+002 -4.594150e+000 2.618155e+001
12474593750 -3.499344e+000 4.470685e+001 -6.710262e+001 -1.036708e+002 -6.513351e+001 1.122061e+002 -4.610479e+000 2.523745e+001
12493337500 -3.507953e+000 4.416614e+001 -6.682041e+001 -1.088844e+002 -6.532597e+001 1.249396e+002 -4.632858e+000 2.429009e+001
12512081250 -3.519947e+000 4.358686e+001 -6.693767e+001 -1.110150e+002 -6.517016e+001 1.416993e+002 -4.651955e+000 2.332393e+001
12530825000 -3.527265e+000 4.301157e+001 -6.719903e+001 -1.145069e+002 -6.527866e+001 1.481492e+002 -4.669252e+000 2.236794e+001
12549568750 -3.536915e+000 4.244884e+001 -6.685905e+001 -1.273833e+002 -6.515885e+001 1.611742e+002 -4.691128e+000 2.140953e+001
12568312500 -3.549182e+000 4.185468e+001 -6.729426e+001 -1.428573e+002 -6.539297e+001 1.752963e+002 -4.709300e+000 2.040995e+001
12587056250 -3.561230e+000 4.127493e+001 -6.729772e+001 -1.512366e+002 -6.543466e+001 -1.706679e+002 -4.721955e+000 1.942920e+001
12605800000 -3.564724e+000 4.069721e+001 -6.769341e+001 -1.597878e+002 -6.548042e+001 -1.603546e+002 -4.741163e+000 1.848814e+001
12624543750 -3.575336e+000 4.014147e+001 -6.776053e+001 -1.692506e+002 -6.554852e+001 -1.510176e+002 -4.763416e+000 1.751065e+001
12643287500 -3.586750e+000 3.955108e+001 -6.780862e+001 -1.730805e+002 -6.540522e+001 -1.350103e+002 -4.774033e+000 1.653078e+001
12662031250 -3.593274e+000 3.898866e+001 -6.780145e+001 -1.729730e+002 -6.544080e+001 -1.214757e+002 -4.795373e+000 1.561938e+001
12680775000 -3.597870e+000 3.842993e+001 -6.814260e+001 -1.750338e+002 -6.612531e+001 -1.061445e+002 -4.815899e+000 1.460402e+001
12699518750 -3.611060e+000 3.787967e+001 -6.878761e+001 -1.779823e+002 -6.594511e+001 -8.524512e+001 -4.826049e+000 1.365583e+001
12718262500 -3.617793e+000 3.728551e+001 -6.843719e+001 1.757867e+002 -6.530072e+001 -7.861308e+001 -4.852210e+000 1.272357e+001
12737006250 -3.625576e+000 3.671191e+001 -6.872849e+001 1.721341e+002 -6.537012e+001 -7.653907e+001 -4.866933e+000 1.171463e+001
12755750000 -3.638186e+000 3.614986e+001 -6.768498e+001 1.686928e+002 -6.474782e+001 -7.377925e+001 -4.878397e+000 1.079709e+001
12774493750 -3.644886e+000 3.554991e+001 -6.696634e+001 1.677330e+002 -6.460184e+001 -6.541953e+001 -4.905330e+000 9.858453e+000
12793237500 -3.651155e+000 3.498680e+001 -6.748266e+001 1.759907e+002 -6.464060e+001 -6.299331e+001 -4.918919e+000 8.826489e+000
12811981250 -3.663827e+000 3.441203e+001 -6.739205e+001 -1.712880e+002 -6.484628e+001 -6.451642e+001 -4.928795e+000 7.913305e+000
12830725000 -3.668142e+000 3.381741e+001 -6.731572e+001 -1.668015e+002 -6.477621e+001 -7.007490e+001 -4.951764e+000 6.932492e+000
12849468750 -3.676054e+000 3.325394e+001 -6.729740e+001 -1.545362e+002 -6.543806e+001 -7.073419e+001 -4.961409e+000 5.929367e+000
12868212500 -3.685023e+000 3.267994e+001 -6.713687e+001 -1.498974e+002 -6.523128e+001 -7.032472e+001 -4.973799e+000 5.022872e+000
12886956250 -3.690629e+000 3.206953e+001 -6.760213e+001 -1.528618e+002 -6.470023e+001 -7.207422e+001 -4.999457e+000 4.064243e+000
12905700000 -3.699265e+000 3.152377e+001 -6.747586e+001 -1.502610e+002 -6.465508e+001 -7.479947e+001 -5.011661e+000 3.054240e+000
12924443750 -3.710136e+000 3.094267e+001 -6.754343e+001 -1.547233e+002 -6.495923e+001 -7.870143e+001 -5.024167e+000 2.112665e+000
12943187500 -3.714118e+000 3.034823e+001 -6.745930e+001 -1.558046e+002 -6.518492e+001 -8.108339e+001 -5.045279e+000 1.126908e+000
12961931250 -3.724241e+000 2.980705e+001 -6.711216e+001 -1.576890e+002 -6.533200e+001 -7.748539e+001 -5.049989e+000 1.484483e-001
12980675000 -3.735906e+000 2.922463e+001 -6.777984e+001 -1.551037e+002 -6.537384e+001 -6.778993e+001 -5.063489e+000 -7.579244e-001
12999418750 -3.738841e+000 2.863670e+001 -6.768703e+001 -1.448481e+002 -6.484264e+001 -5.719812e+001 -5.085903e+000 -1.715732e+000
13018162500 -3.745337e+000 2.808567e+001 -6.739079e+001 -1.363411e+002 -6.501556e+001 -4.262312e+001 -5.096047e+000 -2.663550e+000
13036906250 -3.759578e+000 2.751736e+001 -6.695156e+001 -1.343220e+002 -6.521726e+001 -3.176632e+001 -5.111318e+000 -3.620646e+000
13055650000 -3.764970e+000 2.691178e+001 -6.634909e+001 -1.391561e+002 -6.495441e+001 -1.865149e+001 -5.122460e+000 -4.605237e+000
13074393750 -3.771811e+000 2.637638e+001 -6.619830e+001 -1.419451e+002 -6.563007e+001 -1.338668e+001 -5.130892e+000 -5.529264e+000
13093137500 -3.784512e+000 2.577411e+001 -6.585498e+001 -1.507824e+002 -6.544206e+001 -6.652878e+000 -5.148091e+000 -6.480980e+000
13111881250 -3.794518e+000 2.516832e+001 -6.536599e+001 -1.559174e+002 -6.458652e+001 5.058078e+000 -5.160510e+000 -7.428472e+000
13130625000 -3.798046e+000 2.459579e+001 -6.476450e+001 -1.609136e+002 -6.456324e+001 1.448754e+001 -5.169680e+000 -8.408836e+000
13149368750 -3.808247e+000 2.403392e+001 -6.481017e+001 -1.609663e+002 -6.484454e+001 3.018789e+001 -5.179102e+000 -9.367831e+000
13168112500 -3.817099e+000 2.343492e+001 -6.426067e+001 -1.614018e+002 -6.421710e+001 4.803750e+001 -5.191126e+000 -1.032907e+001
13186856250 -3.821725e+000 2.287732e+001 -6.479749e+001 -1.606716e+002 -6.407219e+001 5.856907e+001 -5.199120e+000 -1.129387e+001
13205600000 -3.834022e+000 2.231537e+001 -6.472837e+001 -1.617603e+002 -6.372995e+001 6.646774e+001 -5.207639e+000 -1.222895e+001
13224343750 -3.841646e+000 2.170339e+001 -6.391134e+001 -1.682178e+002 -6.355674e+001 7.455046e+001 -5.218144e+000 -1.316283e+001
13243087500 -3.846001e+000 2.114316e+001 -6.370818e+001 -1.730724e+002 -6.290165e+001 8.419208e+001 -5.225430e+000 -1.413907e+001
13261831250 -3.857858e+000 2.056104e+001 -6.340439e+001 -1.724333e+002 -6.290756e+001 9.577583e+001 -5.234480e+000 -1.506929e+001
13280575000 -3.865800e+000 1.997249e+001 -6.292924e+001 -1.775293e+002 -6.204097e+001 1.061860e+002 -5.243518e+000 -1.601293e+001
13299318750 -3.871796e+000 1.940156e+001 -6.256644e+001 -1.771688e+002 -6.206349e+001 1.173589e+002 -5.247711e+000 -1.696710e+001
13318062500 -3.885938e+000 1.883999e+001 -6.197140e+001 -1.787161e+002 -6.220366e+001 1.298852e+002 -5.253239e+000 -1.787772e+001
13336806250 -3.892936e+000 1.824646e+001 -6.168000e+001 1.740502e+002 -6.213671e+001 1.421494e+002 -5.260992e+000 -1.881517e+001
13355550000 -3.900242e+000 1.768054e+001 -6.121721e+001 1.700600e+002 -6.146487e+001 1.552953e+002 -5.268038e+000 -1.976033e+001
13374293750 -3.912136e+000 1.711851e+001 -6.114808e+001 1.683572e+002 -6.097876e+001 1.611281e+002 -5.274429e+000 -2.067469e+001
13393037500 -3.918395e+000 1.652911e+001 -6.093590e+001 1.652525e+002 -6.036434e+001 1.650507e+002 -5.280926e+000 -2.161404e+001
13411781250 -3.926357e+000 1.597131e+001 -6.000032e+001 1.643895e+002 -6.022322e+001 1.634260e+002 -5.285585e+000 -2.254858e+001
13430525000 -3.938770e+000 1.539265e+001 -5.969777e+001 1.625018e+002 -6.013164e+001 1.617412e+002 -5.291044e+000 -2.346844e+001
13449268750 -3.943196e+000 1.481217e+001 -5.936642e+001 1.603697e+002 -5.950689e+001 1.551457e+002 -5.298285e+000 -2.440550e+001
13468012500 -3.949328e+000 1.425707e+001 -5.918031e+001 1.568727e+002 -5.899226e+001 1.533520e+002 -5.302835e+000 -2.533838e+001
13486756250 -3.959105e+000 1.366656e+001 -5.886161e+001 1.542752e+002 -5.889666e+001 1.481615e+002 -5.307626e+000 -2.624446e+001
13505500000 -3.962112e+000 1.310946e+001 -5.852959e+001 1.507367e+002 -5.798528e+001 1.504514e+002 -5.313455e+000 -2.718469e+001
13524243750 -3.971036e+000 1.258376e+001 -5.861374e+001 1.489270e+002 -5.788956e+001 1.450626e+002 -5.316374e+000 -2.811419e+001
13542987500 -3.984835e+000 1.199500e+001 -5.849040e+001 1.462221e+002 -5.802499e+001 1.402483e+002 -5.320379e+000 -2.903336e+001
13561731250 -3.988248e+000 1.140338e+001 -5.838802e+001 1.433086e+002 -5.776492e+001 1.368346e+002 -5.327026e+000 -2.997212e+001
13580475000 -3.998115e+000 1.086794e+001 -5.789972e+001 1.385338e+002 -5.728617e+001 1.332615e+002 -5.328048e+000 -3.088201e+001
13599218750 -4.007771e+000 1.028501e+001 -5.778760e+001 1.332428e+002 -5.709529e+001 1.298288e+002 -5.329959e+000 -3.178544e+001
13617962500 -4.010225e+000 9.723772e+000 -5.679609e+001 1.265246e+002 -5.702379e+001 1.252097e+002 -5.332252e+000 -3.271773e+001
13636706250 -4.019695e+000 9.196978e+000 -5.651164e+001 1.223964e+002 -5.709912e+001 1.213210e+002 -5.332832e+000 -3.361281e+001
13655450000 -4.033678e+000 8.604897e+000 -5.633217e+001 1.200026e+002 -5.671391e+001 1.166010e+002 -5.335892e+000 -3.450793e+001
13674193750 -4.036671e+000 8.031016e+000 -5.614804e+001 1.163957e+002 -5.652587e+001 1.123943e+002 -5.338756e+000 -3.543417e+001
13692937500 -4.046556e+000 7.501419e+000 -5.590058e+001 1.131234e+002 -5.652109e+001 1.077567e+002 -5.338955e+000 -3.633627e+001
13711681250 -4.055754e+000 6.913454e+000 -5.607911e+001 1.105783e+002 -5.679393e+001 1.040679e+002 -5.340469e+000 -3.725656e+001
13730425000 -4.056005e+000 6.380990e+000 -5.588211e+001 1.050591e+002 -5.656240e+001 1.003129e+002 -5.341857e+000 -3.818295e+001
13749168750 -4.065288e+000 5.860737e+000 -5.569719e+001 1.016237e+002 -5.660256e+001 9.810222e+001 -5.341265e+000 -3.907946e+001
13767912500 -4.075668e+000 5.253587e+000 -5.587198e+001 1.003769e+002 -5.653719e+001 9.620388e+001 -5.340167e+000 -3.997430e+001
13786656250 -4.073890e+000 4.703637e+000 -5.610463e+001 9.776688e+001 -5.662039e+001 9.371248e+001 -5.338750e+000 -4.086975e+001
13805400000 -4.084907e+000 4.159414e+000 -5.602986e+001 9.340170e+001 -5.683030e+001 9.180410e+001 -5.335939e+000 -4.177193e+001
13824143750 -4.093125e+000 3.584286e+000 -5.638726e+001 8.718794e+001 -5.701419e+001 8.555420e+001 -5.336376e+000 -4.268403e+001
13842887500 -4.089518e+000 3.055223e+000 -5.628438e+001 8.479758e+001 -5.691481e+001 8.204219e+001 -5.333386e+000 -4.358902e+001
13861631250 -4.098829e+000 2.531769e+000 -5.648900e+001 7.896087e+001 -5.685428e+001 7.847121e+001 -5.328348e+000 -4.447904e+001
13880375000 -4.106448e+000 1.959646e+000 -5.652551e+001 7.619524e+001 -5.701977e+001 7.676276e+001 -5.325480e+000 -4.538123e+001
13899118750 -4.107320e+000 1.401882e+000 -5.682788e+001 7.192901e+001 -5.735802e+001 7.204831e+001 -5.323055e+000 -4.627410e+001
13917862500 -4.119253e+000 8.802197e-001 -5.712872e+001 7.029541e+001 -5.768358e+001 6.747961e+001 -5.317214e+000 -4.717122e+001
13936606250 -4.122779e+000 2.938916e-001 -5.731469e+001 6.836588e+001 -5.793320e+001 6.303337e+001 -5.314391e+000 -4.808142e+001
13955350000 -4.122347e+000 -2.146321e-001 -5.703844e+001 6.569813e+001 -5.763242e+001 6.435115e+001 -5.306503e+000 -4.897479e+001
13974093750 -4.131095e+000 -7.235969e-001 -5.759512e+001 6.335283e+001 -5.761635e+001 6.345627e+001 -5.299750e+000 -4.986280e+001
13992837500 -4.136525e+000 -1.289355e+000 -5.830288e+001 6.374234e+001 -5.794652e+001 6.411864e+001 -5.295375e+000 -5.075633e+001
14011581250 -4.136685e+000 -1.823395e+000 -5.851802e+001 6.239820e+001 -5.816370e+001 6.342323e+001 -5.290617e+000 -5.165315e+001
14030325000 -4.147131e+000 -2.352684e+000 -5.890914e+001 6.327864e+001 -5.846372e+001 6.275764e+001 -5.284003e+000 -5.256142e+001
14049068750 -4.146873e+000 -2.938924e+000 -5.945093e+001 6.375196e+001 -5.842107e+001 6.503410e+001 -5.277776e+000 -5.346350e+001
14067812500 -4.146096e+000 -3.446248e+000 -5.958644e+001 6.523635e+001 -5.888284e+001 6.034631e+001 -5.270674e+000 -5.437103e+001
14086556250 -4.152739e+000 -3.971015e+000 -5.969219e+001 6.410226e+001 -5.888895e+001 6.149225e+001 -5.264169e+000 -5.528770e+001
14105300000 -4.153031e+000 -4.550921e+000 -5.991932e+001 6.466063e+001 -5.901991e+001 6.236604e+001 -5.258821e+000 -5.619167e+001
14124043750 -4.155200e+000 -5.071780e+000 -6.017027e+001 6.445240e+001 -5.915371e+001 6.796279e+001 -5.250903e+000 -5.710100e+001
14142787500 -4.162615e+000 -5.619046e+000 -6.028090e+001 6.531973e+001 -5.903728e+001 7.016103e+001 -5.243001e+000 -5.801535e+001
14161531250 -4.159454e+000 -6.202729e+000 -6.044035e+001 6.587332e+001 -5.932614e+001 6.921107e+001 -5.236039e+000 -5.892170e+001
14180275000 -4.159307e+000 -6.705316e+000 -6.092942e+001 6.903277e+001 -5.905822e+001 6.934362e+001 -5.226229e+000 -5.984024e+001
14199018750 -4.164568e+000 -7.239555e+000 -6.103761e+001 6.811496e+001 -5.908416e+001 6.777386e+001 -5.217535e+000 -6.077184e+001
14217762500 -4.162470e+000 -7.813421e+000 -6.095152e+001 6.807700e+001 -5.912149e+001 6.817939e+001 -5.211652e+000 -6.170329e+001
14236506250 -4.163260e+000 -8.325351e+000 -6.105513e+001 6.959603e+001 -5.886669e+001 7.012984e+001 -5.204617e+000 -6.263614e+001
14255250000 -4.164612e+000 -8.910827e+000 -6.047545e+001 7.390962e+001 -5.922298e+001 7.581287e+001 -5.197573e+000 -6.357301e+001
14273993750 -4.159320e+000 -9.482028e+000 -6.059667e+001 7.343800e+001 -5.940736e+001 7.702085e+001 -5.189975e+000 -6.451283e+001
14292737500 -4.160696e+000 -1.000489e+001 -6.048918e+001 7.604042e+001 -5.969633e+001 7.718748e+001 -5.182532e+000 -6.545068e+001
14311481250 -4.162758e+000 -1.057130e+001 -6.056041e+001 7.755910e+001 -5.976382e+001 7.608418e+001 -5.176082e+000 -6.638908e+001
14330225000 -4.158780e+000 -1.111945e+001 -6.030228e+001 7.987848e+001 -5.970015e+001 7.707748e+001 -5.172524e+000 -6.734219e+001
14348968750 -4.157281e+000 -1.166068e+001 -6.013571e+001 8.196960e+001 -5.996086e+001 7.948795e+001 -5.167022e+000 -6.830486e+001
14367712500 -4.158304e+000 -1.225530e+001 -5.991269e+001 8.331522e+001 -5.990765e+001 8.132159e+001 -5.160065e+000 -6.925988e+001
14386456250 -4.149709e+000 -1.283799e+001 -5.973099e+001 8.530265e+001 -6.018113e+001 8.019485e+001 -5.155324e+000 -7.021786e+001
14405200000 -4.147304e+000 -1.337953e+001 -5.922878e+001 8.656380e+001 -6.013302e+001 8.036562e+001 -5.148726e+000 -7.117036e+001
14423943750 -4.145411e+000 -1.394536e+001 -5.849473e+001 8.436461e+001 -5.994755e+001 7.660549e+001 -5.145366e+000 -7.213548e+001
14442687500 -4.137691e+000 -1.450650e+001 -5.836168e+001 8.363797e+001 -5.987839e+001 7.597147e+001 -5.141184e+000 -7.310093e+001
14461431250 -4.136093e+000 -1.505904e+001 -5.791011e+001 8.348402e+001 -5.934193e+001 7.626856e+001 -5.135763e+000 -7.408022e+001
14480175000 -4.133763e+000 -1.565963e+001 -5.762600e+001 8.304770e+001 -5.947328e+001 7.415515e+001 -5.133153e+000 -7.505122e+001
14498918750 -4.124641e+000 -1.623171e+001 -5.760536e+001 8.139476e+001 -5.914844e+001 7.982800e+001 -5.127639e+000 -7.602290e+001
14517662500 -4.120610e+000 -1.676868e+001 -5.757188e+001 8.339421e+001 -5.909476e+001 7.893471e+001 -5.123546e+000 -7.699150e+001
14536406250 -4.116807e+000 -1.734562e+001 -5.740004e+001 8.458060e+001 -5.915310e+001 7.718172e+001 -5.121033e+000 -7.796298e+001
14555150000 -4.109688e+000 -1.789774e+001 -5.732509e+001 8.445194e+001 -5.899228e+001 7.545155e+001 -5.120636e+000 -7.893938e+001
14573893750 -4.107722e+000 -1.845943e+001 -5.717352e+001 8.474078e+001 -5.904095e+001 7.448315e+001 -5.116524e+000 -7.992159e+001
14592637500 -4.103398e+000 -1.906578e+001 -5.700881e+001 8.595384e+001 -5.883801e+001 7.582217e+001 -5.115468e+000 -8.089071e+001
14611381250 -4.094719e+000 -1.963640e+001 -5.641137e+001 8.358827e+001 -5.872232e+001 7.572572e+001 -5.113202e+000 -8.186732e+001
14630125000 -4.091629e+000 -2.020316e+001 -5.631593e+001 8.272308e+001 -5.860276e+001 7.639415e+001 -5.112118e+000 -8.282732e+001
14648868750 -4.085742e+000 -2.078550e+001 -5.619613e+001 8.383984e+001 -5.834373e+001 7.651219e+001 -5.113126e+000 -8.377675e+001
14667612500 -4.078566e+000 -2.135687e+001 -5.593578e+001 8.264677e+001 -5.832967e+001 7.539491e+001 -5.112315e+000 -8.475082e+001
14686356250 -4.078199e+000 -2.193395e+001 -5.611641e+001 8.287210e+001 -5.760164e+001 7.293806e+001 -5.109368e+000 -8.573363e+001
14705100000 -4.073267e+000 -2.255036e+001 -5.594530e+001 8.261337e+001 -5.737350e+001 7.285303e+001 -5.111321e+000 -8.669248e+001
14723843750 -4.065924e+000 -2.311393e+001 -5.572785e+001 8.414040e+001 -5.723644e+001 7.449158e+001 -5.109393e+000 -8.767442e+001
14742587500 -4.063102e+000 -2.370244e+001 -5.562201e+001 8.330201e+001 -5.731789e+001 7.518688e+001 -5.109202e+000 -8.864014e+001
14761331250 -4.056796e+000 -2.428998e+001 -5.555127e+001 8.422124e+001 -5.700981e+001 7.689355e+001 -5.107248e+000 -8.960020e+001
14780075000 -4.053336e+000 -2.485955e+001 -5.537098e+001 8.441912e+001 -5.618240e+001 7.713091e+001 -5.109292e+000 -9.057193e+001
14798818750 -4.053025e+000 -2.545366e+001 -5.552539e+001 8.366799e+001 -5.586210e+001 7.821771e+001 -5.107140e+000 -9.153178e+001
14817562500 -4.047562e+000 -2.606709e+001 -5.551398e+001 8.232014e+001 -5.549562e+001 7.800951e+001 -5.108177e+000 -9.249175e+001
14836306250 -4.043138e+000 -2.665756e+001 -5.535246e+001 8.118277e+001 -5.544413e+001 7.640452e+001 -5.109104e+000 -9.345593e+001
14855050000 -4.040698e+000 -2.728296e+001 -5.521650e+001 8.280939e+001 -5.523420e+001 7.873628e+001 -5.108639e+000 -9.439301e+001
14873793750 -4.037288e+000 -2.788493e+001 -5.517755e+001 8.419788e+001 -5.504519e+001 7.909922e+001 -5.108723e+000 -9.535446e+001
14892537500 -4.034377e+000 -2.847387e+001 -5.501822e+001 8.267435e+001 -5.519286e+001 7.915477e+001 -5.111318e+000 -9.630994e+001
14911281250 -4.033569e+000 -2.909553e+001 -5.470013e+001 8.153608e+001 -5.497508e+001 8.001684e+001 -5.109923e+000 -9.726040e+001
14930025000 -4.028180e+000 -2.972544e+001 -5.455735e+001 8.074405e+001 -5.474318e+001 7.953767e+001 -5.111681e+000 -9.821659e+001
14948768750 -4.027052e+000 -3.032386e+001 -5.440453e+001 7.856609e+001 -5.478768e+001 7.825091e+001 -5.111349e+000 -9.916164e+001
14967512500 -4.023694e+000 -3.095523e+001 -5.431139e+001 7.684774e+001 -5.455222e+001 7.978752e+001 -5.110429e+000 -1.000953e+002
14986256250 -4.019749e+000 -3.158736e+001 -5.422957e+001 7.593781e+001 -5.426824e+001 7.791695e+001 -5.106143e+000 -1.010222e+002
15005000000 -4.012808e+000 -3.218283e+001 -5.404813e+001 7.522823e+001 -5.403616e+001 7.756161e+001 -5.110423e+000 -1.019403e+002
15023743750 -4.018688e+000 -3.279093e+001 -5.391565e+001 7.388358e+001 -5.380129e+001 7.648450e+001 -5.105816e+000 -1.028872e+002
15042487500 -4.013110e+000 -3.344160e+001 -5.390228e+001 7.451979e+001 -5.370131e+001 7.545106e+001 -5.103313e+000 -1.037964e+002
15061231250 -4.005424e+000 -3.402602e+001 -5.359674e+001 7.441090e+001 -5.351404e+001 7.519194e+001 -5.105609e+000 -1.047320e+002
15079975000 -4.015014e+000 -3.466711e+001 -5.365117e+001 7.369652e+001 -5.351985e+001 7.460051e+001 -5.098334e+000 -1.056688e+002
15098718750 -4.007848e+000 -3.528204e+001 -5.334943e+001 7.239408e+001 -5.351309e+001 7.239103e+001 -5.099378e+000 -1.065699e+002
15117462500 -4.006804e+000 -3.584161e+001 -5.314277e+001 7.052574e+001 -5.352489e+001 7.105392e+001 -5.100599e+000 -1.074982e+002
15136206250 -4.015142e+000 -3.648385e+001 -5.301922e+001 6.990271e+001 -5.345313e+001 6.987692e+001 -5.092683e+000 -1.084048e+002
15154950000 -4.004734e+000 -3.710232e+001 -5.285823e+001 6.786811e+001 -5.311531e+001 6.921147e+001 -5.095364e+000 -1.092818e+002
15173693750 -4.005412e+000 -3.764884e+001 -5.283032e+001 6.643353e+001 -5.285945e+001 6.791411e+001 -5.096033e+000 -1.102155e+002
15192437500 -4.011828e+000 -3.829647e+001 -5.273733e+001 6.476838e+001 -5.304139e+001 6.555580e+001 -5.089980e+000 -1.111058e+002
15211181250 -4.002004e+000 -3.888395e+001 -5.259444e+001 6.348622e+001 -5.303942e+001 6.445696e+001 -5.088670e+000 -1.119910e+002
15229925000 -4.006357e+000 -3.944587e+001 -5.230118e+001 6.223502e+001 -5.307521e+001 6.244771e+001 -5.086481e+000 -1.129050e+002
15248668750 -4.012679e+000 -4.010320e+001 -5.227950e+001 6.113367e+001 -5.306547e+001 6.202708e+001 -5.077818e+000 -1.137788e+002
15267412500 -4.001349e+000 -4.067583e+001 -5.246552e+001 6.014193e+001 -5.286051e+001 6.123282e+001 -5.081231e+000 -1.146540e+002
15286156250 -4.008797e+000 -4.122193e+001 -5.240519e+001 5.770863e+001 -5.275567e+001 5.980993e+001 -5.076918e+000 -1.155670e+002
15304900000 -4.011879e+000 -4.185221e+001 -5.225496e+001 5.561718e+001 -5.271367e+001 5.952824e+001 -5.069342e+000 -1.164288e+002
15323643750 -4.003830e+000 -4.241710e+001 -5.230970e+001 5.458314e+001 -5.247299e+001 5.852122e+001 -5.069625e+000 -1.172921e+002
15342387500 -4.014942e+000 -4.298352e+001 -5.224655e+001 5.322042e+001 -5.231300e+001 5.621751e+001 -5.062712e+000 -1.181822e+002
15361131250 -4.016417e+000 -4.362309e+001 -5.227626e+001 5.284576e+001 -5.214141e+001 5.477029e+001 -5.053559e+000 -1.190158e+002
15379875000 -4.007200e+000 -4.419855e+001 -5.213427e+001 5.255522e+001 -5.195807e+001 5.359303e+001 -5.053551e+000 -1.198786e+002
15398618750 -4.018479e+000 -4.474946e+001 -5.212977e+001 5.095475e+001 -5.176540e+001 5.100833e+001 -5.048038e+000 -1.207545e+002
15417362500 -4.017355e+000 -4.534774e+001 -5.203891e+001 4.993500e+001 -5.170001e+001 4.838841e+001 -5.044887e+000 -1.216148e+002
15436106250 -4.016766e+000 -4.589632e+001 -5.197106e+001 4.789908e+001 -5.171732e+001 4.672417e+001 -5.040982e+000 -1.224907e+002
15454850000 -4.023380e+000 -4.649399e+001 -5.194352e+001 4.607141e+001 -5.172820e+001 4.492860e+001 -5.033912e+000 -1.233434e+002
15473593750 -4.022852e+000 -4.709093e+001 -5.195447e+001 4.413649e+001 -5.159130e+001 4.450779e+001 -5.031482e+000 -1.241919e+002
15492337500 -4.021897e+000 -4.765014e+001 -5.193190e+001 4.232571e+001 -5.158993e+001 4.267425e+001 -5.027437e+000 -1.250411e+002
15511081250 -4.022613e+000 -4.821273e+001 -5.164493e+001 4.024056e+001 -5.156473e+001 4.106646e+001 -5.022334e+000 -1.258977e+002
15529825000 -4.022799e+000 -4.880154e+001 -5.173263e+001 3.819037e+001 -5.137395e+001 4.000236e+001 -5.016074e+000 -1.267441e+002
15548568750 -4.022469e+000 -4.937894e+001 -5.170826e+001 3.672044e+001 -5.130907e+001 3.861187e+001 -5.011851e+000 -1.275726e+002
15567312500 -4.025453e+000 -4.994728e+001 -5.166119e+001 3.453320e+001 -5.136293e+001 3.658091e+001 -5.005729e+000 -1.284167e+002
15586056250 -4.027123e+000 -5.055413e+001 -5.159946e+001 3.209401e+001 -5.125461e+001 3.456868e+001 -4.999057e+000 -1.292504e+002
15604800000 -4.025009e+000 -5.114304e+001 -5.144926e+001 3.050272e+001 -5.120076e+001 3.267767e+001 -4.994009e+000 -1.300722e+002
15623543750 -4.026255e+000 -5.168694e+001 -5.141109e+001 2.915720e+001 -5.097984e+001 3.226529e+001 -4.989324e+000 -1.309133e+002
15642287500 -4.027517e+000 -5.226798e+001 -5.152085e+001 2.792211e+001 -5.095664e+001 3.040202e+001 -4.984668e+000 -1.317504e+002
15661031250 -4.026742e+000 -5.282741e+001 -5.149879e+001 2.582722e+001 -5.093209e+001 2.811574e+001 -4.978902e+000 -1.325772e+002
15679775000 -4.028598e+000 -5.338421e+001 -5.137852e+001 2.375891e+001 -5.087739e+001 2.600495e+001 -4.974383e+000 -1.334032e+002
15698518750 -4.029377e+000 -5.398367e+001 -5.135521e+001 2.158455e+001 -5.107188e+001 2.404224e+001 -4.968628e+000 -1.342097e+002
15717262500 -4.024338e+000 -5.455391e+001 -5.151354e+001 1.977515e+001 -5.121036e+001 2.138734e+001 -4.962864e+000 -1.350164e+002
15736006250 -4.024983e+000 -5.510189e+001 -5.166144e+001 1.728890e+001 -5.119903e+001 1.720740e+001 -4.960060e+000 -1.358357e+002
15754750000 -4.025686e+000 -5.567587e+001 -5.168483e+001 1.501010e+001 -5.139759e+001 1.365690e+001 -4.955506e+000 -1.366532e+002
15773493750 -4.023969e+000 -5.621301e+001 -5.179254e+001 1.261911e+001 -5.158709e+001 1.145213e+001 -4.951376e+000 -1.374675e+002
15792237500 -4.026865e+000 -5.675489e+001 -5.170402e+001 9.884309e+000 -5.173570e+001 7.354730e+000 -4.947248e+000 -1.382881e+002
15810981250 -4.028055e+000 -5.732363e+001 -5.191961e+001 7.679898e+000 -5.202604e+001 5.071439e+000 -4.941333e+000 -1.390643e+002
15829725000 -4.021824e+000 -5.786258e+001 -5.201511e+001 5.743667e+000 -5.220428e+001 3.375317e+000 -4.938714e+000 -1.398530e+002
15848468750 -4.023011e+000 -5.838752e+001 -5.221184e+001 4.430490e+000 -5.244162e+001 1.378754e-001 -4.934748e+000 -1.406543e+002
15867212500 -4.023006e+000 -5.896131e+001 -5.268562e+001 1.477545e+000 -5.252051e+001 -2.555672e+000 -4.929551e+000 -1.414286e+002
15885956250 -4.021570e+000 -5.947839e+001 -5.311031e+001 -1.211615e+000 -5.279870e+001 -4.653515e+000 -4.932316e+000 -1.422265e+002
15904700000 -4.022246e+000 -6.003220e+001 -5.328661e+001 -3.016163e+000 -5.336745e+001 -6.027335e+000 -4.926181e+000 -1.430252e+002
15923443750 -4.023990e+000 -6.059140e+001 -5.346300e+001 -5.945605e+000 -5.380142e+001 -7.106910e+000 -4.923393e+000 -1.437822e+002
15942187500 -4.019803e+000 -6.110311e+001 -5.390802e+001 -8.503302e+000 -5.417740e+001 -1.032289e+001 -4.929749e+000 -1.445737e+002
15960931250 -4.022076e+000 -6.165338e+001 -5.421367e+001 -1.163412e+001 -5.460303e+001 -1.061979e+001 -4.925985e+000 -1.453836e+002
15979675000 -4.020755e+000 -6.220255e+001 -5.445640e+001 -1.408419e+001 -5.498164e+001 -1.160881e+001 -4.922719e+000 -1.461371e+002
15998418750 -4.016794e+000 -6.270785e+001 -5.510017e+001 -1.714790e+001 -5.525046e+001 -1.313185e+001 -4.924974e+000 -1.469188e+002
16017162500 -4.020630e+000 -6.323252e+001 -5.643728e+001 -1.537181e+001 -5.603193e+001 -1.892158e+001 -4.920222e+000 -1.477079e+002
16035906250 -4.017438e+000 -6.377906e+001 -5.722628e+001 -2.209964e+001 -5.727341e+001 -2.061125e+001 -4.920189e+000 -1.484411e+002
16054650000 -4.014580e+000 -6.430254e+001 -5.757251e+001 -3.676826e+001 -5.772592e+001 -2.204679e+001 -4.925023e+000 -1.492422e+002
16073393750 -4.016522e+000 -6.485099e+001 -5.808267e+001 -5.208467e+001 -5.827966e+001 -1.752288e+001 -4.920359e+000 -1.500195e+002
16092137500 -4.013390e+000 -6.540316e+001 -5.898287e+001 -6.929453e+001 -5.872855e+001 -1.442596e+001 -4.921934e+000 -1.507768e+002
16110881250 -4.009421e+000 -6.591974e+001 -5.972739e+001 -8.101123e+001 -5.936756e+001 -1.101222e+001 -4.925881e+000 -1.515741e+002
16129625000 -4.012949e+000 -6.647218e+001 -6.025203e+001 -9.602778e+001 -5.968040e+001 -6.434060e+000 -4.920583e+000 -1.523534e+002
16148368750 -4.010494e+000 -6.700990e+001 -6.077088e+001 -1.117541e+002 -5.998854e+001 -4.890180e+000 -4.926542e+000 -1.531124e+002
16167112500 -4.005579e+000 -6.751904e+001 -6.104391e+001 -1.225996e+002 -6.018855e+001 -1.686545e-001 -4.929617e+000 -1.539197e+002
16185856250 -4.007848e+000 -6.805889e+001 -6.140382e+001 -1.340106e+002 -6.056062e+001 6.163981e+000 -4.925150e+000 -1.546988e+002
16204600000 -4.001827e+000 -6.859610e+001 -6.164846e+001 -1.443380e+002 -6.080804e+001 1.206928e+001 -4.929827e+000 -1.554460e+002
16223343750 -3.997345e+000 -6.912274e+001 -6.191400e+001 -1.566498e+002 -6.112401e+001 1.810896e+001 -4.934264e+000 -1.562334e+002
16242087500 -3.997145e+000 -6.966222e+001 -6.231450e+001 -1.664618e+002 -6.131558e+001 2.240975e+001 -4.934571e+000 -1.570190e+002
16260831250 -3.993767e+000 -7.020930e+001 -6.249232e+001 -1.783891e+002 -6.177081e+001 2.615050e+001 -4.941745e+000 -1.577865e+002
16279575000 -3.988523e+000 -7.074349e+001 -6.297009e+001 1.708168e+002 -6.191889e+001 3.193997e+001 -4.945038e+000 -1.586003e+002
16298318750 -3.988855e+000 -7.126819e+001 -6.330577e+001 1.596371e+002 -6.192500e+001 3.604490e+001 -4.947183e+000 -1.593889e+002
16317062500 -3.980739e+000 -7.181261e+001 -6.309499e+001 1.489677e+002 -6.187215e+001 4.029262e+001 -4.949865e+000 -1.601500e+002
16335806250 -3.976891e+000 -7.233173e+001 -6.312914e+001 1.375965e+002 -6.144382e+001 4.479256e+001 -4.954594e+000 -1.609470e+002
16354550000 -3.973783e+000 -7.285488e+001 -6.318444e+001 1.271653e+002 -6.140616e+001 4.689624e+001 -4.958153e+000 -1.617245e+002
16373293750 -3.969560e+000 -7.339344e+001 -6.288779e+001 1.172965e+002 -6.124549e+001 5.142221e+001 -4.963788e+000 -1.624958e+002
16392037500 -3.965534e+000 -7.389979e+001 -6.273035e+001 1.082443e+002 -6.105638e+001 5.507666e+001 -4.968783e+000 -1.633056e+002
16410781250 -3.963646e+000 -7.441393e+001 -6.265090e+001 9.716126e+001 -6.078180e+001 5.809596e+001 -4.974030e+000 -1.641076e+002
16429525000 -3.957610e+000 -7.496793e+001 -6.207025e+001 8.737099e+001 -6.051181e+001 6.267686e+001 -4.982563e+000 -1.649017e+002
16448268750 -3.950084e+000 -7.549021e+001 -6.082488e+001 7.355180e+001 -5.979833e+001 7.090187e+001 -4.987792e+000 -1.656977e+002
16467012500 -3.947574e+000 -7.600975e+001 -6.018957e+001 6.736077e+001 -5.858299e+001 7.514444e+001 -4.993751e+000 -1.664902e+002
16485756250 -3.941813e+000 -7.653699e+001 -5.995628e+001 6.948756e+001 -5.825113e+001 7.841266e+001 -5.004040e+000 -1.672815e+002
16504500000 -3.935758e+000 -7.704504e+001 -5.939266e+001 7.186253e+001 -5.770651e+001 7.699397e+001 -5.011625e+000 -1.681096e+002
16523243750 -3.931896e+000 -7.756457e+001 -5.866080e+001 7.582719e+001 -5.737497e+001 7.639326e+001 -5.019488e+000 -1.689038e+002
16541987500 -3.926520e+000 -7.808553e+001 -5.802644e+001 7.444753e+001 -5.686590e+001 7.611810e+001 -5.028512e+000 -1.697215e+002
16560731250 -3.920679e+000 -7.858207e+001 -5.730622e+001 7.652706e+001 -5.648364e+001 7.449636e+001 -5.034348e+000 -1.705574e+002
16579475000 -3.917935e+000 -7.908894e+001 -5.664737e+001 7.893166e+001 -5.607224e+001 7.621069e+001 -5.042572e+000 -1.713540e+002
16598218750 -3.913065e+000 -7.960800e+001 -5.630906e+001 7.725005e+001 -5.583715e+001 7.546959e+001 -5.055900e+000 -1.721799e+002
16616962500 -3.909145e+000 -8.010676e+001 -5.577239e+001 7.608454e+001 -5.536317e+001 7.274915e+001 -5.066601e+000 -1.730325e+002
16635706250 -3.903974e+000 -8.063166e+001 -5.544802e+001 7.365313e+001 -5.478245e+001 6.990091e+001 -5.076732e+000 -1.738706e+002
16654450000 -3.898259e+000 -8.114948e+001 -5.509213e+001 7.284587e+001 -5.429985e+001 6.788766e+001 -5.088759e+000 -1.747378e+002
16673193750 -3.893859e+000 -8.164714e+001 -5.448986e+001 7.036379e+001 -5.380332e+001 6.692725e+001 -5.097538e+000 -1.756150e+002
16691937500 -3.890367e+000 -8.216944e+001 -5.415543e+001 6.906747e+001 -5.317177e+001 6.595312e+001 -5.107748e+000 -1.764665e+002
16710681250 -3.885359e+000 -8.269143e+001 -5.344306e+001 6.637921e+001 -5.279753e+001 6.441570e+001 -5.123458e+000 -1.773488e+002
16729425000 -3.880934e+000 -8.319353e+001 -5.261609e+001 6.576729e+001 -5.251677e+001 6.338096e+001 -5.135128e+000 -1.782467e+002
16748168750 -3.878000e+000 -8.372414e+001 -5.234505e+001 6.500741e+001 -5.223190e+001 6.237373e+001 -5.147491e+000 -1.791454e+002
16766912500 -3.871236e+000 -8.424020e+001 -5.191414e+001 6.290358e+001 -5.195160e+001 5.898628e+001 -5.162263e+000 1.799289e+002
16785656250 -3.867848e+000 -8.475652e+001 -5.151186e+001 6.192138e+001 -5.145562e+001 5.828596e+001 -5.172562e+000 1.789958e+002
16804400000 -3.862891e+000 -8.529248e+001 -5.128151e+001 5.889015e+001 -5.115326e+001 5.672480e+001 -5.187488e+000 1.780744e+002
16823143750 -3.856882e+000 -8.582150e+001 -5.097042e+001 5.680070e+001 -5.086597e+001 5.385961e+001 -5.205512e+000 1.771312e+002
16841887500 -3.852563e+000 -8.634425e+001 -5.071386e+001 5.584590e+001 -5.079805e+001 5.298650e+001 -5.218135e+000 1.761684e+002
16860631250 -3.847910e+000 -8.686954e+001 -5.056998e+001 5.367145e+001 -5.053325e+001 5.092163e+001 -5.234011e+000 1.752094e+002
16879375000 -3.842075e+000 -8.739696e+001 -5.050186e+001 5.146494e+001 -5.049743e+001 4.909919e+001 -5.249813e+000 1.741892e+002
16898118750 -3.840494e+000 -8.790952e+001 -5.031313e+001 4.924368e+001 -5.034711e+001 4.750776e+001 -5.264800e+000 1.731942e+002
16916862500 -3.834898e+000 -8.845163e+001 -4.992786e+001 4.634218e+001 -5.003164e+001 4.555525e+001 -5.282373e+000 1.722000e+002
16935606250 -3.829284e+000 -8.896552e+001 -4.978818e+001 4.347128e+001 -4.988880e+001 4.313501e+001 -5.300855e+000 1.711765e+002
16954350000 -3.826190e+000 -8.948621e+001 -4.957149e+001 4.154789e+001 -4.956751e+001 4.165837e+001 -5.320706e+000 1.701485e+002
16973093750 -3.820953e+000 -9.001691e+001 -4.934946e+001 3.980630e+001 -4.925021e+001 3.930664e+001 -5.342855e+000 1.691005e+002
16991837500 -3.815604e+000 -9.052898e+001 -4.924063e+001 3.750168e+001 -4.916953e+001 3.808484e+001 -5.364385e+000 1.680226e+002
17010581250 -3.810323e+000 -9.105524e+001 -4.917480e+001 3.630588e+001 -4.901286e+001 3.553988e+001 -5.383702e+000 1.669520e+002
17029325000 -3.805974e+000 -9.160133e+001 -4.907376e+001 3.409417e+001 -4.886166e+001 3.388173e+001 -5.408921e+000 1.658779e+002
17048068750 -3.800375e+000 -9.211750e+001 -4.907128e+001 3.192673e+001 -4.877669e+001 3.175968e+001 -5.433343e+000 1.647704e+002
17066812500 -3.799843e+000 -9.263645e+001 -4.903240e+001 3.026709e+001 -4.871022e+001 2.974886e+001 -5.459434e+000 1.636448e+002
17085556250 -3.795128e+000 -9.315366e+001 -4.898180e+001 2.895257e+001 -4.862079e+001 2.779984e+001 -5.486691e+000 1.625180e+002
17104300000 -3.790544e+000 -9.365354e+001 -4.891885e+001 2.675364e+001 -4.863225e+001 2.658231e+001 -5.514424e+000 1.613381e+002
17123043750 -3.788581e+000 -9.416861e+001 -4.886580e+001 2.494813e+001 -4.856007e+001 2.425407e+001 -5.540377e+000 1.601775e+002
17141787500 -3.784526e+000 -9.468505e+001 -4.880084e+001 2.300459e+001 -4.843256e+001 2.218233e+001 -5.574550e+000 1.590031e+002
17160531250 -3.780967e+000 -9.519012e+001 -4.885994e+001 2.085521e+001 -4.839606e+001 2.044992e+001 -5.608120e+000 1.577789e+002
17179275000 -3.778943e+000 -9.571363e+001 -4.891543e+001 1.850475e+001 -4.831243e+001 1.840395e+001 -5.641921e+000 1.565718e+002
17198018750 -3.775415e+000 -9.622891e+001 -4.892547e+001 1.702769e+001 -4.838837e+001 1.677879e+001 -5.681948e+000 1.553451e+002
17216762500 -3.769965e+000 -9.674580e+001 -4.904520e+001 1.422338e+001 -4.850721e+001 1.569255e+001 -5.720084e+000 1.540695e+002
17235506250 -3.769051e+000 -9.726961e+001 -4.903350e+001 1.296302e+001 -4.851218e+001 1.440152e+001 -5.756254e+000 1.528177e+002
17254250000 -3.762807e+000 -9.777895e+001 -4.905636e+001 1.142477e+001 -4.855816e+001 1.338254e+001 -5.800837e+000 1.515240e+002
17272993750 -3.760027e+000 -9.826756e+001 -4.913147e+001 1.038043e+001 -4.851688e+001 1.150324e+001 -5.847088e+000 1.502036e+002
17291737500 -3.760378e+000 -9.879640e+001 -4.918827e+001 9.190889e+000 -4.854689e+001 9.486069e+000 -5.893195e+000 1.488614e+002
17310481250 -3.756271e+000 -9.930703e+001 -4.916549e+001 8.265450e+000 -4.858301e+001 8.197464e+000 -5.946047e+000 1.475246e+002
17329225000 -3.751463e+000 -9.981886e+001 -4.922847e+001 7.113756e+000 -4.873111e+001 6.219107e+000 -5.996953e+000 1.461439e+002
17347968750 -3.750026e+000 -1.003476e+002 -4.935431e+001 5.819550e+000 -4.878275e+001 5.191591e+000 -6.050930e+000 1.447682e+002
17366712500 -3.746697e+000 -1.008591e+002 -4.949690e+001 4.771829e+000 -4.881236e+001 3.971919e+000 -6.114882e+000 1.433460e+002
17385456250 -3.745495e+000 -1.013573e+002 -4.950596e+001 4.972169e+000 -4.885412e+001 2.869832e+000 -6.174369e+000 1.418675e+002
17404200000 -3.744904e+000 -1.018983e+002 -4.953656e+001 3.606613e+000 -4.901305e+001 9.905773e-001 -6.235770e+000 1.404112e+002
17422943750 -3.739667e+000 -1.024297e+002 -4.965877e+001 3.630190e+000 -4.896772e+001 -2.789208e-001 -6.307612e+000 1.389334e+002
17441687500 -3.739507e+000 -1.029461e+002 -4.962373e+001 2.286368e+000 -4.902322e+001 -1.107244e+000 -6.377324e+000 1.374067e+002
17460431250 -3.737848e+000 -1.034631e+002 -4.954591e+001 1.719333e+000 -4.909489e+001 -2.353402e+000 -6.450944e+000 1.358888e+002
17479175000 -3.731252e+000 -1.039825e+002 -4.951229e+001 7.289066e-001 -4.915340e+001 -3.410600e+000 -6.534140e+000 1.343245e+002
17497918750 -3.728778e+000 -1.045020e+002 -4.945922e+001 -1.002789e+000 -4.928963e+001 -4.826696e+000 -6.619778e+000 1.327209e+002
17516662500 -3.729243e+000 -1.050608e+002 -4.961021e+001 -2.160344e+000 -4.940496e+001 -5.246202e+000 -6.707546e+000 1.311124e+002
17535406250 -3.720574e+000 -1.056037e+002 -4.967804e+001 -3.459053e+000 -4.939692e+001 -7.387081e+000 -6.804483e+000 1.295009e+002
17554150000 -3.720682e+000 -1.061315e+002 -4.969688e+001 -4.593052e+000 -4.942752e+001 -7.563833e+000 -6.900739e+000 1.278159e+002
17572893750 -3.716746e+000 -1.066643e+002 -4.977774e+001 -6.054143e+000 -4.952908e+001 -7.658287e+000 -6.998272e+000 1.261551e+002
17591637500 -3.709997e+000 -1.071748e+002 -4.975440e+001 -7.127848e+000 -4.961935e+001 -9.287108e+000 -7.109116e+000 1.244620e+002
17610381250 -3.711259e+000 -1.076788e+002 -4.969349e+001 -7.785512e+000 -4.971767e+001 -1.021075e+001 -7.219959e+000 1.226984e+002
17629125000 -3.706893e+000 -1.082204e+002 -4.982587e+001 -9.872337e+000 -4.977512e+001 -1.183004e+001 -7.334392e+000 1.209546e+002
17647868750 -3.705263e+000 -1.087214e+002 -5.004641e+001 -9.841788e+000 -4.980309e+001 -1.272371e+001 -7.458853e+000 1.191909e+002
17666612500 -3.704634e+000 -1.092307e+002 -5.017832e+001 -9.993958e+000 -4.992786e+001 -1.346665e+001 -7.586417e+000 1.173296e+002
17685356250 -3.699931e+000 -1.097561e+002 -5.035990e+001 -1.207158e+001 -5.020799e+001 -1.551007e+001 -7.720865e+000 1.155289e+002
17704100000 -3.696321e+000 -1.102491e+002 -5.031757e+001 -1.428354e+001 -5.032627e+001 -1.637470e+001 -7.865337e+000 1.136543e+002
17722843750 -3.697929e+000 -1.107499e+002 -5.061010e+001 -1.546530e+001 -5.034118e+001 -1.717685e+001 -8.012638e+000 1.117426e+002
17741587500 -3.696075e+000 -1.112762e+002 -5.063132e+001 -1.656756e+001 -5.027443e+001 -1.761076e+001 -8.166725e+000 1.098299e+002
17760331250 -3.691772e+000 -1.117823e+002 -5.067447e+001 -1.826765e+001 -5.033604e+001 -1.896362e+001 -8.332396e+000 1.078583e+002
17779075000 -3.693442e+000 -1.122855e+002 -5.075533e+001 -1.905005e+001 -5.052193e+001 -1.974797e+001 -8.498052e+000 1.058361e+002
17797818750 -3.688532e+000 -1.128176e+002 -5.065795e+001 -2.013827e+001 -5.060619e+001 -2.058487e+001 -8.674319e+000 1.038546e+002
17816562500 -3.685693e+000 -1.132901e+002 -5.092413e+001 -2.251692e+001 -5.085676e+001 -2.295273e+001 -8.866405e+000 1.017921e+002
17835306250 -3.691178e+000 -1.137902e+002 -5.110183e+001 -2.442057e+001 -5.091409e+001 -2.380017e+001 -9.057456e+000 9.964886e+001
17854050000 -3.687949e+000 -1.143196e+002 -5.138836e+001 -2.632042e+001 -5.107851e+001 -2.444925e+001 -9.257084e+000 9.751550e+001
17872793750 -3.685676e+000 -1.148027e+002 -5.167936e+001 -2.722875e+001 -5.158512e+001 -2.408412e+001 -9.476473e+000 9.529591e+001
17891537500 -3.689311e+000 -1.153196e+002 -5.182310e+001 -2.851097e+001 -5.170687e+001 -2.618987e+001 -9.690217e+000 9.301535e+001
17910281250 -3.684385e+000 -1.158458e+002 -5.203450e+001 -3.106900e+001 -5.206482e+001 -2.945673e+001 -9.915670e+000 9.076495e+001
17929025000 -3.683670e+000 -1.163101e+002 -5.248820e+001 -3.207752e+001 -5.221996e+001 -3.006342e+001 -1.015450e+001 8.836890e+001
17947768750 -3.687536e+000 -1.168153e+002 -5.282869e+001 -3.369130e+001 -5.244390e+001 -3.343960e+001 -1.039289e+001 8.590083e+001
17966512500 -3.686742e+000 -1.173369e+002 -5.294569e+001 -3.498021e+001 -5.257194e+001 -3.496613e+001 -1.064565e+001 8.346357e+001
17985256250 -3.685209e+000 -1.178107e+002 -5.341005e+001 -3.592350e+001 -5.274447e+001 -3.672810e+001 -1.091195e+001 8.085955e+001
18004000000 -3.687971e+000 -1.183533e+002 -5.365602e+001 -3.680472e+001 -5.300852e+001 -3.859804e+001 -1.117524e+001 7.820599e+001
18022743750 -3.681544e+000 -1.188779e+002 -5.392121e+001 -3.661896e+001 -5.346944e+001 -3.893616e+001 -1.145542e+001 7.550549e+001
18041487500 -3.681278e+000 -1.193491e+002 -5.426527e+001 -3.814059e+001 -5.377733e+001 -4.071916e+001 -1.174508e+001 7.264407e+001
18060231250 -3.688529e+000 -1.198688e+002 -5.444770e+001 -3.885974e+001 -5.411058e+001 -4.108968e+001 -1.203758e+001 6.975629e+001
18078975000 -3.681920e+000 -1.204003e+002 -5.453740e+001 -4.237705e+001 -5.428989e+001 -4.359533e+001 -1.234857e+001 6.675195e+001
18097718750 -3.683084e+000 -1.208950e+002 -5.466675e+001 -4.361750e+001 -5.478536e+001 -4.405709e+001 -1.265908e+001 6.354146e+001
18116462500 -3.683831e+000 -1.214305e+002 -5.465116e+001 -4.276955e+001 -5.478912e+001 -4.435531e+001 -1.296821e+001 6.030965e+001
18135206250 -3.676693e+000 -1.219484e+002 -5.514433e+001 -4.620560e+001 -5.540748e+001 -4.657127e+001 -1.328816e+001 5.695325e+001
18153950000 -3.678455e+000 -1.224022e+002 -5.544164e+001 -4.745401e+001 -5.671966e+001 -4.888530e+001 -1.359572e+001 5.339166e+001
18172693750 -3.679875e+000 -1.229332e+002 -5.599793e+001 -5.537513e+001 -5.732515e+001 -5.148175e+001 -1.391282e+001 4.978753e+001
18191437500 -3.675559e+000 -1.234402e+002 -5.669506e+001 -5.739213e+001 -5.791167e+001 -5.817655e+001 -1.423727e+001 4.598084e+001
18210181250 -3.674506e+000 -1.239220e+002 -5.709075e+001 -6.748742e+001 -5.826207e+001 -6.811729e+001 -1.454564e+001 4.198111e+001
18228925000 -3.672165e+000 -1.244551e+002 -5.732463e+001 -7.550959e+001 -5.896686e+001 -7.590977e+001 -1.485519e+001 3.789037e+001
18247668750 -3.663862e+000 -1.249467e+002 -5.749314e+001 -8.633582e+001 -5.902949e+001 -8.238788e+001 -1.515239e+001 3.360022e+001
18266412500 -3.664384e+000 -1.254145e+002 -5.763908e+001 -9.331145e+001 -5.928775e+001 -9.035548e+001 -1.543097e+001 2.922134e+001
18285156250 -3.663423e+000 -1.259231e+002 -5.807986e+001 -1.035402e+002 -5.968414e+001 -9.916952e+001 -1.570790e+001 2.473510e+001
18303900000 -3.658575e+000 -1.264291e+002 -5.819124e+001 -1.117066e+002 -5.976613e+001 -1.120530e+002 -1.595452e+001 2.003068e+001
18322643750 -3.658346e+000 -1.269148e+002 -5.837183e+001 -1.223237e+002 -5.989821e+001 -1.208177e+002 -1.618137e+001 1.526425e+001
18341387500 -3.652819e+000 -1.274266e+002 -5.840838e+001 -1.292419e+002 -5.980002e+001 -1.295250e+002 -1.638747e+001 1.040438e+001
18360131250 -3.647238e+000 -1.278831e+002 -5.824766e+001 -1.391044e+002 -6.001314e+001 -1.386550e+002 -1.656053e+001 5.472279e+000
18378875000 -3.649717e+000 -1.283304e+002 -5.807092e+001 -1.480270e+002 -6.005297e+001 -1.460526e+002 -1.672287e+001 5.088001e-001
18397618750 -3.647599e+000 -1.288447e+002 -5.814576e+001 -1.580853e+002 -6.010043e+001 -1.534050e+002 -1.686200e+001 -4.608086e+000
18416362500 -3.642516e+000 -1.293332e+002 -5.788102e+001 -1.682149e+002 -6.006350e+001 -1.627754e+002 -1.695914e+001 -9.710003e+000
18435106250 -3.642725e+000 -1.298042e+002 -5.773148e+001 -1.777538e+002 -5.987791e+001 -1.720229e+002 -1.704119e+001 -1.478873e+001
18453850000 -3.639518e+000 -1.303123e+002 -5.751144e+001 1.718512e+002 -5.945028e+001 1.780166e+002 -1.709068e+001 -1.992323e+001
18472593750 -3.632644e+000 -1.307610e+002 -5.729211e+001 1.624165e+002 -5.935531e+001 1.692727e+002 -1.710758e+001 -2.498092e+001
18491337500 -3.633750e+000 -1.312253e+002 -5.699511e+001 1.538503e+002 -5.903379e+001 1.595627e+002 -1.710782e+001 -3.001269e+001
18510081250 -3.631293e+000 -1.317272e+002 -5.668719e+001 1.457516e+002 -5.872982e+001 1.508577e+002 -1.707459e+001 -3.505964e+001
18528825000 -3.626975e+000 -1.322048e+002 -5.656330e+001 1.357248e+002 -5.802956e+001 1.400475e+002 -1.701593e+001 -3.988768e+001
18547568750 -3.629875e+000 -1.326965e+002 -5.630168e+001 1.251751e+002 -5.777127e+001 1.292844e+002 -1.693646e+001 -4.472979e+001
18566312500 -3.624415e+000 -1.332176e+002 -5.580141e+001 1.182808e+002 -5.709821e+001 1.204732e+002 -1.683385e+001 -4.948035e+001
18585056250 -3.619802e+000 -1.336853e+002 -5.510015e+001 1.085849e+002 -5.577550e+001 1.127329e+002 -1.672335e+001 -5.403177e+001
18603800000 -3.623687e+000 -1.341727e+002 -5.437925e+001 1.051898e+002 -5.509296e+001 1.033320e+002 -1.658846e+001 -5.855505e+001
18622543750 -3.621395e+000 -1.347038e+002 -5.349278e+001 9.731977e+001 -5.420086e+001 1.000870e+002 -1.642049e+001 -6.289831e+001
18641287500 -3.620162e+000 -1.351936e+002 -5.294210e+001 9.622005e+001 -5.362119e+001 9.830308e+001 -1.625338e+001 -6.702197e+001
18660031250 -3.621773e+000 -1.357132e+002 -5.258655e+001 9.283376e+001 -5.271999e+001 9.491813e+001 -1.606431e+001 -7.105669e+001
18678775000 -3.614845e+000 -1.362423e+002 -5.204165e+001 9.353954e+001 -5.227368e+001 9.123876e+001 -1.586425e+001 -7.488026e+001
18697518750 -3.610188e+000 -1.367072e+002 -5.165626e+001 9.023277e+001 -5.174319e+001 8.867802e+001 -1.567295e+001 -7.855277e+001
18716262500 -3.613754e+000 -1.372113e+002 -5.067448e+001 8.989014e+001 -5.103519e+001 8.574948e+001 -1.546284e+001 -8.208424e+001
18735006250 -3.608859e+000 -1.377286e+002 -5.010966e+001 8.694758e+001 -5.026830e+001 8.568753e+001 -1.525222e+001 -8.535512e+001
18753750000 -3.607299e+000 -1.382221e+002 -4.962100e+001 8.646489e+001 -4.979870e+001 8.445597e+001 -1.505469e+001 -8.851743e+001
18772493750 -3.609518e+000 -1.387601e+002 -4.922688e+001 8.446037e+001 -4.924439e+001 8.425503e+001 -1.486233e+001 -9.156523e+001
18791237500 -3.602957e+000 -1.392840e+002 -4.876070e+001 8.374283e+001 -4.860006e+001 8.196168e+001 -1.467644e+001 -9.443385e+001
18809981250 -3.600199e+000 -1.397717e+002 -4.825708e+001 8.181191e+001 -4.806812e+001 8.059538e+001 -1.449494e+001 -9.718250e+001
18828725000 -3.602116e+000 -1.402912e+002 -4.777885e+001 8.135836e+001 -4.765976e+001 7.780434e+001 -1.431005e+001 -9.976966e+001
18847468750 -3.598728e+000 -1.408105e+002 -4.743126e+001 8.057059e+001 -4.730433e+001 7.693658e+001 -1.414974e+001 -1.021995e+002
18866212500 -3.599720e+000 -1.413132e+002 -4.700686e+001 7.946997e+001 -4.696584e+001 7.570379e+001 -1.399727e+001 -1.045775e+002
18884956250 -3.599107e+000 -1.418602e+002 -4.665605e+001 7.799940e+001 -4.667249e+001 7.482073e+001 -1.385047e+001 -1.067966e+002
18903700000 -3.592689e+000 -1.423713e+002 -4.627669e+001 7.669152e+001 -4.611640e+001 7.315763e+001 -1.372650e+001 -1.089359e+002
18922443750 -3.592803e+000 -1.428563e+002 -4.602785e+001 7.491895e+001 -4.580215e+001 7.220516e+001 -1.359937e+001 -1.110364e+002
18941187500 -3.593666e+000 -1.433873e+002 -4.564508e+001 7.386611e+001 -4.555121e+001 7.078807e+001 -1.348067e+001 -1.129393e+002
18959931250 -3.589199e+000 -1.438822e+002 -4.524406e+001 7.217873e+001 -4.529498e+001 6.924432e+001 -1.338044e+001 -1.147790e+002
18978675000 -3.590504e+000 -1.443764e+002 -4.500260e+001 7.088445e+001 -4.492109e+001 6.915000e+001 -1.329242e+001 -1.165751e+002
18997418750 -3.590419e+000 -1.449148e+002 -4.468343e+001 6.947594e+001 -4.454725e+001 6.779601e+001 -1.320938e+001 -1.182181e+002
19016162500 -3.583549e+000 -1.454040e+002 -4.441821e+001 6.857674e+001 -4.422472e+001 6.615825e+001 -1.313803e+001 -1.198064e+002
19034906250 -3.584148e+000 -1.458916e+002 -4.419028e+001 6.779441e+001 -4.393227e+001 6.576270e+001 -1.307075e+001 -1.213033e+002
19053650000 -3.584171e+000 -1.464067e+002 -4.392765e+001 6.629691e+001 -4.371509e+001 6.489620e+001 -1.301486e+001 -1.226741e+002
19072393750 -3.583109e+000 -1.468933e+002 -4.356825e+001 6.519036e+001 -4.338987e+001 6.428754e+001 -1.297140e+001 -1.239600e+002
19091137500 -3.587667e+000 -1.473886e+002 -4.326908e+001 6.507050e+001 -4.318917e+001 6.348860e+001 -1.293661e+001 -1.251819e+002
19109881250 -3.588027e+000 -1.479368e+002 -4.294133e+001 6.362240e+001 -4.293262e+001 6.305523e+001 -1.291031e+001 -1.262498e+002
19128625000 -3.586343e+000 -1.484325e+002 -4.262690e+001 6.299645e+001 -4.270387e+001 6.188885e+001 -1.288476e+001 -1.272639e+002
19147368750 -3.590384e+000 -1.489318e+002 -4.237160e+001 6.186939e+001 -4.246904e+001 6.120972e+001 -1.286240e+001 -1.282095e+002
19166112500 -3.593202e+000 -1.494605e+002 -4.212854e+001 6.071764e+001 -4.220581e+001 6.055791e+001 -1.284726e+001 -1.290035e+002
19184856250 -3.593549e+000 -1.499562e+002 -4.185989e+001 5.982225e+001 -4.193832e+001 5.953166e+001 -1.283764e+001 -1.296743e+002
19203600000 -3.601096e+000 -1.504702e+002 -4.155498e+001 5.875499e+001 -4.174210e+001 5.871147e+001 -1.283209e+001 -1.302838e+002
19222343750 -3.601217e+000 -1.510322e+002 -4.133479e+001 5.808633e+001 -4.149599e+001 5.822328e+001 -1.282486e+001 -1.307816e+002
19241087500 -3.598701e+000 -1.515375e+002 -4.107243e+001 5.769553e+001 -4.126366e+001 5.706081e+001 -1.281281e+001 -1.312327e+002
19259831250 -3.605862e+000 -1.520617e+002 -4.086775e+001 5.687392e+001 -4.099876e+001 5.645383e+001 -1.279512e+001 -1.315587e+002
19278575000 -3.609130e+000 -1.525847e+002 -4.049154e+001 5.632353e+001 -4.077151e+001 5.552441e+001 -1.277278e+001 -1.317722e+002
19297318750 -3.614108e+000 -1.530858e+002 -4.019747e+001 5.564543e+001 -4.050577e+001 5.471023e+001 -1.275213e+001 -1.318876e+002
19316062500 -3.624155e+000 -1.536391e+002 -3.996068e+001 5.498196e+001 -4.016985e+001 5.340932e+001 -1.272518e+001 -1.319624e+002
19334806250 -3.625090e+000 -1.542042e+002 -3.962731e+001 5.462166e+001 -3.992416e+001 5.296957e+001 -1.268979e+001 -1.319858e+002
19353550000 -3.627875e+000 -1.547000e+002 -3.935076e+001 5.395536e+001 -3.961272e+001 5.201716e+001 -1.264972e+001 -1.319675e+002
19372293750 -3.636749e+000 -1.552393e+002 -3.912049e+001 5.316307e+001 -3.934044e+001 5.146764e+001 -1.259674e+001 -1.319153e+002
19391037500 -3.640779e+000 -1.557630e+002 -3.885088e+001 5.277457e+001 -3.909073e+001 5.128441e+001 -1.252951e+001 -1.317738e+002
19409781250 -3.649281e+000 -1.562754e+002 -3.859427e+001 5.200264e+001 -3.881560e+001 5.061449e+001 -1.246012e+001 -1.315726e+002
19428525000 -3.658949e+000 -1.568437e+002 -3.829421e+001 5.148621e+001 -3.850035e+001 5.023144e+001 -1.238236e+001 -1.314164e+002
19447268750 -3.662766e+000 -1.574211e+002 -3.797828e+001 5.073578e+001 -3.820922e+001 4.973371e+001 -1.229266e+001 -1.312176e+002
19466012500 -3.669940e+000 -1.579303e+002 -3.767118e+001 4.996114e+001 -3.790551e+001 4.888852e+001 -1.219612e+001 -1.310478e+002
19484756250 -3.680798e+000 -1.584696e+002 -3.732157e+001 4.921843e+001 -3.759733e+001 4.799345e+001 -1.208692e+001 -1.308896e+002
19503500000 -3.685490e+000 -1.590082e+002 -3.706068e+001 4.878622e+001 -3.733070e+001 4.727584e+001 -1.196319e+001 -1.307034e+002
19522243750 -3.699282e+000 -1.595182e+002 -3.671758e+001 4.783504e+001 -3.697911e+001 4.675029e+001 -1.183528e+001 -1.305367e+002
19540987500 -3.714636e+000 -1.600786e+002 -3.642926e+001 4.733551e+001 -3.666893e+001 4.599224e+001 -1.169835e+001 -1.304608e+002
19559731250 -3.717163e+000 -1.606225e+002 -3.609856e+001 4.642014e+001 -3.632475e+001 4.534481e+001 -1.155620e+001 -1.303794e+002
19578475000 -3.727869e+000 -1.611387e+002 -3.578074e+001 4.559629e+001 -3.597688e+001 4.468769e+001 -1.141089e+001 -1.303666e+002
19597218750 -3.738474e+000 -1.616691e+002 -3.541462e+001 4.489015e+001 -3.568108e+001 4.408873e+001 -1.125290e+001 -1.304402e+002
19615962500 -3.746233e+000 -1.621790e+002 -3.509065e+001 4.409684e+001 -3.534321e+001 4.338725e+001 -1.108832e+001 -1.305226e+002
19634706250 -3.763935e+000 -1.626833e+002 -3.473852e+001 4.342813e+001 -3.498576e+001 4.269432e+001 -1.092068e+001 -1.306907e+002
19653450000 -3.778907e+000 -1.632430e+002 -3.433871e+001 4.267854e+001 -3.466347e+001 4.179203e+001 -1.074974e+001 -1.309376e+002
19672193750 -3.789972e+000 -1.637587e+002 -3.398516e+001 4.168679e+001 -3.429278e+001 4.116511e+001 -1.058020e+001 -1.311832e+002
19690937500 -3.807179e+000 -1.642509e+002 -3.359673e+001 4.051310e+001 -3.392484e+001 4.010012e+001 -1.041159e+001 -1.315645e+002
19709681250 -3.820691e+000 -1.647886e+002 -3.323269e+001 3.944295e+001 -3.353254e+001 3.906129e+001 -1.024035e+001 -1.320018e+002
19728425000 -3.835291e+000 -1.652637e+002 -3.287059e+001 3.821502e+001 -3.315303e+001 3.809161e+001 -1.007105e+001 -1.324560e+002
19747168750 -3.860787e+000 -1.657558e+002 -3.247743e+001 3.726395e+001 -3.279039e+001 3.726024e+001 -9.909168e+000 -1.330051e+002
19765912500 -3.881351e+000 -1.663064e+002 -3.212792e+001 3.602556e+001 -3.241520e+001 3.615587e+001 -9.744326e+000 -1.335910e+002
19784656250 -3.897280e+000 -1.668132e+002 -3.173676e+001 3.473612e+001 -3.201878e+001 3.498813e+001 -9.588988e+000 -1.342081e+002
19803400000 -3.915570e+000 -1.672724e+002 -3.133156e+001 3.351610e+001 -3.164523e+001 3.367584e+001 -9.439857e+000 -1.348712e+002
19822143750 -3.939898e+000 -1.677896e+002 -3.096616e+001 3.216277e+001 -3.124874e+001 3.236031e+001 -9.289835e+000 -1.356056e+002
19840887500 -3.959483e+000 -1.682834e+002 -3.057996e+001 3.083764e+001 -3.088965e+001 3.089807e+001 -9.144896e+000 -1.363047e+002
19859631250 -3.987269e+000 -1.687307e+002 -3.018154e+001 2.929489e+001 -3.050014e+001 2.937773e+001 -9.008035e+000 -1.370386e+002
19878375000 -4.012073e+000 -1.692424e+002 -2.980758e+001 2.781321e+001 -3.010881e+001 2.786600e+001 -8.877064e+000 -1.378472e+002
19897118750 -4.034342e+000 -1.697199e+002 -2.940320e+001 2.613372e+001 -2.974256e+001 2.637881e+001 -8.756642e+000 -1.386631e+002
19915862500 -4.058799e+000 -1.701986e+002 -2.904537e+001 2.444194e+001 -2.936250e+001 2.442562e+001 -8.637685e+000 -1.395119e+002
19934606250 -4.082330e+000 -1.706507e+002 -2.865806e+001 2.271969e+001 -2.895944e+001 2.292069e+001 -8.527260e+000 -1.403326e+002
19953350000 -4.109694e+000 -1.710945e+002 -2.826869e+001 2.092093e+001 -2.858576e+001 2.115316e+001 -8.427179e+000 -1.411426e+002
19972093750 -4.140217e+000 -1.715709e+002 -2.788212e+001 1.894001e+001 -2.821555e+001 1.925059e+001 -8.328917e+000 -1.419712e+002
19990837500 -4.167056e+000 -1.720545e+002 -2.753786e+001 1.698638e+001 -2.783706e+001 1.725319e+001 -8.235162e+000 -1.428010e+002
20009581250 -4.196924e+000 -1.724657e+002 -2.716001e+001 1.492787e+001 -2.747116e+001 1.511317e+001 -8.151100e+000 -1.436477e+002
20028325000 -4.227999e+000 -1.729083e+002 -2.680023e+001 1.280495e+001 -2.709966e+001 1.304164e+001 -8.065194e+000 -1.444660e+002
20047068750 -4.254219e+000 -1.733151e+002 -2.643416e+001 1.059264e+001 -2.674123e+001 1.097060e+001 -7.992142e+000 -1.452761e+002
20065812500 -4.286685e+000 -1.737047e+002 -2.607659e+001 8.244960e+000 -2.639240e+001 8.761732e+000 -7.922972e+000 -1.460657e+002
20084556250 -4.317278e+000 -1.741437e+002 -2.573678e+001 5.989284e+000 -2.603589e+001 6.478676e+000 -7.855516e+000 -1.468427e+002
20103300000 -4.342510e+000 -1.745539e+002 -2.539751e+001 3.598521e+000 -2.570962e+001 4.098958e+000 -7.791720e+000 -1.475852e+002
20122043750 -4.369676e+000 -1.749494e+002 -2.506575e+001 1.182733e+000 -2.536982e+001 1.749250e+000 -7.738197e+000 -1.483601e+002
20140787500 -4.393559e+000 -1.753288e+002 -2.473756e+001 -1.217956e+000 -2.504232e+001 -5.641927e-001 -7.677135e+000 -1.491134e+002
20159531250 -4.416452e+000 -1.756805e+002 -2.441211e+001 -3.646076e+000 -2.471424e+001 -3.039845e+000 -7.625466e+000 -1.498457e+002
20178275000 -4.443054e+000 -1.760170e+002 -2.409431e+001 -6.205290e+000 -2.441076e+001 -5.674493e+000 -7.572906e+000 -1.505632e+002
20197018750 -4.468446e+000 -1.763683e+002 -2.378606e+001 -8.727189e+000 -2.411317e+001 -8.235148e+000 -7.519559e+000 -1.512410e+002
20215762500 -4.489282e+000 -1.767096e+002 -2.349032e+001 -1.134318e+001 -2.382702e+001 -1.086713e+001 -7.472496e+000 -1.519216e+002
20234506250 -4.515924e+000 -1.770712e+002 -2.319949e+001 -1.396959e+001 -2.352067e+001 -1.343298e+001 -7.423148e+000 -1.526361e+002
20253250000 -4.527536e+000 -1.774067e+002 -2.292987e+001 -1.663314e+001 -2.324971e+001 -1.606781e+001 -7.378620e+000 -1.533095e+002
20271993750 -4.547221e+000 -1.776649e+002 -2.265228e+001 -1.940182e+001 -2.296753e+001 -1.864943e+001 -7.338999e+000 -1.539792e+002
20290737500 -4.570532e+000 -1.779951e+002 -2.238466e+001 -2.209830e+001 -2.270881e+001 -2.142526e+001 -7.292998e+000 -1.546953e+002
20309481250 -4.586743e+000 -1.783296e+002 -2.215238e+001 -2.486453e+001 -2.246636e+001 -2.416917e+001 -7.248790e+000 -1.553059e+002
20328225000 -4.599713e+000 -1.786351e+002 -2.192734e+001 -2.767883e+001 -2.222290e+001 -2.687291e+001 -7.203251e+000 -1.559026e+002
20346968750 -4.614338e+000 -1.789505e+002 -2.168969e+001 -3.036559e+001 -2.198399e+001 -2.944292e+001 -7.158405e+000 -1.565276e+002
20365712500 -4.621727e+000 -1.792707e+002 -2.148197e+001 -3.320243e+001 -2.177340e+001 -3.222435e+001 -7.107681e+000 -1.571646e+002
20384456250 -4.629304e+000 -1.795373e+002 -2.127286e+001 -3.601884e+001 -2.156630e+001 -3.503052e+001 -7.057935e+000 -1.577990e+002
20403200000 -4.644167e+000 -1.798407e+002 -2.107398e+001 -3.866096e+001 -2.135699e+001 -3.778931e+001 -7.007841e+000 -1.584199e+002
20421943750 -4.653369e+000 1.798381e+002 -2.087730e+001 -4.142509e+001 -2.117211e+001 -4.058485e+001 -6.957375e+000 -1.590312e+002
20440687500 -4.655139e+000 1.794915e+002 -2.070194e+001 -4.427389e+001 -2.097502e+001 -4.319987e+001 -6.908161e+000 -1.596411e+002
20459431250 -4.655343e+000 1.791478e+002 -2.052985e+001 -4.695966e+001 -2.080655e+001 -4.594415e+001 -6.861600e+000 -1.602958e+002
20478175000 -4.653743e+000 1.788084e+002 -2.037476e+001 -4.977184e+001 -2.064585e+001 -4.871787e+001 -6.802248e+000 -1.609068e+002
20496918750 -4.654421e+000 1.784966e+002 -2.024030e+001 -5.251163e+001 -2.047726e+001 -5.135943e+001 -6.744899e+000 -1.615099e+002
20515662500 -4.660131e+000 1.781505e+002 -2.008730e+001 -5.513767e+001 -2.033529e+001 -5.405965e+001 -6.689310e+000 -1.621310e+002
20534406250 -4.658298e+000 1.777475e+002 -1.995796e+001 -5.788475e+001 -2.019275e+001 -5.675071e+001 -6.640236e+000 -1.627719e+002
20553150000 -4.657087e+000 1.773705e+002 -1.980959e+001 -6.060133e+001 -2.005996e+001 -5.932288e+001 -6.592292e+000 -1.634113e+002
20571893750 -4.655678e+000 1.769322e+002 -1.968313e+001 -6.327165e+001 -1.993383e+001 -6.197850e+001 -6.540001e+000 -1.640759e+002
20590637500 -4.646339e+000 1.765391e+002 -1.957047e+001 -6.589380e+001 -1.980943e+001 -6.454285e+001 -6.481027e+000 -1.647461e+002
20609381250 -4.643699e+000 1.761546e+002 -1.945977e+001 -6.846997e+001 -1.969669e+001 -6.702696e+001 -6.428966e+000 -1.654019e+002
20628125000 -4.647718e+000 1.756907e+002 -1.934787e+001 -7.099665e+001 -1.958796e+001 -6.962172e+001 -6.377485e+000 -1.661112e+002
20646868750 -4.641647e+000 1.751996e+002 -1.923769e+001 -7.360873e+001 -1.948077e+001 -7.212603e+001 -6.324601e+000 -1.667615e+002
20665612500 -4.642085e+000 1.747199e+002 -1.914135e+001 -7.609679e+001 -1.938437e+001 -7.462527e+001 -6.282106e+000 -1.674609e+002
20684356250 -4.640085e+000 1.742132e+002 -1.904781e+001 -7.859010e+001 -1.927923e+001 -7.713311e+001 -6.234147e+000 -1.681602e+002
20703100000 -4.627093e+000 1.737339e+002 -1.895375e+001 -8.105173e+001 -1.917707e+001 -7.958315e+001 -6.182292e+000 -1.688517e+002
20721843750 -4.631052e+000 1.732632e+002 -1.886601e+001 -8.350211e+001 -1.909513e+001 -8.197813e+001 -6.142576e+000 -1.695393e+002
20740587500 -4.631458e+000 1.727526e+002 -1.877913e+001 -8.586612e+001 -1.900476e+001 -8.435551e+001 -6.099494e+000 -1.702677e+002
20759331250 -4.628895e+000 1.722060e+002 -1.868475e+001 -8.819682e+001 -1.890379e+001 -8.672158e+001 -6.061499e+000 -1.710008e+002
20778075000 -4.636803e+000 1.716599e+002 -1.861330e+001 -9.056498e+001 -1.881478e+001 -8.904473e+001 -6.027644e+000 -1.717794e+002
20796818750 -4.637838e+000 1.710751e+002 -1.852348e+001 -9.285614e+001 -1.872859e+001 -9.145082e+001 -5.992574e+000 -1.725586e+002
20815562500 -4.636828e+000 1.705500e+002 -1.844754e+001 -9.504011e+001 -1.862586e+001 -9.368611e+001 -5.960052e+000 -1.733301e+002
20834306250 -4.646221e+000 1.700307e+002 -1.836192e+001 -9.732273e+001 -1.854926e+001 -9.586240e+001 -5.931687e+000 -1.740910e+002
20853050000 -4.654233e+000 1.694410e+002 -1.828316e+001 -9.953907e+001 -1.847380e+001 -9.805651e+001 -5.905700e+000 -1.748761e+002
20871793750 -4.660975e+000 1.688639e+002 -1.820413e+001 -1.016307e+002 -1.839483e+001 -1.001949e+002 -5.883471e+000 -1.756397e+002
20890537500 -4.680778e+000 1.682551e+002 -1.811580e+001 -1.037788e+002 -1.831391e+001 -1.022915e+002 -5.862425e+000 -1.764635e+002
20909281250 -4.690665e+000 1.676071e+002 -1.803067e+001 -1.059169e+002 -1.822413e+001 -1.044220e+002 -5.836140e+000 -1.772621e+002
20928025000 -4.697855e+000 1.670331e+002 -1.794164e+001 -1.080168e+002 -1.813173e+001 -1.065037e+002 -5.822766e+000 -1.780511e+002
20946768750 -4.720818e+000 1.664698e+002 -1.786072e+001 -1.101988e+002 -1.804395e+001 -1.085808e+002 -5.813304e+000 -1.788698e+002
20965512500 -4.745076e+000 1.658447e+002 -1.777107e+001 -1.122718e+002 -1.794464e+001 -1.107068e+002 -5.797110e+000 -1.796555e+002
20984256250 -4.765988e+000 1.652506e+002 -1.770165e+001 -1.143645e+002 -1.785374e+001 -1.127962e+002 -5.791654e+000 1.795513e+002
21003000000 -4.795338e+000 1.646320e+002 -1.761860e+001 -1.164507e+002 -1.777698e+001 -1.148927e+002 -5.787992e+000 1.787168e+002
21021743750 -4.817810e+000 1.639644e+002 -1.753034e+001 -1.185196e+002 -1.767997e+001 -1.169941e+002 -5.783565e+000 1.779260e+002
21040487500 -4.837646e+000 1.633846e+002 -1.743838e+001 -1.205172e+002 -1.758854e+001 -1.189961e+002 -5.784384e+000 1.771388e+002
21059231250 -4.873705e+000 1.627860e+002 -1.736309e+001 -1.226120e+002 -1.749704e+001 -1.209852e+002 -5.786486e+000 1.763458e+002
21077975000 -4.912087e+000 1.621947e+002 -1.727984e+001 -1.245084e+002 -1.739707e+001 -1.229329e+002 -5.793959e+000 1.755614e+002
21096718750 -4.948860e+000 1.615894e+002 -1.719825e+001 -1.264831e+002 -1.730846e+001 -1.248846e+002 -5.803930e+000 1.747664e+002
21115462500 -4.990990e+000 1.609341e+002 -1.710434e+001 -1.284777e+002 -1.721306e+001 -1.268984e+002 -5.813901e+000 1.739596e+002
21134206250 -5.029333e+000 1.602597e+002 -1.700346e+001 -1.304595e+002 -1.710511e+001 -1.288869e+002 -5.827286e+000 1.731696e+002
21152950000 -5.066605e+000 1.596597e+002 -1.691165e+001 -1.324575e+002 -1.700929e+001 -1.308794e+002 -5.846727e+000 1.724084e+002
21171693750 -5.120580e+000 1.590307e+002 -1.681158e+001 -1.344822e+002 -1.691627e+001 -1.328705e+002 -5.866776e+000 1.716276e+002
21190437500 -5.172596e+000 1.584190e+002 -1.672489e+001 -1.364464e+002 -1.682049e+001 -1.348624e+002 -5.889667e+000 1.708495e+002
21209181250 -5.228514e+000 1.578002e+002 -1.663022e+001 -1.384596e+002 -1.673337e+001 -1.368173e+002 -5.922637e+000 1.700890e+002
21227925000 -5.285628e+000 1.571109e+002 -1.653524e+001 -1.404729e+002 -1.663176e+001 -1.388212e+002 -5.948040e+000 1.692941e+002
21246668750 -5.333597e+000 1.564703e+002 -1.643553e+001 -1.425373e+002 -1.653190e+001 -1.407552e+002 -5.973852e+000 1.685734e+002
21265412500 -5.388226e+000 1.558560e+002 -1.634159e+001 -1.445871e+002 -1.643569e+001 -1.428092e+002 -6.012431e+000 1.678289e+002
21284156250 -5.456524e+000 1.552410e+002 -1.623349e+001 -1.465969e+002 -1.631715e+001 -1.448374e+002 -6.050636e+000 1.671193e+002
21302900000 -5.525288e+000 1.546515e+002 -1.613933e+001 -1.486410e+002 -1.620753e+001 -1.469021e+002 -6.096659e+000 1.664404e+002
21321643750 -5.592470e+000 1.540439e+002 -1.604730e+001 -1.507778e+002 -1.610348e+001 -1.489749e+002 -6.146715e+000 1.657350e+002
21340387500 -5.664042e+000 1.534291e+002 -1.594317e+001 -1.527999e+002 -1.599992e+001 -1.511116e+002 -6.199121e+000 1.649864e+002
21359131250 -5.725767e+000 1.528378e+002 -1.584231e+001 -1.547986e+002 -1.589269e+001 -1.531279e+002 -6.245335e+000 1.643284e+002
21377875000 -5.798898e+000 1.523311e+002 -1.574613e+001 -1.568017e+002 -1.578628e+001 -1.551514e+002 -6.300427e+000 1.636642e+002
21396618750 -5.876360e+000 1.517842e+002 -1.563412e+001 -1.588120e+002 -1.568439e+001 -1.572457e+002 -6.358389e+000 1.629858e+002
21415362500 -5.957584e+000 1.512620e+002 -1.552900e+001 -1.607853e+002 -1.558057e+001 -1.592564e+002 -6.418810e+000 1.623754e+002
21434106250 -6.043568e+000 1.507020e+002 -1.542508e+001 -1.628446e+002 -1.546812e+001 -1.613433e+002 -6.489100e+000 1.617309e+002
21452850000 -6.129748e+000 1.501379e+002 -1.531973e+001 -1.648591e+002 -1.536371e+001 -1.634498e+002 -6.556802e+000 1.610813e+002
21471593750 -6.212868e+000 1.496705e+002 -1.522682e+001 -1.669982e+002 -1.525722e+001 -1.655692e+002 -6.625221e+000 1.605157e+002
21490337500 -6.298663e+000 1.492667e+002 -1.511148e+001 -1.690955e+002 -1.514742e+001 -1.676669e+002 -6.704261e+000 1.599692e+002
21509081250 -6.392327e+000 1.488063e+002 -1.500560e+001 -1.712101e+002 -1.504161e+001 -1.698691e+002 -6.779410e+000 1.594214e+002
21527825000 -6.490052e+000 1.484201e+002 -1.490483e+001 -1.734129e+002 -1.493632e+001 -1.719456e+002 -6.859857e+000 1.589146e+002
21546568750 -6.594212e+000 1.480203e+002 -1.479589e+001 -1.755512e+002 -1.483069e+001 -1.740915e+002 -6.946134e+000 1.583497e+002
21565312500 -6.692384e+000 1.475840e+002 -1.469739e+001 -1.776242e+002 -1.473462e+001 -1.762812e+002 -7.022945e+000 1.578406e+002
21584056250 -6.783975e+000 1.472643e+002 -1.460501e+001 -1.798520e+002 -1.463264e+001 -1.784156e+002 -7.105894e+000 1.573957e+002
21602800000 -6.883133e+000 1.470275e+002 -1.450282e+001 1.780339e+002 -1.452091e+001 1.794057e+002 -7.191904e+000 1.569254e+002
21621543750 -6.989450e+000 1.467618e+002 -1.440369e+001 1.759066e+002 -1.441872e+001 1.772170e+002 -7.273682e+000 1.565295e+002
21640287500 -7.093844e+000 1.465821e+002 -1.430382e+001 1.737053e+002 -1.431288e+001 1.750414e+002 -7.368227e+000 1.561536e+002
21659031250 -7.207381e+000 1.463970e+002 -1.420245e+001 1.715182e+002 -1.421845e+001 1.728155e+002 -7.461463e+000 1.557465e+002
21677775000 -7.311442e+000 1.461541e+002 -1.411123e+001 1.693863e+002 -1.412476e+001 1.705843e+002 -7.542628e+000 1.554095e+002
21696518750 -7.411926e+000 1.460804e+002 -1.402009e+001 1.671678e+002 -1.403041e+001 1.683549e+002 -7.630241e+000 1.551344e+002
21715262500 -7.513215e+000 1.460453e+002 -1.392571e+001 1.649896e+002 -1.393933e+001 1.661037e+002 -7.719257e+000 1.548383e+002
21734006250 -7.625422e+000 1.460170e+002 -1.383505e+001 1.628147e+002 -1.384813e+001 1.638429e+002 -7.802668e+000 1.545691e+002
21752750000 -7.744584e+000 1.460606e+002 -1.374237e+001 1.605865e+002 -1.375771e+001 1.616165e+002 -7.895926e+000 1.543681e+002
21771493750 -7.863715e+000 1.459955e+002 -1.365719e+001 1.583542e+002 -1.366629e+001 1.593846e+002 -7.985146e+000 1.541283e+002
21790237500 -7.963908e+000 1.459850e+002 -1.357473e+001 1.560665e+002 -1.358395e+001 1.571143e+002 -8.065456e+000 1.539538e+002
21808981250 -8.047919e+000 1.460877e+002 -1.348257e+001 1.537498e+002 -1.350231e+001 1.548181e+002 -8.149527e+000 1.538639e+002
21827725000 -8.149422e+000 1.463040e+002 -1.340991e+001 1.514958e+002 -1.342138e+001 1.525324e+002 -8.233662e+000 1.537857e+002
21846468750 -8.242877e+000 1.465029e+002 -1.334250e+001 1.491725e+002 -1.334464e+001 1.501783e+002 -8.310771e+000 1.537350e+002
21865212500 -8.349279e+000 1.467890e+002 -1.325996e+001 1.468706e+002 -1.326746e+001 1.478986e+002 -8.395724e+000 1.536743e+002
21883956250 -8.449955e+000 1.469511e+002 -1.318456e+001 1.445807e+002 -1.320150e+001 1.456166e+002 -8.468394e+000 1.536062e+002
21902700000 -8.529387e+000 1.471036e+002 -1.312180e+001 1.422907e+002 -1.312794e+001 1.433162e+002 -8.532704e+000 1.535862e+002
21921443750 -8.603188e+000 1.474036e+002 -1.305152e+001 1.400169e+002 -1.305998e+001 1.410069e+002 -8.602526e+000 1.536076e+002
21940187500 -8.675175e+000 1.477851e+002 -1.298747e+001 1.377378e+002 -1.299436e+001 1.386986e+002 -8.664263e+000 1.536090e+002
21958931250 -8.740976e+000 1.481868e+002 -1.292616e+001 1.354469e+002 -1.292776e+001 1.363062e+002 -8.732216e+000 1.537023e+002
21977675000 -8.817630e+000 1.486080e+002 -1.285710e+001 1.331286e+002 -1.286439e+001 1.339864e+002 -8.795702e+000 1.537934e+002
21996418750 -8.883942e+000 1.489468e+002 -1.280355e+001 1.307986e+002 -1.280699e+001 1.316974e+002 -8.850560e+000 1.537742e+002
22015162500 -8.929542e+000 1.492834e+002 -1.274590e+001 1.285456e+002 -1.275128e+001 1.293834e+002 -8.897083e+000 1.538502e+002
22033906250 -8.973022e+000 1.497169e+002 -1.268654e+001 1.262537e+002 -1.269723e+001 1.270783e+002 -8.952076e+000 1.539371e+002
22052650000 -9.006425e+000 1.501646e+002 -1.263595e+001 1.239327e+002 -1.265024e+001 1.247431e+002 -8.995609e+000 1.540090e+002
22071393750 -9.040779e+000 1.506548e+002 -1.258667e+001 1.216069e+002 -1.259655e+001 1.224116e+002 -9.032883e+000 1.541173e+002
22090137500 -9.078935e+000 1.511234e+002 -1.253905e+001 1.193345e+002 -1.254467e+001 1.201128e+002 -9.081819e+000 1.542066e+002
22108881250 -9.109631e+000 1.515053e+002 -1.250021e+001 1.170281e+002 -1.250630e+001 1.177740e+002 -9.120348e+000 1.542188e+002
22127625000 -9.115920e+000 1.518586e+002 -1.246233e+001 1.147452e+002 -1.245960e+001 1.154648e+002 -9.153213e+000 1.542857e+002
22146368750 -9.125067e+000 1.522702e+002 -1.242806e+001 1.124619e+002 -1.241450e+001 1.132116e+002 -9.194362e+000 1.543181e+002
22165112500 -9.114652e+000 1.527150e+002 -1.239359e+001 1.101701e+002 -1.238295e+001 1.109136e+002 -9.219214e+000 1.543554e+002
22183856250 -9.106376e+000 1.531759e+002 -1.235379e+001 1.078716e+002 -1.234068e+001 1.086267e+002 -9.249741e+000 1.543977e+002
22202600000 -9.106689e+000 1.536368e+002 -1.231884e+001 1.056322e+002 -1.231456e+001 1.063979e+002 -9.280791e+000 1.544288e+002
22221343750 -9.106325e+000 1.539665e+002 -1.228892e+001 1.033950e+002 -1.228605e+001 1.040843e+002 -9.299861e+000 1.543652e+002
22240087500 -9.091352e+000 1.542856e+002 -1.226363e+001 1.011397e+002 -1.225027e+001 1.018266e+002 -9.311752e+000 1.543455e+002
22258831250 -9.063043e+000 1.545667e+002 -1.223246e+001 9.889706e+001 -1.222033e+001 9.960003e+001 -9.332508e+000 1.542855e+002
22277575000 -9.030065e+000 1.549046e+002 -1.220309e+001 9.663355e+001 -1.219594e+001 9.734692e+001 -9.350282e+000 1.542605e+002
22296318750 -8.993545e+000 1.552936e+002 -1.217497e+001 9.436033e+001 -1.216405e+001 9.506416e+001 -9.368137e+000 1.542556e+002
22315062500 -8.973541e+000 1.556519e+002 -1.215492e+001 9.214670e+001 -1.214132e+001 9.286173e+001 -9.391750e+000 1.541550e+002
22333806250 -8.943233e+000 1.558466e+002 -1.213104e+001 8.990933e+001 -1.212581e+001 9.057961e+001 -9.407093e+000 1.540209e+002
22352550000 -8.901489e+000 1.560303e+002 -1.211106e+001 8.767182e+001 -1.209866e+001 8.833714e+001 -9.423793e+000 1.539215e+002
22371293750 -8.855345e+000 1.561760e+002 -1.209464e+001 8.548590e+001 -1.209013e+001 8.616572e+001 -9.448699e+000 1.538102e+002
22390037500 -8.802893e+000 1.563350e+002 -1.207567e+001 8.328870e+001 -1.207726e+001 8.397572e+001 -9.456223e+000 1.536901e+002
22408781250 -8.756007e+000 1.565363e+002 -1.205917e+001 8.112429e+001 -1.205870e+001 8.177597e+001 -9.480687e+000 1.535731e+002
22427525000 -8.725915e+000 1.566825e+002 -1.204590e+001 7.893213e+001 -1.205012e+001 7.960445e+001 -9.511539e+000 1.534289e+002
22446268750 -8.688932e+000 1.566968e+002 -1.203460e+001 7.675764e+001 -1.203728e+001 7.740348e+001 -9.533538e+000 1.532675e+002
22465012500 -8.639626e+000 1.566927e+002 -1.202200e+001 7.457857e+001 -1.202538e+001 7.524380e+001 -9.557510e+000 1.531485e+002
22483756250 -8.591907e+000 1.567208e+002 -1.200971e+001 7.244213e+001 -1.202469e+001 7.310467e+001 -9.595372e+000 1.529941e+002
22502500000 -8.537005e+000 1.567111e+002 -1.199784e+001 7.032004e+001 -1.201879e+001 7.085979e+001 -9.627439e+000 1.528394e+002
22521243750 -8.493849e+000 1.567532e+002 -1.198880e+001 6.816341e+001 -1.201182e+001 6.873856e+001 -9.663264e+000 1.527131e+002
22539987500 -8.460873e+000 1.567207e+002 -1.197835e+001 6.600883e+001 -1.200677e+001 6.658718e+001 -9.704618e+000 1.525801e+002
22558731250 -8.425849e+000 1.566471e+002 -1.196573e+001 6.388134e+001 -1.199961e+001 6.445241e+001 -9.741607e+000 1.524689e+002
22577475000 -8.383655e+000 1.565706e+002 -1.195802e+001 6.175777e+001 -1.199706e+001 6.234209e+001 -9.784428e+000 1.524031e+002
22596218750 -8.338943e+000 1.564454e+002 -1.194587e+001 5.965105e+001 -1.199054e+001 6.023264e+001 -9.840503e+000 1.523209e+002
22614962500 -8.293409e+000 1.563648e+002 -1.194257e+001 5.760440e+001 -1.198770e+001 5.807642e+001 -9.898373e+000 1.522135e+002
22633706250 -8.253068e+000 1.563295e+002 -1.194335e+001 5.547093e+001 -1.198365e+001 5.594406e+001 -9.957244e+000 1.521213e+002
22652450000 -8.220458e+000 1.562250e+002 -1.193172e+001 5.337151e+001 -1.197933e+001 5.386554e+001 -1.002736e+001 1.520170e+002
22671193750 -8.191348e+000 1.559699e+002 -1.193365e+001 5.132173e+001 -1.198002e+001 5.177505e+001 -1.009629e+001 1.519238e+002
22689937500 -8.146060e+000 1.557902e+002 -1.193314e+001 4.920726e+001 -1.198202e+001 4.962904e+001 -1.016127e+001 1.519245e+002
22708681250 -8.116911e+000 1.556066e+002 -1.192254e+001 4.719441e+001 -1.197441e+001 4.755296e+001 -1.024290e+001 1.519016e+002
22727425000 -8.075422e+000 1.553716e+002 -1.193061e+001 4.518396e+001 -1.198312e+001 4.550718e+001 -1.032575e+001 1.519148e+002
22746168750 -8.038590e+000 1.552237e+002 -1.192626e+001 4.307935e+001 -1.198651e+001 4.337925e+001 -1.041861e+001 1.519911e+002
22764912500 -8.024160e+000 1.550829e+002 -1.191943e+001 4.107131e+001 -1.198214e+001 4.136401e+001 -1.051367e+001 1.520521e+002
22783656250 -7.998193e+000 1.547903e+002 -1.192635e+001 3.905397e+001 -1.199531e+001 3.935482e+001 -1.059404e+001 1.521252e+002
22802400000 -7.967565e+000 1.545726e+002 -1.192006e+001 3.695677e+001 -1.199650e+001 3.725409e+001 -1.068499e+001 1.523141e+002
22821143750 -7.949080e+000 1.543286e+002 -1.191252e+001 3.494084e+001 -1.199360e+001 3.521552e+001 -1.079018e+001 1.524639e+002
22839887500 -7.916001e+000 1.540690e+002 -1.192006e+001 3.288748e+001 -1.200806e+001 3.317039e+001 -1.088843e+001 1.526915e+002
22858631250 -7.890553e+000 1.539716e+002 -1.191600e+001 3.085965e+001 -1.200688e+001 3.105373e+001 -1.098795e+001 1.530089e+002
22877375000 -7.883787e+000 1.537982e+002 -1.191293e+001 2.886909e+001 -1.200740e+001 2.904866e+001 -1.109293e+001 1.532794e+002
22896118750 -7.861557e+000 1.535285e+002 -1.191914e+001 2.680871e+001 -1.201988e+001 2.699027e+001 -1.117663e+001 1.536139e+002
22914862500 -7.837972e+000 1.532950e+002 -1.192130e+001 2.472416e+001 -1.202123e+001 2.493361e+001 -1.127802e+001 1.540816e+002
22933606250 -7.818620e+000 1.530668e+002 -1.192375e+001 2.271416e+001 -1.202706e+001 2.299982e+001 -1.138818e+001 1.546011e+002
22952350000 -7.786002e+000 1.528386e+002 -1.193020e+001 2.070315e+001 -1.203960e+001 2.094551e+001 -1.149180e+001 1.551466e+002
22971093750 -7.769635e+000 1.527388e+002 -1.192807e+001 1.871556e+001 -1.204485e+001 1.888652e+001 -1.159888e+001 1.556834e+002
22989837500 -7.762949e+000 1.525217e+002 -1.193796e+001 1.674262e+001 -1.205680e+001 1.688360e+001 -1.169008e+001 1.561540e+002
23008581250 -7.744825e+000 1.522323e+002 -1.194374e+001 1.467997e+001 -1.206785e+001 1.485260e+001 -1.176540e+001 1.568139e+002
23027325000 -7.730492e+000 1.520335e+002 -1.195026e+001 1.266665e+001 -1.207366e+001 1.279486e+001 -1.183913e+001 1.576014e+002
23046068750 -7.715632e+000 1.517812e+002 -1.195786e+001 1.066794e+001 -1.208835e+001 1.084591e+001 -1.191386e+001 1.584609e+002
23064812500 -7.692058e+000 1.515570e+002 -1.195987e+001 8.651178e+000 -1.209782e+001 8.833748e+000 -1.198697e+001 1.593491e+002
23083556250 -7.683486e+000 1.514424e+002 -1.197059e+001 6.626914e+000 -1.210695e+001 6.794342e+000 -1.205704e+001 1.602989e+002
23102300000 -7.680719e+000 1.512513e+002 -1.197474e+001 4.629333e+000 -1.211840e+001 4.761510e+000 -1.211570e+001 1.612047e+002
23121043750 -7.674323e+000 1.510233e+002 -1.198459e+001 2.631003e+000 -1.213502e+001 2.849252e+000 -1.215477e+001 1.621731e+002
23139787500 -7.655378e+000 1.508025e+002 -1.199472e+001 5.835277e-001 -1.215487e+001 8.577322e-001 -1.217736e+001 1.632508e+002
23158531250 -7.644841e+000 1.506025e+002 -1.200089e+001 -1.404511e+000 -1.217032e+001 -1.150003e+000 -1.220408e+001 1.643746e+002
23177275000 -7.628770e+000 1.504230e+002 -1.201708e+001 -3.371863e+000 -1.218358e+001 -3.124918e+000 -1.221486e+001 1.654766e+002
23196018750 -7.618592e+000 1.502786e+002 -1.202620e+001 -5.405810e+000 -1.219539e+001 -5.108270e+000 -1.222199e+001 1.665800e+002
23214762500 -7.616440e+000 1.500784e+002 -1.203171e+001 -7.394975e+000 -1.220503e+001 -7.127915e+000 -1.222109e+001 1.676831e+002
23233506250 -7.609700e+000 1.498359e+002 -1.204739e+001 -9.376632e+000 -1.222322e+001 -9.031760e+000 -1.219700e+001 1.687953e+002
23252250000 -7.593179e+000 1.496301e+002 -1.206205e+001 -1.137615e+001 -1.224325e+001 -1.104506e+001 -1.215976e+001 1.700166e+002
23270993750 -7.577566e+000 1.494274e+002 -1.207705e+001 -1.334380e+001 -1.226261e+001 -1.301814e+001 -1.212666e+001 1.712079e+002
23289737500 -7.562410e+000 1.492167e+002 -1.210186e+001 -1.534982e+001 -1.228760e+001 -1.496464e+001 -1.207545e+001 1.723589e+002
23308481250 -7.550339e+000 1.490677e+002 -1.211950e+001 -1.735048e+001 -1.231185e+001 -1.699862e+001 -1.201119e+001 1.734791e+002
23327225000 -7.546899e+000 1.488426e+002 -1.213815e+001 -1.929104e+001 -1.233108e+001 -1.895508e+001 -1.194352e+001 1.745616e+002
23345968750 -7.538850e+000 1.485907e+002 -1.215891e+001 -2.126333e+001 -1.235150e+001 -2.090390e+001 -1.184427e+001 1.756180e+002
23364712500 -7.526091e+000 1.483726e+002 -1.217635e+001 -2.322055e+001 -1.238047e+001 -2.286920e+001 -1.173368e+001 1.767110e+002
23383456250 -7.508394e+000 1.481622e+002 -1.219658e+001 -2.517327e+001 -1.239993e+001 -2.479166e+001 -1.162742e+001 1.777720e+002
23402200000 -7.490611e+000 1.479656e+002 -1.222435e+001 -2.719065e+001 -1.242982e+001 -2.666246e+001 -1.152344e+001 1.788124e+002
23420943750 -7.480987e+000 1.477689e+002 -1.224212e+001 -2.920407e+001 -1.245983e+001 -2.860627e+001 -1.141498e+001 1.798229e+002
23439687500 -7.476126e+000 1.475136e+002 -1.226888e+001 -3.109671e+001 -1.248267e+001 -3.052888e+001 -1.128726e+001 -1.793668e+002
23458431250 -7.462544e+000 1.472613e+002 -1.229470e+001 -3.311090e+001 -1.251981e+001 -3.240968e+001 -1.115081e+001 -1.786033e+002
23477175000 -7.441842e+000 1.469859e+002 -1.231335e+001 -3.507696e+001 -1.254935e+001 -3.435419e+001 -1.099993e+001 -1.778266e+002
23495918750 -7.421954e+000 1.467143e+002 -1.233711e+001 -3.699568e+001 -1.258358e+001 -3.622559e+001 -1.085217e+001 -1.771044e+002
23514662500 -7.402237e+000 1.464993e+002 -1.236222e+001 -3.897301e+001 -1.262200e+001 -3.811666e+001 -1.070178e+001 -1.764366e+002
23533406250 -7.390252e+000 1.463065e+002 -1.238433e+001 -4.092614e+001 -1.265058e+001 -4.003825e+001 -1.055834e+001 -1.758037e+002
23552150000 -7.379654e+000 1.459971e+002 -1.241520e+001 -4.280375e+001 -1.267465e+001 -4.195129e+001 -1.041330e+001 -1.753448e+002
23570893750 -7.361465e+000 1.457207e+002 -1.244257e+001 -4.473358e+001 -1.270839e+001 -4.385684e+001 -1.025437e+001 -1.749257e+002
23589637500 -7.345136e+000 1.454573e+002 -1.246881e+001 -4.662074e+001 -1.274009e+001 -4.573349e+001 -1.008909e+001 -1.745280e+002
23608381250 -7.322768e+000 1.451766e+002 -1.249624e+001 -4.850892e+001 -1.277364e+001 -4.756581e+001 -9.928980e+000 -1.741744e+002
23627125000 -7.299929e+000 1.449545e+002 -1.252737e+001 -5.041513e+001 -1.281292e+001 -4.945786e+001 -9.770224e+000 -1.738371e+002
23645868750 -7.292132e+000 1.447215e+002 -1.256103e+001 -5.228811e+001 -1.284739e+001 -5.133290e+001 -9.619226e+000 -1.735875e+002
23664612500 -7.281321e+000 1.444087e+002 -1.259428e+001 -5.418540e+001 -1.288081e+001 -5.314438e+001 -9.459639e+000 -1.734540e+002
23683356250 -7.262305e+000 1.441016e+002 -1.262886e+001 -5.606411e+001 -1.292063e+001 -5.496158e+001 -9.301683e+000 -1.733636e+002
23702100000 -7.251050e+000 1.438310e+002 -1.265680e+001 -5.794300e+001 -1.294871e+001 -5.683768e+001 -9.138183e+000 -1.732993e+002
23720843750 -7.233724e+000 1.435103e+002 -1.269071e+001 -5.979269e+001 -1.298347e+001 -5.862959e+001 -8.989628e+000 -1.732478e+002
23739587500 -7.222583e+000 1.432776e+002 -1.271766e+001 -6.173695e+001 -1.301703e+001 -6.037254e+001 -8.845692e+000 -1.732101e+002
23758331250 -7.221645e+000 1.430038e+002 -1.274607e+001 -6.359888e+001 -1.304386e+001 -6.226438e+001 -8.708700e+000 -1.732595e+002
23777075000 -7.211217e+000 1.426180e+002 -1.277971e+001 -6.544354e+001 -1.307825e+001 -6.407689e+001 -8.568738e+000 -1.734004e+002
23795818750 -7.195684e+000 1.422738e+002 -1.281283e+001 -6.736214e+001 -1.311704e+001 -6.593340e+001 -8.423681e+000 -1.735461e+002
23814562500 -7.191770e+000 1.419374e+002 -1.284710e+001 -6.921234e+001 -1.315134e+001 -6.776515e+001 -8.283655e+000 -1.737282e+002
23833306250 -7.176714e+000 1.415950e+002 -1.288360e+001 -7.105823e+001 -1.318451e+001 -6.956905e+001 -8.138780e+000 -1.739137e+002
23852050000 -7.166732e+000 1.413178e+002 -1.291736e+001 -7.287916e+001 -1.321404e+001 -7.138419e+001 -8.002841e+000 -1.741335e+002
23870793750 -7.173584e+000 1.409918e+002 -1.294929e+001 -7.474400e+001 -1.324563e+001 -7.320525e+001 -7.883507e+000 -1.743772e+002
23889537500 -7.170694e+000 1.405651e+002 -1.298488e+001 -7.656747e+001 -1.327873e+001 -7.497031e+001 -7.752623e+000 -1.746927e+002
23908281250 -7.168693e+000 1.402273e+002 -1.302013e+001 -7.838405e+001 -1.331118e+001 -7.680161e+001 -7.632272e+000 -1.749843e+002
23927025000 -7.166788e+000 1.398875e+002 -1.305960e+001 -8.020066e+001 -1.333338e+001 -7.863023e+001 -7.514694e+000 -1.753047e+002
23945768750 -7.157333e+000 1.394863e+002 -1.309641e+001 -8.199952e+001 -1.336573e+001 -8.041022e+001 -7.398844e+000 -1.756595e+002
23964512500 -7.156240e+000 1.392014e+002 -1.312359e+001 -8.381788e+001 -1.339945e+001 -8.216181e+001 -7.282629e+000 -1.760105e+002
23983256250 -7.171443e+000 1.388443e+002 -1.315642e+001 -8.566328e+001 -1.342527e+001 -8.391550e+001 -7.173351e+000 -1.763981e+002
24002000000 -7.181506e+000 1.384121e+002 -1.319036e+001 -8.747125e+001 -1.346214e+001 -8.564725e+001 -7.065077e+000 -1.768327e+002
24020743750 -7.182932e+000 1.380096e+002 -1.321922e+001 -8.929408e+001 -1.349604e+001 -8.742075e+001 -6.960635e+000 -1.772394e+002
24039487500 -7.191889e+000 1.376086e+002 -1.325354e+001 -9.114105e+001 -1.351690e+001 -8.918385e+001 -6.861186e+000 -1.776691e+002
24058231250 -7.188652e+000 1.371830e+002 -1.328394e+001 -9.295005e+001 -1.354973e+001 -9.096130e+001 -6.766557e+000 -1.781073e+002
24076975000 -7.193846e+000 1.368708e+002 -1.330846e+001 -9.479852e+001 -1.358089e+001 -9.276907e+001 -6.675914e+000 -1.785659e+002
24095718750 -7.220616e+000 1.364569e+002 -1.334074e+001 -9.659624e+001 -1.360917e+001 -9.462205e+001 -6.588615e+000 -1.790469e+002
24114462500 -7.233571e+000 1.360441e+002 -1.337358e+001 -9.838763e+001 -1.363699e+001 -9.636720e+001 -6.500505e+000 -1.795236e+002
24133206250 -7.245685e+000 1.356535e+002 -1.340125e+001 -1.001659e+002 -1.366625e+001 -9.811824e+001 -6.416220e+000 -1.799763e+002
24151950000 -7.253247e+000 1.352359e+002 -1.343086e+001 -1.019605e+002 -1.369027e+001 -9.984433e+001 -6.334868e+000 1.795399e+002
24170693750 -7.250019e+000 1.348750e+002 -1.346355e+001 -1.037116e+002 -1.371743e+001 -1.016475e+002 -6.261505e+000 1.790706e+002
24189437500 -7.271684e+000 1.345654e+002 -1.349422e+001 -1.055246e+002 -1.374881e+001 -1.034075e+002 -6.193748e+000 1.785766e+002
24208181250 -7.301315e+000 1.342092e+002 -1.352382e+001 -1.073319e+002 -1.377335e+001 -1.051455e+002 -6.126374e+000 1.780599e+002
24226925000 -7.324593e+000 1.338096e+002 -1.355060e+001 -1.091097e+002 -1.379723e+001 -1.068729e+002 -6.056901e+000 1.775289e+002
24245668750 -7.349507e+000 1.334315e+002 -1.357257e+001 -1.109136e+002 -1.381709e+001 -1.086213e+002 -5.991997e+000 1.770353e+002
24264412500 -7.368133e+000 1.329990e+002 -1.359449e+001 -1.127206e+002 -1.383573e+001 -1.103893e+002 -5.931760e+000 1.765217e+002
24283156250 -7.387373e+000 1.326703e+002 -1.362022e+001 -1.145361e+002 -1.386309e+001 -1.121588e+002 -5.875098e+000 1.760388e+002
24301900000 -7.410063e+000 1.324374e+002 -1.364591e+001 -1.163031e+002 -1.388865e+001 -1.139578e+002 -5.824576e+000 1.755331e+002
24320643750 -7.442967e+000 1.321165e+002 -1.367194e+001 -1.180852e+002 -1.391116e+001 -1.157336e+002 -5.779767e+000 1.749890e+002
24339387500 -7.468537e+000 1.317993e+002 -1.370035e+001 -1.199228e+002 -1.393829e+001 -1.174784e+002 -5.727820e+000 1.744663e+002
24358131250 -7.500607e+000 1.314837e+002 -1.372216e+001 -1.217504e+002 -1.397270e+001 -1.192611e+002 -5.682575e+000 1.739461e+002
24376875000 -7.530338e+000 1.311473e+002 -1.375306e+001 -1.235920e+002 -1.399627e+001 -1.210603e+002 -5.637181e+000 1.734325e+002
24395618750 -7.554064e+000 1.308710e+002 -1.378742e+001 -1.254259e+002 -1.402174e+001 -1.228654e+002 -5.596969e+000 1.729270e+002
24414362500 -7.592032e+000 1.305968e+002 -1.380885e+001 -1.272551e+002 -1.404656e+001 -1.246560e+002 -5.562416e+000 1.724260e+002
24433106250 -7.626370e+000 1.302997e+002 -1.383609e+001 -1.290600e+002 -1.405865e+001 -1.264765e+002 -5.526631e+000 1.719172e+002
24451850000 -7.661859e+000 1.300515e+002 -1.386621e+001 -1.309334e+002 -1.407362e+001 -1.282631e+002 -5.491113e+000 1.714083e+002
24470593750 -7.701453e+000 1.297668e+002 -1.389241e+001 -1.327519e+002 -1.409373e+001 -1.301320e+002 -5.462442e+000 1.709352e+002
24489337500 -7.746646e+000 1.295364e+002 -1.391924e+001 -1.345871e+002 -1.411793e+001 -1.319345e+002 -5.432092e+000 1.704255e+002
24508081250 -7.788676e+000 1.293609e+002 -1.395446e+001 -1.364567e+002 -1.413639e+001 -1.337215e+002 -5.407785e+000 1.699893e+002
24526825000 -7.832620e+000 1.292058e+002 -1.397541e+001 -1.383242e+002 -1.415138e+001 -1.355183e+002 -5.391182e+000 1.695021e+002
24545568750 -7.880740e+000 1.289913e+002 -1.399710e+001 -1.402054e+002 -1.416570e+001 -1.373762e+002 -5.364197e+000 1.689693e+002
24564312500 -7.920860e+000 1.288070e+002 -1.402622e+001 -1.420941e+002 -1.418041e+001 -1.392496e+002 -5.338597e+000 1.685030e+002
24583056250 -7.971601e+000 1.286359e+002 -1.404919e+001 -1.440129e+002 -1.419984e+001 -1.411512e+002 -5.316681e+000 1.680268e+002
24601800000 -8.019143e+000 1.284286e+002 -1.406755e+001 -1.458774e+002 -1.422038e+001 -1.430704e+002 -5.294904e+000 1.675604e+002
24620543750 -8.054046e+000 1.283195e+002 -1.409311e+001 -1.477583e+002 -1.423895e+001 -1.448893e+002 -5.279737e+000 1.671175e+002
24639287500 -8.102338e+000 1.282044e+002 -1.411856e+001 -1.496484e+002 -1.426380e+001 -1.468281e+002 -5.268272e+000 1.666643e+002
24658031250 -8.144712e+000 1.280711e+002 -1.414077e+001 -1.514959e+002 -1.427994e+001 -1.487819e+002 -5.257884e+000 1.662098e+002
24676775000 -8.185037e+000 1.280424e+002 -1.416721e+001 -1.534311e+002 -1.430347e+001 -1.506718e+002 -5.243871e+000 1.657910e+002
24695518750 -8.239989e+000 1.279959e+002 -1.419672e+001 -1.553158e+002 -1.433240e+001 -1.526151e+002 -5.233393e+000 1.653878e+002
24714262500 -8.275830e+000 1.279332e+002 -1.422408e+001 -1.572023e+002 -1.434546e+001 -1.545126e+002 -5.220025e+000 1.649708e+002
24733006250 -8.313250e+000 1.279529e+002 -1.425261e+001 -1.591299e+002 -1.436578e+001 -1.564422e+002 -5.208126e+000 1.646050e+002
24751750000 -8.360402e+000 1.279109e+002 -1.427510e+001 -1.610914e+002 -1.438896e+001 -1.583793e+002 -5.202057e+000 1.642317e+002
24770493750 -8.394129e+000 1.278504e+002 -1.430660e+001 -1.629964e+002 -1.440648e+001 -1.603211e+002 -5.191257e+000 1.638813e+002
24789237500 -8.429990e+000 1.279292e+002 -1.433035e+001 -1.648991e+002 -1.442993e+001 -1.622077e+002 -5.182042e+000 1.635712e+002
24807981250 -8.475577e+000 1.279538e+002 -1.434826e+001 -1.667939e+002 -1.445194e+001 -1.641649e+002 -5.180607e+000 1.632484e+002
24826725000 -8.507986e+000 1.279802e+002 -1.438319e+001 -1.687146e+002 -1.447386e+001 -1.661074e+002 -5.176952e+000 1.629415e+002
24845468750 -8.542220e+000 1.281639e+002 -1.441210e+001 -1.707033e+002 -1.450415e+001 -1.680956e+002 -5.177825e+000 1.626281e+002
24864212500 -8.583073e+000 1.282345e+002 -1.443696e+001 -1.726850e+002 -1.452646e+001 -1.700834e+002 -5.176651e+000 1.622776e+002
24882956250 -8.607488e+000 1.283090e+002 -1.446599e+001 -1.746565e+002 -1.455060e+001 -1.720496e+002 -5.168615e+000 1.619851e+002
24901700000 -8.629507e+000 1.285123e+002 -1.448886e+001 -1.766590e+002 -1.458254e+001 -1.739921e+002 -5.159440e+000 1.617320e+002
24920443750 -8.650561e+000 1.286151e+002 -1.451844e+001 -1.786029e+002 -1.460741e+001 -1.760019e+002 -5.151757e+000 1.614818e+002
24939187500 -8.651320e+000 1.287781e+002 -1.454740e+001 1.794122e+002 -1.463223e+001 -1.779997e+002 -5.137666e+000 1.612151e+002
24957931250 -8.660822e+000 1.289689e+002 -1.458117e+001 1.773949e+002 -1.466123e+001 1.799444e+002 -5.131108e+000 1.609954e+002
24976675000 -8.678856e+000 1.291076e+002 -1.461355e+001 1.753748e+002 -1.468692e+001 1.779002e+002 -5.127869e+000 1.607658e+002
24995418750 -8.678048e+000 1.293109e+002 -1.465460e+001 1.733269e+002 -1.472355e+001 1.758774e+002 -5.118639e+000 1.605212e+002
25014162500 -8.686301e+000 1.295324e+002 -1.468270e+001 1.713296e+002 -1.475915e+001 1.738217e+002 -5.118664e+000 1.603138e+002
25032906250 -8.685267e+000 1.297012e+002 -1.472671e+001 1.693258e+002 -1.479027e+001 1.717905e+002 -5.111514e+000 1.600676e+002
25051650000 -8.681271e+000 1.299184e+002 -1.476170e+001 1.672366e+002 -1.482847e+001 1.697581e+002 -5.099689e+000 1.598387e+002
25070393750 -8.679170e+000 1.301619e+002 -1.478957e+001 1.651677e+002 -1.486081e+001 1.676852e+002 -5.095357e+000 1.596523e+002
25089137500 -8.670794e+000 1.303424e+002 -1.483857e+001 1.631281e+002 -1.489424e+001 1.656253e+002 -5.083623e+000 1.594283e+002
25107881250 -8.650528e+000 1.305164e+002 -1.488058e+001 1.610711e+002 -1.494120e+001 1.635444e+002 -5.069085e+000 1.592464e+002
25126625000 -8.632593e+000 1.307193e+002 -1.491234e+001 1.590110e+002 -1.498344e+001 1.614702e+002 -5.057116e+000 1.590664e+002
25145368750 -8.616599e+000 1.308744e+002 -1.496095e+001 1.569568e+002 -1.502951e+001 1.593608e+002 -5.049134e+000 1.588932e+002
25164112500 -8.589585e+000 1.310510e+002 -1.500618e+001 1.548297e+002 -1.507753e+001 1.572848e+002 -5.038199e+000 1.587432e+002
25182856250 -8.570685e+000 1.312478e+002 -1.504434e+001 1.527809e+002 -1.511941e+001 1.551482e+002 -5.029951e+000 1.585651e+002
25201600000 -8.546394e+000 1.313637e+002 -1.509524e+001 1.506599e+002 -1.515463e+001 1.530797e+002 -5.014054e+000 1.583562e+002
25220343750 -8.511785e+000 1.314083e+002 -1.513992e+001 1.485301e+002 -1.520243e+001 1.509347e+002 -5.000131e+000 1.582211e+002
25239087500 -8.476760e+000 1.315692e+002 -1.519086e+001 1.464501e+002 -1.525494e+001 1.488038e+002 -4.984281e+000 1.580639e+002
25257831250 -8.436193e+000 1.316204e+002 -1.524682e+001 1.443400e+002 -1.530091e+001 1.466333e+002 -4.965123e+000 1.579205e+002
25276575000 -8.388505e+000 1.317344e+002 -1.529269e+001 1.422461e+002 -1.535999e+001 1.445253e+002 -4.944666e+000 1.578257e+002
25295318750 -8.354253e+000 1.318071e+002 -1.534856e+001 1.401285e+002 -1.541806e+001 1.423394e+002 -4.931340e+000 1.577072e+002
25314062500 -8.313047e+000 1.318151e+002 -1.540643e+001 1.379956e+002 -1.546649e+001 1.402438e+002 -4.913208e+000 1.575453e+002
25332806250 -8.261341e+000 1.318227e+002 -1.545729e+001 1.358912e+002 -1.553736e+001 1.381006e+002 -4.891157e+000 1.574346e+002
25351550000 -8.217209e+000 1.318385e+002 -1.551603e+001 1.337480e+002 -1.558746e+001 1.358781e+002 -4.877498e+000 1.573180e+002
25370293750 -8.172322e+000 1.317543e+002 -1.557994e+001 1.315907e+002 -1.564306e+001 1.337973e+002 -4.859411e+000 1.572396e+002
25389037500 -8.120045e+000 1.317302e+002 -1.563301e+001 1.294754e+002 -1.570341e+001 1.316126e+002 -4.840189e+000 1.571669e+002
25407781250 -8.071980e+000 1.317338e+002 -1.568748e+001 1.273208e+002 -1.576192e+001 1.294399e+002 -4.821624e+000 1.570887e+002
25426525000 -8.040166e+000 1.315604e+002 -1.574503e+001 1.251928e+002 -1.582825e+001 1.273040e+002 -4.804111e+000 1.569973e+002
25445268750 -7.980995e+000 1.314224e+002 -1.581115e+001 1.229877e+002 -1.589322e+001 1.251466e+002 -4.776256e+000 1.569124e+002
25464012500 -7.935659e+000 1.312913e+002 -1.587606e+001 1.208453e+002 -1.595654e+001 1.229862e+002 -4.754218e+000 1.568684e+002
25482756250 -7.879519e+000 1.311248e+002 -1.594532e+001 1.186984e+002 -1.602244e+001 1.207730e+002 -4.731948e+000 1.568172e+002
25501500000 -7.829298e+000 1.310208e+002 -1.601151e+001 1.165578e+002 -1.608752e+001 1.186221e+002 -4.700520e+000 1.567348e+002
25520243750 -7.787012e+000 1.308422e+002 -1.608330e+001 1.143498e+002 -1.615384e+001 1.165394e+002 -4.673361e+000 1.567204e+002
25538987500 -7.746138e+000 1.305650e+002 -1.615082e+001 1.121157e+002 -1.622472e+001 1.143458e+002 -4.649041e+000 1.566538e+002
25557731250 -7.694260e+000 1.303236e+002 -1.622230e+001 1.099889e+002 -1.628432e+001 1.122140e+002 -4.613943e+000 1.566049e+002
25576475000 -7.639415e+000 1.300983e+002 -1.629636e+001 1.078349e+002 -1.635500e+001 1.101215e+002 -4.583017e+000 1.566075e+002
25595218750 -7.591576e+000 1.298117e+002 -1.636655e+001 1.056843e+002 -1.643791e+001 1.079070e+002 -4.554401e+000 1.565406e+002
25613962500 -7.542147e+000 1.295885e+002 -1.644945e+001 1.035595e+002 -1.650326e+001 1.057505e+002 -4.522467e+000 1.564863e+002
25632706250 -7.500871e+000 1.293575e+002 -1.652589e+001 1.014459e+002 -1.659194e+001 1.036108e+002 -4.498305e+000 1.564448e+002
25651450000 -7.460431e+000 1.290934e+002 -1.660369e+001 9.928213e+001 -1.666973e+001 1.014384e+002 -4.467926e+000 1.563157e+002
25670193750 -7.412706e+000 1.287420e+002 -1.669189e+001 9.710199e+001 -1.673586e+001 9.932146e+001 -4.426352e+000 1.562775e+002
25688937500 -7.376917e+000 1.284564e+002 -1.676766e+001 9.490504e+001 -1.682270e+001 9.721957e+001 -4.393833e+000 1.562302e+002
25707681250 -7.334854e+000 1.281110e+002 -1.685606e+001 9.275754e+001 -1.689591e+001 9.501854e+001 -4.359528e+000 1.561156e+002
25726425000 -7.291028e+000 1.278550e+002 -1.694999e+001 9.062686e+001 -1.697099e+001 9.295799e+001 -4.320588e+000 1.560443e+002
25745168750 -7.267433e+000 1.275307e+002 -1.704601e+001 8.846241e+001 -1.707073e+001 9.076721e+001 -4.288776e+000 1.559785e+002
25763912500 -7.240664e+000 1.271250e+002 -1.714050e+001 8.622705e+001 -1.713766e+001 8.855592e+001 -4.254138e+000 1.558423e+002
25782656250 -7.208765e+000 1.267566e+002 -1.723128e+001 8.403804e+001 -1.723341e+001 8.655959e+001 -4.205777e+000 1.557664e+002
25801400000 -7.185467e+000 1.263844e+002 -1.731413e+001 8.189480e+001 -1.733460e+001 8.433950e+001 -4.171612e+000 1.556779e+002
25820143750 -7.165094e+000 1.260310e+002 -1.740802e+001 7.974021e+001 -1.742356e+001 8.222219e+001 -4.135059e+000 1.555196e+002
25838887500 -7.144779e+000 1.256316e+002 -1.750187e+001 7.763680e+001 -1.751756e+001 8.016265e+001 -4.094125e+000 1.554074e+002
25857631250 -7.115852e+000 1.252642e+002 -1.759975e+001 7.550220e+001 -1.760604e+001 7.801619e+001 -4.057068e+000 1.552570e+002
25876375000 -7.103469e+000 1.248583e+002 -1.768675e+001 7.346458e+001 -1.769230e+001 7.586992e+001 -4.016659e+000 1.550860e+002
25895118750 -7.087050e+000 1.244570e+002 -1.776986e+001 7.128437e+001 -1.777984e+001 7.385011e+001 -3.969885e+000 1.549431e+002
25913862500 -7.075215e+000 1.240539e+002 -1.786906e+001 6.916054e+001 -1.788138e+001 7.176273e+001 -3.930648e+000 1.548444e+002
25932606250 -7.062477e+000 1.236165e+002 -1.796869e+001 6.707284e+001 -1.797240e+001 6.960094e+001 -3.894638e+000 1.547269e+002
25951350000 -7.059900e+000 1.232612e+002 -1.806261e+001 6.494413e+001 -1.807965e+001 6.751645e+001 -3.861341e+000 1.545430e+002
25970093750 -7.052014e+000 1.228804e+002 -1.816684e+001 6.287348e+001 -1.817740e+001 6.539593e+001 -3.825912e+000 1.543733e+002
25988837500 -7.050014e+000 1.224898e+002 -1.826425e+001 6.073148e+001 -1.827439e+001 6.325009e+001 -3.792208e+000 1.541759e+002
26007581250 -7.054437e+000 1.220544e+002 -1.835647e+001 5.858161e+001 -1.838036e+001 6.109479e+001 -3.753679e+000 1.539698e+002
26026325000 -7.056280e+000 1.216856e+002 -1.845780e+001 5.644032e+001 -1.846318e+001 5.906338e+001 -3.717295e+000 1.538085e+002
26045068750 -7.058554e+000 1.213288e+002 -1.856080e+001 5.426340e+001 -1.857288e+001 5.693660e+001 -3.681270e+000 1.536526e+002
26063812500 -7.076110e+000 1.209499e+002 -1.865257e+001 5.212730e+001 -1.867361e+001 5.477687e+001 -3.645785e+000 1.534475e+002
26082556250 -7.086940e+000 1.205696e+002 -1.875406e+001 4.996793e+001 -1.877017e+001 5.267312e+001 -3.607823e+000 1.532919e+002
26101300000 -7.102896e+000 1.202085e+002 -1.885310e+001 4.785936e+001 -1.887666e+001 5.059500e+001 -3.577673e+000 1.530516e+002
26120043750 -7.111869e+000 1.198698e+002 -1.895363e+001 4.576577e+001 -1.897180e+001 4.850713e+001 -3.541238e+000 1.528356e+002
26138787500 -7.130027e+000 1.195482e+002 -1.906926e+001 4.361859e+001 -1.907904e+001 4.642739e+001 -3.508724e+000 1.526749e+002
26157531250 -7.152646e+000 1.192501e+002 -1.915910e+001 4.153175e+001 -1.919068e+001 4.421820e+001 -3.476770e+000 1.524673e+002
26176275000 -7.175673e+000 1.189538e+002 -1.925638e+001 3.946597e+001 -1.928240e+001 4.205906e+001 -3.440218e+000 1.522345e+002
26195018750 -7.201033e+000 1.186906e+002 -1.936028e+001 3.737710e+001 -1.938645e+001 3.989650e+001 -3.408677e+000 1.520331e+002
26213762500 -7.222064e+000 1.184068e+002 -1.946308e+001 3.524792e+001 -1.947747e+001 3.774157e+001 -3.383666e+000 1.517898e+002
26232506250 -7.249265e+000 1.181777e+002 -1.957976e+001 3.321385e+001 -1.959092e+001 3.565461e+001 -3.349128e+000 1.515709e+002
26251250000 -7.263019e+000 1.179878e+002 -1.968640e+001 3.117322e+001 -1.969461e+001 3.344977e+001 -3.318383e+000 1.513916e+002
26269993750 -7.294161e+000 1.178401e+002 -1.979602e+001 2.900452e+001 -1.979238e+001 3.129180e+001 -3.293489e+000 1.511384e+002
26288737500 -7.328171e+000 1.176660e+002 -1.990795e+001 2.688339e+001 -1.991784e+001 2.919268e+001 -3.261968e+000 1.509144e+002
26307481250 -7.352885e+000 1.175196e+002 -2.002789e+001 2.471378e+001 -2.003995e+001 2.707347e+001 -3.237107e+000 1.507059e+002
26326225000 -7.377523e+000 1.173742e+002 -2.014315e+001 2.257120e+001 -2.016468e+001 2.499993e+001 -3.210562e+000 1.504458e+002
26344968750 -7.399101e+000 1.172588e+002 -2.025337e+001 2.051893e+001 -2.026877e+001 2.288134e+001 -3.180030e+000 1.502101e+002
26363712500 -7.417785e+000 1.172546e+002 -2.036824e+001 1.839234e+001 -2.040039e+001 2.087810e+001 -3.159525e+000 1.499478e+002
26382456250 -7.445222e+000 1.172238e+002 -2.046473e+001 1.627712e+001 -2.050929e+001 1.873295e+001 -3.136057e+000 1.496651e+002
26401200000 -7.478672e+000 1.171756e+002 -2.056630e+001 1.422419e+001 -2.061434e+001 1.665107e+001 -3.106521e+000 1.493857e+002
26419943750 -7.505731e+000 1.171328e+002 -2.070584e+001 1.204001e+001 -2.074237e+001 1.458439e+001 -3.082917e+000 1.491210e+002
26438687500 -7.528250e+000 1.171330e+002 -2.082563e+001 9.918637e+000 -2.084317e+001 1.242150e+001 -3.057269e+000 1.488526e+002
26457431250 -7.543056e+000 1.171104e+002 -2.095307e+001 7.925082e+000 -2.097050e+001 1.021850e+001 -3.029921e+000 1.485909e+002
26476175000 -7.559147e+000 1.171695e+002 -2.106047e+001 5.818589e+000 -2.110033e+001 8.112675e+000 -3.014881e+000 1.483030e+002
26494918750 -7.580013e+000 1.172650e+002 -2.119733e+001 3.756419e+000 -2.122190e+001 6.003941e+000 -2.993729e+000 1.479819e+002
26513662500 -7.602581e+000 1.173301e+002 -2.134812e+001 1.661337e+000 -2.135701e+001 3.858750e+000 -2.972042e+000 1.476524e+002
26532406250 -7.617519e+000 1.174097e+002 -2.146962e+001 -4.425300e-001 -2.148206e+001 1.746808e+000 -2.950418e+000 1.473560e+002
26551150000 -7.631720e+000 1.174637e+002 -2.158589e+001 -2.510052e+000 -2.161535e+001 -3.156473e-001 -2.923865e+000 1.470441e+002
26569893750 -7.629612e+000 1.175427e+002 -2.172136e+001 -4.520227e+000 -2.173190e+001 -2.373798e+000 -2.902277e+000 1.467694e+002
26588637500 -7.626631e+000 1.177107e+002 -2.185087e+001 -6.639675e+000 -2.185656e+001 -4.356317e+000 -2.890729e+000 1.464933e+002
26607381250 -7.632888e+000 1.178713e+002 -2.198154e+001 -8.724854e+000 -2.199772e+001 -6.468533e+000 -2.876700e+000 1.461560e+002
26626125000 -7.631832e+000 1.180005e+002 -2.212844e+001 -1.080754e+001 -2.213475e+001 -8.427049e+000 -2.861211e+000 1.458325e+002
26644868750 -7.633523e+000 1.181197e+002 -2.225671e+001 -1.287833e+001 -2.227978e+001 -1.052570e+001 -2.841568e+000 1.454873e+002
26663612500 -7.620543e+000 1.182277e+002 -2.238461e+001 -1.486534e+001 -2.239745e+001 -1.257091e+001 -2.817575e+000 1.451320e+002
26682356250 -7.605018e+000 1.183639e+002 -2.253826e+001 -1.702476e+001 -2.254597e+001 -1.444760e+001 -2.797095e+000 1.448352e+002
26701100000 -7.580737e+000 1.185513e+002 -2.267045e+001 -1.906417e+001 -2.271873e+001 -1.647201e+001 -2.786148e+000 1.445255e+002
26719843750 -7.568041e+000 1.187478e+002 -2.281720e+001 -2.102838e+001 -2.284035e+001 -1.851488e+001 -2.770128e+000 1.441579e+002
26738587500 -7.554545e+000 1.189080e+002 -2.296079e+001 -2.311408e+001 -2.297743e+001 -2.051788e+001 -2.755237e+000 1.438025e+002
26757331250 -7.537814e+000 1.190552e+002 -2.311093e+001 -2.511222e+001 -2.312047e+001 -2.267077e+001 -2.738643e+000 1.434263e+002
26776075000 -7.511155e+000 1.191450e+002 -2.326402e+001 -2.708547e+001 -2.326437e+001 -2.463117e+001 -2.718173e+000 1.430789e+002
26794818750 -7.470615e+000 1.192560e+002 -2.341606e+001 -2.911246e+001 -2.342625e+001 -2.663230e+001 -2.698499e+000 1.427816e+002
26813562500 -7.432056e+000 1.194288e+002 -2.358156e+001 -3.102433e+001 -2.357554e+001 -2.850805e+001 -2.685746e+000 1.424402e+002
26832306250 -7.398108e+000 1.195829e+002 -2.374984e+001 -3.295565e+001 -2.373169e+001 -3.037849e+001 -2.671443e+000 1.420403e+002
26851050000 -7.358747e+000 1.197037e+002 -2.387856e+001 -3.477744e+001 -2.387814e+001 -3.234843e+001 -2.656289e+000 1.416576e+002
26869793750 -7.319732e+000 1.197896e+002 -2.404223e+001 -3.665226e+001 -2.404019e+001 -3.415604e+001 -2.638892e+000 1.412579e+002
26888537500 -7.274640e+000 1.198482e+002 -2.420849e+001 -3.862346e+001 -2.421395e+001 -3.590237e+001 -2.620848e+000 1.408970e+002
26907281250 -7.218862e+000 1.199457e+002 -2.438820e+001 -4.056026e+001 -2.437604e+001 -3.765719e+001 -2.601947e+000 1.405852e+002
26926025000 -7.162468e+000 1.200603e+002 -2.452728e+001 -4.248545e+001 -2.452575e+001 -3.954561e+001 -2.588414e+000 1.402131e+002
26944768750 -7.110262e+000 1.201578e+002 -2.468144e+001 -4.414134e+001 -2.464659e+001 -4.125894e+001 -2.572372e+000 1.398204e+002
26963512500 -7.058096e+000 1.202247e+002 -2.482914e+001 -4.594370e+001 -2.481976e+001 -4.302507e+001 -2.557792e+000 1.394256e+002
26982256250 -7.007779e+000 1.202544e+002 -2.499941e+001 -4.755427e+001 -2.497361e+001 -4.473170e+001 -2.542903e+000 1.390089e+002
27001000000 -6.953643e+000 1.202405e+002 -2.515906e+001 -4.933718e+001 -2.513344e+001 -4.656852e+001 -2.525190e+000 1.386440e+002
27019743750 -6.888423e+000 1.202468e+002 -2.531869e+001 -5.104745e+001 -2.530892e+001 -4.839278e+001 -2.511734e+000 1.382636e+002
27038487500 -6.823302e+000 1.202841e+002 -2.550278e+001 -5.265783e+001 -2.545181e+001 -5.012716e+001 -2.498514e+000 1.378899e+002
27057231250 -6.766181e+000 1.202498e+002 -2.562016e+001 -5.433757e+001 -2.563492e+001 -5.176692e+001 -2.480629e+000 1.374651e+002
27075975000 -6.706114e+000 1.202423e+002 -2.578657e+001 -5.592957e+001 -2.580198e+001 -5.333077e+001 -2.466173e+000 1.370633e+002
27094718750 -6.647257e+000 1.201463e+002 -2.595897e+001 -5.769372e+001 -2.597806e+001 -5.486742e+001 -2.449818e+000 1.366475e+002
27113462500 -6.584591e+000 1.199976e+002 -2.609559e+001 -5.932320e+001 -2.612515e+001 -5.656939e+001 -2.433241e+000 1.362459e+002
27132206250 -6.517983e+000 1.198853e+002 -2.624869e+001 -6.092756e+001 -2.627450e+001 -5.811953e+001 -2.420642e+000 1.358439e+002
27150950000 -6.447825e+000 1.197766e+002 -2.640889e+001 -6.239628e+001 -2.647290e+001 -5.966451e+001 -2.412843e+000 1.354305e+002
27169693750 -6.380515e+000 1.196357e+002 -2.655096e+001 -6.389359e+001 -2.663859e+001 -6.127391e+001 -2.397163e+000 1.349802e+002
27188437500 -6.316529e+000 1.194941e+002 -2.673187e+001 -6.558041e+001 -2.679302e+001 -6.284883e+001 -2.385505e+000 1.345741e+002
27207181250 -6.256137e+000 1.192993e+002 -2.688729e+001 -6.702042e+001 -2.694155e+001 -6.438552e+001 -2.366454e+000 1.341237e+002
27225925000 -6.195401e+000 1.190876e+002 -2.703001e+001 -6.849790e+001 -2.709531e+001 -6.597399e+001 -2.351429e+000 1.337064e+002
27244668750 -6.126800e+000 1.188787e+002 -2.717299e+001 -6.979073e+001 -2.723770e+001 -6.757527e+001 -2.339782e+000 1.332722e+002
27263412500 -6.064560e+000 1.186615e+002 -2.730861e+001 -7.133862e+001 -2.739425e+001 -6.904833e+001 -2.330879e+000 1.328947e+002
27282156250 -6.001677e+000 1.184422e+002 -2.746519e+001 -7.291357e+001 -2.755773e+001 -7.039735e+001 -2.318736e+000 1.324815e+002
27300900000 -5.944465e+000 1.182247e+002 -2.758111e+001 -7.451988e+001 -2.771312e+001 -7.212687e+001 -2.309242e+000 1.320291e+002
27319643750 -5.885824e+000 1.179217e+002 -2.772990e+001 -7.610944e+001 -2.786364e+001 -7.357790e+001 -2.292637e+000 1.315908e+002
27338387500 -5.825981e+000 1.175847e+002 -2.786384e+001 -7.743156e+001 -2.800985e+001 -7.506697e+001 -2.275855e+000 1.311773e+002
27357131250 -5.765569e+000 1.172852e+002 -2.804095e+001 -7.877004e+001 -2.814777e+001 -7.640718e+001 -2.264891e+000 1.307690e+002
27375875000 -5.712274e+000 1.169650e+002 -2.819446e+001 -8.038421e+001 -2.836275e+001 -7.795914e+001 -2.254287e+000 1.303326e+002
27394618750 -5.655923e+000 1.166454e+002 -2.832133e+001 -8.201154e+001 -2.847573e+001 -7.928873e+001 -2.240449e+000 1.299170e+002
27413362500 -5.603373e+000 1.163187e+002 -2.845129e+001 -8.356101e+001 -2.859706e+001 -8.090998e+001 -2.232704e+000 1.295195e+002
27432106250 -5.550423e+000 1.159712e+002 -2.857603e+001 -8.495773e+001 -2.873213e+001 -8.217221e+001 -2.216777e+000 1.290834e+002
27450850000 -5.499746e+000 1.155845e+002 -2.874183e+001 -8.632943e+001 -2.886089e+001 -8.353230e+001 -2.204716e+000 1.286697e+002
27469593750 -5.442957e+000 1.152071e+002 -2.885879e+001 -8.771387e+001 -2.900315e+001 -8.482915e+001 -2.202400e+000 1.282270e+002
27488337500 -5.388346e+000 1.148327e+002 -2.903339e+001 -8.915010e+001 -2.913621e+001 -8.629649e+001 -2.195977e+000 1.277753e+002
27507081250 -5.336329e+000 1.144736e+002 -2.918590e+001 -9.066727e+001 -2.927420e+001 -8.767296e+001 -2.188838e+000 1.273475e+002
27525825000 -5.290685e+000 1.141546e+002 -2.933664e+001 -9.195769e+001 -2.940492e+001 -8.896985e+001 -2.180438e+000 1.268987e+002
27544568750 -5.245631e+000 1.137768e+002 -2.950031e+001 -9.307520e+001 -2.953157e+001 -9.017727e+001 -2.166221e+000 1.264748e+002
27563312500 -5.194087e+000 1.133971e+002 -2.963542e+001 -9.434937e+001 -2.965651e+001 -9.160333e+001 -2.152175e+000 1.260818e+002
27582056250 -5.148294e+000 1.130182e+002 -2.979840e+001 -9.571143e+001 -2.973263e+001 -9.284364e+001 -2.140445e+000 1.256918e+002
27600800000 -5.106999e+000 1.126379e+002 -2.996300e+001 -9.692406e+001 -2.984670e+001 -9.387767e+001 -2.129402e+000 1.252898e+002
27619543750 -5.062624e+000 1.122309e+002 -3.004757e+001 -9.816076e+001 -2.999381e+001 -9.509649e+001 -2.118979e+000 1.248688e+002
27638287500 -5.019248e+000 1.118811e+002 -3.014394e+001 -9.931756e+001 -3.009369e+001 -9.639591e+001 -2.115922e+000 1.244379e+002
27657031250 -4.981665e+000 1.114413e+002 -3.026497e+001 -1.006723e+002 -3.024941e+001 -9.745694e+001 -2.101698e+000 1.240131e+002
27675775000 -4.942823e+000 1.109983e+002 -3.042080e+001 -1.021246e+002 -3.040806e+001 -9.888548e+001 -2.090331e+000 1.236580e+002
27694518750 -4.898610e+000 1.106143e+002 -3.054842e+001 -1.030988e+002 -3.051812e+001 -1.002921e+002 -2.081457e+000 1.232456e+002
27713262500 -4.862309e+000 1.101848e+002 -3.069648e+001 -1.042242e+002 -3.067416e+001 -1.017793e+002 -2.072988e+000 1.228348e+002
27732006250 -4.825478e+000 1.097740e+002 -3.084422e+001 -1.052393e+002 -3.076978e+001 -1.026873e+002 -2.062051e+000 1.224623e+002
27750750000 -4.792806e+000 1.093780e+002 -3.099976e+001 -1.059214e+002 -3.087030e+001 -1.040391e+002 -2.056950e+000 1.220430e+002
27769493750 -4.767069e+000 1.089197e+002 -3.111745e+001 -1.073463e+002 -3.096581e+001 -1.051133e+002 -2.047096e+000 1.216168e+002
27788237500 -4.728700e+000 1.084861e+002 -3.123421e+001 -1.085458e+002 -3.106770e+001 -1.062594e+002 -2.039981e+000 1.212479e+002
27806981250 -4.693419e+000 1.080568e+002 -3.132820e+001 -1.099852e+002 -3.112119e+001 -1.075740e+002 -2.037694e+000 1.208559e+002
27825725000 -4.660371e+000 1.076127e+002 -3.149756e+001 -1.107169e+002 -3.125483e+001 -1.089324e+002 -2.033479e+000 1.204637e+002
27844468750 -4.624270e+000 1.071884e+002 -3.160431e+001 -1.117377e+002 -3.140782e+001 -1.101048e+002 -2.025589e+000 1.200341e+002
27863212500 -4.599870e+000 1.067875e+002 -3.176827e+001 -1.128037e+002 -3.155717e+001 -1.112612e+002 -2.016534e+000 1.196083e+002
27881956250 -4.574001e+000 1.063198e+002 -3.186644e+001 -1.140622e+002 -3.170240e+001 -1.122192e+002 -2.004484e+000 1.192133e+002
27900700000 -4.546105e+000 1.058368e+002 -3.202090e+001 -1.151373e+002 -3.186767e+001 -1.134099e+002 -1.990328e+000 1.188819e+002
27919443750 -4.525743e+000 1.054236e+002 -3.213768e+001 -1.161143e+002 -3.199046e+001 -1.145503e+002 -1.985010e+000 1.185362e+002
27938187500 -4.501474e+000 1.049656e+002 -3.231038e+001 -1.174031e+002 -3.209941e+001 -1.155533e+002 -1.977291e+000 1.181472e+002
27956931250 -4.476017e+000 1.045296e+002 -3.241879e+001 -1.183697e+002 -3.219563e+001 -1.169789e+002 -1.973524e+000 1.177918e+002
27975675000 -4.455958e+000 1.040978e+002 -3.255669e+001 -1.194694e+002 -3.232702e+001 -1.181898e+002 -1.970150e+000 1.173975e+002
27994418750 -4.440034e+000 1.036146e+002 -3.269935e+001 -1.206427e+002 -3.245983e+001 -1.192028e+002 -1.960186e+000 1.170222e+002
28013162500 -4.416412e+000 1.031315e+002 -3.277993e+001 -1.218225e+002 -3.259155e+001 -1.206805e+002 -1.955609e+000 1.166804e+002
28031906250 -4.395999e+000 1.026717e+002 -3.286934e+001 -1.231743e+002 -3.269394e+001 -1.219563e+002 -1.951022e+000 1.163501e+002
28050650000 -4.374012e+000 1.021873e+002 -3.309734e+001 -1.242507e+002 -3.279084e+001 -1.227123e+002 -1.948604e+000 1.160047e+002
28069393750 -4.360704e+000 1.016889e+002 -3.323690e+001 -1.256815e+002 -3.294764e+001 -1.235682e+002 -1.944228e+000 1.156502e+002
28088137500 -4.345225e+000 1.012634e+002 -3.341185e+001 -1.266483e+002 -3.302304e+001 -1.248607e+002 -1.943835e+000 1.153065e+002
28106881250 -4.330944e+000 1.007991e+002 -3.348198e+001 -1.278120e+002 -3.308461e+001 -1.258579e+002 -1.935777e+000 1.149318e+002
28125625000 -4.315609e+000 1.003234e+002 -3.362640e+001 -1.291687e+002 -3.322474e+001 -1.268748e+002 -1.930529e+000 1.146109e+002
28144368750 -4.300452e+000 9.989677e+001 -3.379647e+001 -1.303232e+002 -3.331176e+001 -1.275736e+002 -1.926620e+000 1.142514e+002
28163112500 -4.285884e+000 9.945277e+001 -3.390426e+001 -1.315152e+002 -3.342682e+001 -1.287997e+002 -1.924899e+000 1.138975e+002
28181856250 -4.271929e+000 9.902389e+001 -3.395179e+001 -1.331978e+002 -3.357714e+001 -1.297543e+002 -1.921547e+000 1.135725e+002
28200600000 -4.256949e+000 9.864351e+001 -3.406629e+001 -1.341106e+002 -3.373149e+001 -1.312860e+002 -1.918933e+000 1.132567e+002
28219343750 -4.251076e+000 9.818889e+001 -3.415199e+001 -1.351313e+002 -3.386650e+001 -1.327090e+002 -1.911757e+000 1.129419e+002
28238087500 -4.237591e+000 9.774887e+001 -3.430726e+001 -1.359231e+002 -3.402719e+001 -1.338637e+002 -1.904556e+000 1.126586e+002
28256831250 -4.227467e+000 9.733748e+001 -3.438387e+001 -1.371968e+002 -3.412463e+001 -1.346687e+002 -1.901347e+000 1.123633e+002
28275575000 -4.219314e+000 9.692657e+001 -3.450321e+001 -1.386816e+002 -3.423348e+001 -1.357710e+002 -1.900217e+000 1.120524e+002
28294318750 -4.204862e+000 9.651183e+001 -3.461294e+001 -1.395614e+002 -3.435936e+001 -1.370859e+002 -1.901568e+000 1.117443e+002
28313062500 -4.199732e+000 9.612109e+001 -3.470209e+001 -1.405051e+002 -3.445457e+001 -1.380157e+002 -1.897687e+000 1.114136e+002
28331806250 -4.197279e+000 9.573447e+001 -3.479707e+001 -1.420076e+002 -3.451741e+001 -1.397449e+002 -1.891613e+000 1.110787e+002
28350550000 -4.186804e+000 9.531506e+001 -3.496511e+001 -1.430540e+002 -3.459807e+001 -1.409259e+002 -1.888339e+000 1.107954e+002
28369293750 -4.182775e+000 9.491477e+001 -3.502051e+001 -1.440485e+002 -3.475869e+001 -1.423994e+002 -1.890559e+000 1.104981e+002
28388037500 -4.172800e+000 9.447974e+001 -3.520095e+001 -1.454744e+002 -3.496762e+001 -1.431414e+002 -1.892815e+000 1.101841e+002
28406781250 -4.164185e+000 9.410085e+001 -3.528455e+001 -1.462686e+002 -3.507883e+001 -1.441439e+002 -1.898547e+000 1.098627e+002
28425525000 -4.156402e+000 9.374437e+001 -3.548605e+001 -1.471583e+002 -3.519178e+001 -1.448131e+002 -1.898178e+000 1.095190e+002
28444268750 -4.154608e+000 9.336428e+001 -3.561935e+001 -1.487232e+002 -3.530580e+001 -1.460946e+002 -1.895351e+000 1.091953e+002
28463012500 -4.151452e+000 9.298250e+001 -3.576821e+001 -1.495959e+002 -3.549475e+001 -1.469995e+002 -1.896286e+000 1.088965e+002
28481756250 -4.148423e+000 9.263409e+001 -3.578283e+001 -1.501314e+002 -3.567300e+001 -1.478748e+002 -1.896096e+000 1.085909e+002
28500500000 -4.140621e+000 9.228455e+001 -3.598186e+001 -1.515159e+002 -3.581792e+001 -1.493474e+002 -1.897232e+000 1.083194e+002
28519243750 -4.134285e+000 9.193067e+001 -3.609425e+001 -1.526548e+002 -3.590396e+001 -1.506424e+002 -1.896995e+000 1.080086e+002
28537987500 -4.129346e+000 9.158744e+001 -3.627591e+001 -1.533532e+002 -3.602155e+001 -1.517694e+002 -1.900662e+000 1.077064e+002
28556731250 -4.125646e+000 9.122475e+001 -3.644422e+001 -1.546170e+002 -3.619884e+001 -1.523304e+002 -1.897773e+000 1.074009e+002
28575475000 -4.113698e+000 9.083306e+001 -3.657771e+001 -1.553592e+002 -3.636443e+001 -1.530248e+002 -1.903352e+000 1.071009e+002
28594218750 -4.106855e+000 9.044614e+001 -3.681634e+001 -1.560479e+002 -3.658379e+001 -1.543562e+002 -1.907588e+000 1.068101e+002
28612962500 -4.099345e+000 9.005611e+001 -3.706554e+001 -1.573245e+002 -3.676193e+001 -1.550219e+002 -1.907079e+000 1.064810e+002
28631706250 -4.088842e+000 8.970033e+001 -3.727752e+001 -1.576831e+002 -3.688596e+001 -1.552637e+002 -1.909443e+000 1.061486e+002
28650450000 -4.082407e+000 8.935442e+001 -3.750776e+001 -1.585838e+002 -3.710064e+001 -1.560765e+002 -1.910103e+000 1.058217e+002
28669193750 -4.076461e+000 8.899699e+001 -3.762756e+001 -1.587592e+002 -3.721064e+001 -1.564464e+002 -1.908592e+000 1.055370e+002
28687937500 -4.067071e+000 8.863463e+001 -3.783769e+001 -1.595062e+002 -3.741974e+001 -1.571246e+002 -1.915035e+000 1.052304e+002
28706681250 -4.065129e+000 8.824087e+001 -3.810979e+001 -1.599373e+002 -3.761880e+001 -1.576431e+002 -1.920747e+000 1.049303e+002
28725425000 -4.060499e+000 8.786588e+001 -3.831958e+001 -1.607845e+002 -3.782136e+001 -1.579260e+002 -1.928184e+000 1.046043e+002
28744168750 -4.050698e+000 8.750983e+001 -3.855154e+001 -1.614240e+002 -3.802731e+001 -1.586648e+002 -1.933697e+000 1.043007e+002
28762912500 -4.046477e+000 8.714797e+001 -3.867871e+001 -1.614302e+002 -3.827700e+001 -1.580445e+002 -1.938276e+000 1.039813e+002
28781656250 -4.038426e+000 8.676133e+001 -3.887603e+001 -1.614976e+002 -3.856475e+001 -1.575464e+002 -1.939107e+000 1.036754e+002
28800400000 -4.029696e+000 8.637977e+001 -3.911435e+001 -1.616061e+002 -3.879743e+001 -1.577787e+002 -1.943687e+000 1.033834e+002
28819143750 -4.029296e+000 8.600066e+001 -3.918276e+001 -1.619239e+002 -3.896842e+001 -1.591230e+002 -1.947495e+000 1.030687e+002
28837887500 -4.022411e+000 8.559359e+001 -3.943560e+001 -1.628522e+002 -3.915977e+001 -1.594738e+002 -1.946596e+000 1.027821e+002
28856631250 -4.019465e+000 8.519144e+001 -3.955273e+001 -1.630056e+002 -3.926829e+001 -1.600581e+002 -1.957275e+000 1.024754e+002
28875375000 -4.017591e+000 8.481181e+001 -3.969435e+001 -1.626253e+002 -3.939869e+001 -1.593518e+002 -1.962912e+000 1.021558e+002
28894118750 -4.012268e+000 8.443588e+001 -3.980990e+001 -1.622997e+002 -3.942926e+001 -1.595953e+002 -1.972264e+000 1.018391e+002
28912862500 -4.008535e+000 8.406194e+001 -4.002410e+001 -1.634223e+002 -3.948374e+001 -1.601188e+002 -1.983255e+000 1.015108e+002
28931606250 -4.006464e+000 8.367822e+001 -4.015184e+001 -1.631879e+002 -3.965005e+001 -1.598266e+002 -1.991806e+000 1.011394e+002
28950350000 -4.002182e+000 8.327050e+001 -4.026315e+001 -1.630193e+002 -3.980701e+001 -1.591944e+002 -1.999278e+000 1.008076e+002
28969093750 -3.999498e+000 8.291117e+001 -4.038187e+001 -1.635197e+002 -3.997423e+001 -1.594631e+002 -2.003855e+000 1.004709e+002
28987837500 -4.000637e+000 8.252263e+001 -4.059085e+001 -1.628180e+002 -4.003320e+001 -1.595718e+002 -2.010070e+000 1.001655e+002
29006581250 -4.006989e+000 8.215379e+001 -4.059825e+001 -1.630039e+002 -4.000493e+001 -1.597967e+002 -2.019432e+000 9.989927e+001
29025325000 -4.008560e+000 8.178607e+001 -4.070837e+001 -1.624997e+002 -4.006008e+001 -1.589685e+002 -2.036870e+000 9.955423e+001
29044068750 -4.012377e+000 8.140728e+001 -4.061790e+001 -1.613447e+002 -4.007078e+001 -1.588715e+002 -2.051306e+000 9.922874e+001
29062812500 -4.014159e+000 8.100042e+001 -4.061843e+001 -1.621053e+002 -4.023575e+001 -1.593676e+002 -2.064876e+000 9.889388e+001
29081556250 -4.017213e+000 8.063419e+001 -4.064878e+001 -1.618291e+002 -4.021134e+001 -1.588795e+002 -2.078855e+000 9.853707e+001
29100300000 -4.022730e+000 8.026249e+001 -4.072305e+001 -1.618990e+002 -4.037518e+001 -1.583576e+002 -2.085824e+000 9.816442e+001
29119043750 -4.032932e+000 7.988834e+001 -4.071483e+001 -1.615911e+002 -4.047974e+001 -1.582617e+002 -2.096987e+000 9.781796e+001
29137787500 -4.034787e+000 7.952216e+001 -4.061740e+001 -1.607470e+002 -4.049554e+001 -1.578480e+002 -2.110159e+000 9.747011e+001
29156531250 -4.040784e+000 7.911728e+001 -4.051069e+001 -1.609253e+002 -4.041460e+001 -1.573658e+002 -2.117220e+000 9.712646e+001
29175275000 -4.040875e+000 7.871439e+001 -4.052565e+001 -1.608319e+002 -4.034094e+001 -1.579462e+002 -2.131877e+000 9.678301e+001
29194018750 -4.040164e+000 7.837164e+001 -4.059040e+001 -1.608727e+002 -4.023576e+001 -1.586018e+002 -2.146777e+000 9.643062e+001
29212762500 -4.048098e+000 7.802708e+001 -4.050894e+001 -1.613665e+002 -4.015948e+001 -1.600155e+002 -2.158069e+000 9.605431e+001
29231506250 -4.052340e+000 7.768018e+001 -4.041473e+001 -1.611124e+002 -4.003641e+001 -1.602927e+002 -2.173120e+000 9.573204e+001
29250250000 -4.058597e+000 7.734615e+001 -4.040560e+001 -1.612714e+002 -3.994641e+001 -1.595109e+002 -2.189657e+000 9.531910e+001
29268993750 -4.067824e+000 7.698141e+001 -4.027720e+001 -1.609884e+002 -3.989630e+001 -1.598104e+002 -2.203012e+000 9.491621e+001
29287737500 -4.067132e+000 7.664143e+001 -4.022950e+001 -1.615217e+002 -3.993393e+001 -1.601046e+002 -2.215120e+000 9.457504e+001
29306481250 -4.068697e+000 7.633208e+001 -4.028472e+001 -1.621622e+002 -3.996600e+001 -1.605818e+002 -2.226262e+000 9.420278e+001
29325225000 -4.073514e+000 7.600491e+001 -4.026706e+001 -1.630776e+002 -4.002957e+001 -1.607780e+002 -2.233119e+000 9.384631e+001
29343968750 -4.081513e+000 7.566597e+001 -4.025065e+001 -1.626263e+002 -3.995044e+001 -1.610185e+002 -2.249343e+000 9.350565e+001
29362712500 -4.089972e+000 7.533530e+001 -4.019904e+001 -1.631780e+002 -3.983418e+001 -1.613747e+002 -2.263059e+000 9.311712e+001
29381456250 -4.093734e+000 7.497368e+001 -4.017767e+001 -1.631667e+002 -3.980782e+001 -1.620567e+002 -2.276929e+000 9.272205e+001
29400200000 -4.094004e+000 7.463596e+001 -4.008985e+001 -1.626882e+002 -3.969967e+001 -1.618501e+002 -2.296355e+000 9.235738e+001
29418943750 -4.099733e+000 7.432650e+001 -3.991559e+001 -1.631084e+002 -3.956913e+001 -1.626822e+002 -2.308013e+000 9.193139e+001
29437687500 -4.103666e+000 7.400730e+001 -3.997364e+001 -1.631534e+002 -3.968890e+001 -1.634630e+002 -2.314834e+000 9.154681e+001
29456431250 -4.109282e+000 7.370374e+001 -3.981537e+001 -1.642298e+002 -3.957678e+001 -1.641039e+002 -2.330059e+000 9.118667e+001
29475175000 -4.118730e+000 7.337894e+001 -3.986813e+001 -1.654504e+002 -3.952792e+001 -1.651512e+002 -2.343928e+000 9.077972e+001
29493918750 -4.124959e+000 7.303416e+001 -3.982605e+001 -1.653727e+002 -3.952624e+001 -1.649624e+002 -2.354461e+000 9.040638e+001
29512662500 -4.122978e+000 7.272772e+001 -3.972128e+001 -1.664057e+002 -3.946389e+001 -1.654644e+002 -2.373449e+000 9.001871e+001
29531406250 -4.129656e+000 7.245432e+001 -3.969793e+001 -1.674230e+002 -3.936066e+001 -1.663202e+002 -2.388230e+000 8.961848e+001
29550150000 -4.132905e+000 7.215668e+001 -3.962501e+001 -1.684061e+002 -3.923458e+001 -1.677385e+002 -2.400757e+000 8.926090e+001
29568893750 -4.140578e+000 7.187859e+001 -3.957693e+001 -1.704482e+002 -3.913119e+001 -1.688548e+002 -2.419551e+000 8.887025e+001
29587637500 -4.145648e+000 7.157676e+001 -3.955377e+001 -1.708426e+002 -3.916447e+001 -1.703508e+002 -2.434290e+000 8.845010e+001
29606381250 -4.146681e+000 7.126649e+001 -3.943557e+001 -1.718814e+002 -3.918755e+001 -1.705574e+002 -2.446505e+000 8.805187e+001
29625125000 -4.149716e+000 7.097638e+001 -3.929245e+001 -1.730097e+002 -3.918231e+001 -1.715316e+002 -2.463151e+000 8.764075e+001
29643868750 -4.151622e+000 7.073038e+001 -3.922806e+001 -1.748531e+002 -3.911079e+001 -1.725397e+002 -2.475041e+000 8.724307e+001
29662612500 -4.158818e+000 7.045414e+001 -3.921568e+001 -1.767557e+002 -3.910447e+001 -1.736646e+002 -2.489520e+000 8.686285e+001
29681356250 -4.168457e+000 7.015757e+001 -3.917100e+001 -1.776114e+002 -3.898383e+001 -1.746115e+002 -2.512230e+000 8.648530e+001
29700100000 -4.175253e+000 6.983984e+001 -3.911905e+001 -1.791024e+002 -3.894803e+001 -1.757449e+002 -2.526505e+000 8.606610e+001
29718843750 -4.182754e+000 6.950929e+001 -3.903419e+001 1.798132e+002 -3.883812e+001 -1.770596e+002 -2.541744e+000 8.566617e+001
29737587500 -4.185132e+000 6.922943e+001 -3.892506e+001 1.785690e+002 -3.883601e+001 -1.787003e+002 -2.557465e+000 8.523193e+001
29756331250 -4.196054e+000 6.896056e+001 -3.892607e+001 1.774115e+002 -3.882446e+001 1.797561e+002 -2.569674e+000 8.484285e+001
29775075000 -4.202902e+000 6.869934e+001 -3.887057e+001 1.756066e+002 -3.887465e+001 1.777776e+002 -2.584212e+000 8.451897e+001
29793818750 -4.212803e+000 6.838648e+001 -3.880960e+001 1.742465e+002 -3.882944e+001 1.760042e+002 -2.601869e+000 8.419025e+001
29812562500 -4.230824e+000 6.810678e+001 -3.877123e+001 1.720833e+002 -3.875102e+001 1.743738e+002 -2.619081e+000 8.385386e+001
29831306250 -4.248204e+000 6.776893e+001 -3.878898e+001 1.698206e+002 -3.874878e+001 1.726588e+002 -2.633085e+000 8.351923e+001
29850050000 -4.255198e+000 6.747112e+001 -3.876451e+001 1.678341e+002 -3.876643e+001 1.712604e+002 -2.655351e+000 8.321205e+001
29868793750 -4.266220e+000 6.721392e+001 -3.868200e+001 1.658869e+002 -3.862633e+001 1.698314e+002 -2.672550e+000 8.288373e+001
29887537500 -4.275253e+000 6.695111e+001 -3.868695e+001 1.642767e+002 -3.861480e+001 1.681757e+002 -2.677926e+000 8.259723e+001
29906281250 -4.283091e+000 6.675093e+001 -3.867559e+001 1.629726e+002 -3.856539e+001 1.669700e+002 -2.691417e+000 8.235273e+001
29925025000 -4.298250e+000 6.654163e+001 -3.868747e+001 1.612610e+002 -3.836977e+001 1.650598e+002 -2.705101e+000 8.209230e+001
29943768750 -4.313047e+000 6.628384e+001 -3.871365e+001 1.600647e+002 -3.836626e+001 1.634610e+002 -2.711682e+000 8.187408e+001
29962512500 -4.317347e+000 6.604191e+001 -3.867307e+001 1.586502e+002 -3.827986e+001 1.617956e+002 -2.728740e+000 8.166635e+001
29981256250 -4.324887e+000 6.584363e+001 -3.872254e+001 1.573841e+002 -3.821661e+001 1.609431e+002 -2.737923e+000 8.143256e+001
30000000000 -4.330405e+000 6.566029e+001 -3.877267e+001 1.566296e+002 -3.819646e+001 1.597360e+002 -2.741018e+000 8.126260e+001
