!Agilent Technologies,E8364B,MY43040894,A.07.50.67
!Agilent E8364B: A.07.50.67
!Date: Wednesday, May 13, 2020 06:24:40
!Correction: S11(Full 2 Port(1,2)) 
!S21(Full 2 Port(1,2)) 
!S12(Full 2 Port(1,2)) 
!S22(Full 2 Port(1,2)) 
!S2P File: Measurements: S11, S21, S12, S22:
# Hz S  dB   R 50
10000000 -6.524896e-002 -2.132954e+000 -4.883062e+001 -6.390813e+001 -5.529307e+001 4.223958e+001 -5.530257e-002 -4.218554e+000
28743750 -6.520960e-002 -2.390450e+000 -4.923912e+001 -3.233360e+001 -5.569226e+001 4.765280e+001 -6.649049e-002 -4.839219e+000
47487500 -6.568618e-002 -2.678852e+000 -5.007631e+001 -8.039851e+000 -5.584853e+001 5.848404e+001 -7.813053e-002 -5.522833e+000
66231250 -6.570738e-002 -2.976783e+000 -5.072081e+001 2.036597e+001 -5.587673e+001 6.206696e+001 -9.011893e-002 -6.239682e+000
84975000 -6.657889e-002 -3.309873e+000 -5.120993e+001 4.732186e+001 -5.610788e+001 6.041835e+001 -1.033052e-001 -7.023442e+000
103718750 -6.781625e-002 -3.652480e+000 -5.201860e+001 7.008247e+001 -5.610516e+001 5.461838e+001 -1.154251e-001 -7.851216e+000
122462500 -7.089277e-002 -4.021943e+000 -5.256683e+001 9.735104e+001 -5.627399e+001 5.149277e+001 -1.264482e-001 -8.715689e+000
141206250 -7.293659e-002 -4.429603e+000 -5.301516e+001 1.246065e+002 -5.654690e+001 4.996776e+001 -1.389267e-001 -9.628027e+000
159950000 -7.499334e-002 -4.850119e+000 -5.355692e+001 1.534161e+002 -5.660239e+001 4.575712e+001 -1.507816e-001 -1.059572e+001
178693750 -7.594734e-002 -5.295918e+000 -5.413742e+001 -1.725830e+002 -5.696853e+001 3.670881e+001 -1.633306e-001 -1.160343e+001
197437500 -7.741667e-002 -5.762422e+000 -5.478515e+001 -1.421387e+002 -5.728383e+001 3.267415e+001 -1.768318e-001 -1.266861e+001
216181250 -8.168922e-002 -6.258639e+000 -5.533331e+001 -1.185673e+002 -5.739997e+001 3.268464e+001 -1.887727e-001 -1.376989e+001
234925000 -8.407228e-002 -6.779717e+000 -5.622460e+001 -9.352147e+001 -5.766027e+001 2.639579e+001 -2.008482e-001 -1.493373e+001
253668750 -8.671806e-002 -7.309117e+000 -5.637880e+001 -6.445497e+001 -5.764946e+001 2.723903e+001 -2.069072e-001 -1.607097e+001
272412500 -9.169588e-002 -7.829261e+000 -5.710358e+001 -4.225159e+001 -5.814646e+001 2.825118e+001 -2.153754e-001 -1.720032e+001
291156250 -9.370990e-002 -8.357951e+000 -5.759191e+001 -2.519108e+001 -5.872560e+001 3.019651e+001 -2.236358e-001 -1.833879e+001
309900000 -9.609617e-002 -8.898457e+000 -5.789059e+001 -8.449053e+000 -5.907302e+001 2.567942e+001 -2.296826e-001 -1.946879e+001
328643750 -9.970806e-002 -9.408858e+000 -5.811666e+001 5.914379e+000 -5.935460e+001 3.326049e+001 -2.346324e-001 -2.058035e+001
347387500 -1.022181e-001 -9.931711e+000 -5.847936e+001 1.139187e+001 -5.970054e+001 3.870738e+001 -2.393597e-001 -2.172135e+001
366131250 -1.047194e-001 -1.044827e+001 -5.910078e+001 1.370975e+001 -6.022615e+001 3.628086e+001 -2.459733e-001 -2.284421e+001
384875000 -1.076669e-001 -1.095885e+001 -5.946990e+001 1.329917e+001 -6.049124e+001 3.595820e+001 -2.543396e-001 -2.396098e+001
403618750 -1.110454e-001 -1.148594e+001 -5.958142e+001 1.982449e+001 -6.027237e+001 3.830861e+001 -2.629664e-001 -2.507763e+001
422362500 -1.114771e-001 -1.200601e+001 -6.011957e+001 2.056912e+001 -6.050390e+001 3.330632e+001 -2.691687e-001 -2.618386e+001
441106250 -1.150008e-001 -1.253119e+001 -6.078291e+001 1.662504e+001 -6.067262e+001 3.344875e+001 -2.772873e-001 -2.728632e+001
459850000 -1.185511e-001 -1.305310e+001 -6.117630e+001 1.295871e+001 -6.059724e+001 2.587051e+001 -2.847074e-001 -2.839804e+001
478593750 -1.215458e-001 -1.357845e+001 -6.090229e+001 1.664183e+001 -6.089399e+001 1.307543e+001 -2.917384e-001 -2.949034e+001
497337500 -1.252625e-001 -1.410395e+001 -6.093107e+001 1.639360e+001 -6.109301e+001 7.389466e+000 -2.992711e-001 -3.059722e+001
516081250 -1.276120e-001 -1.462063e+001 -6.133139e+001 1.457609e+001 -6.131521e+001 4.962160e+000 -3.086667e-001 -3.167857e+001
534825000 -1.300459e-001 -1.515618e+001 -6.133804e+001 1.935933e+001 -6.166537e+001 8.896336e+000 -3.191750e-001 -3.277523e+001
553568750 -1.307516e-001 -1.568625e+001 -6.137899e+001 1.991433e+001 -6.206623e+001 9.489381e+000 -3.318812e-001 -3.388730e+001
572312500 -1.322866e-001 -1.619196e+001 -6.176630e+001 1.859279e+001 -6.199532e+001 1.001939e+001 -3.430159e-001 -3.498861e+001
591056250 -1.337404e-001 -1.672319e+001 -6.182028e+001 1.701801e+001 -6.226801e+001 1.233690e+001 -3.561803e-001 -3.608359e+001
609800000 -1.360470e-001 -1.723945e+001 -6.192159e+001 1.417811e+001 -6.212111e+001 1.723731e+001 -3.679549e-001 -3.719303e+001
628543750 -1.378386e-001 -1.776413e+001 -6.235062e+001 1.838911e+001 -6.191483e+001 1.655061e+001 -3.792305e-001 -3.829564e+001
647287500 -1.372012e-001 -1.828689e+001 -6.252149e+001 3.688326e+001 -6.203196e+001 1.331452e+001 -3.940598e-001 -3.940545e+001
666031250 -1.379504e-001 -1.880103e+001 -6.233743e+001 5.471589e+001 -6.208450e+001 1.840612e+001 -4.100007e-001 -4.050942e+001
684775000 -1.414706e-001 -1.930884e+001 -6.258369e+001 7.000454e+001 -6.218960e+001 1.669194e+001 -4.275928e-001 -4.161388e+001
703518750 -1.413139e-001 -1.983571e+001 -6.266921e+001 8.095910e+001 -6.248764e+001 1.597614e+001 -4.441911e-001 -4.272721e+001
722262500 -1.445354e-001 -2.034763e+001 -6.303109e+001 9.696122e+001 -6.228290e+001 1.407117e+001 -4.592781e-001 -4.381151e+001
741006250 -1.457073e-001 -2.087118e+001 -6.279804e+001 1.070852e+002 -6.216902e+001 1.326844e+001 -4.748486e-001 -4.490374e+001
759750000 -1.471962e-001 -2.139586e+001 -6.281615e+001 1.167870e+002 -6.208862e+001 3.935478e+000 -4.921079e-001 -4.601234e+001
778493750 -1.493282e-001 -2.191656e+001 -6.223682e+001 1.321487e+002 -6.188562e+001 -1.582108e-001 -5.112641e-001 -4.710164e+001
797237500 -1.510416e-001 -2.244937e+001 -6.256103e+001 1.499724e+002 -6.215202e+001 -6.303108e-001 -5.298999e-001 -4.819652e+001
815981250 -1.534090e-001 -2.296433e+001 -6.264933e+001 1.650802e+002 -6.215327e+001 9.693112e-001 -5.472543e-001 -4.929691e+001
834725000 -1.534442e-001 -2.348030e+001 -6.293388e+001 1.799545e+002 -6.204719e+001 -2.653322e+000 -5.620922e-001 -5.037890e+001
853468750 -1.564405e-001 -2.400224e+001 -6.288666e+001 -1.665261e+002 -6.197567e+001 -1.572028e+000 -5.811539e-001 -5.146358e+001
872212500 -1.572307e-001 -2.451438e+001 -6.264288e+001 -1.505819e+002 -6.226516e+001 -4.913542e-001 -6.000689e-001 -5.256325e+001
890956250 -1.586004e-001 -2.503759e+001 -6.250629e+001 -1.339055e+002 -6.231081e+001 -3.947976e-001 -6.193355e-001 -5.365124e+001
909700000 -1.594274e-001 -2.555466e+001 -6.284593e+001 -1.174413e+002 -6.203244e+001 -1.987251e+000 -6.383269e-001 -5.473920e+001
928443750 -1.607641e-001 -2.608177e+001 -6.303310e+001 -1.040372e+002 -6.214980e+001 -1.251705e+000 -6.577765e-001 -5.581948e+001
947187500 -1.624543e-001 -2.660121e+001 -6.279797e+001 -8.735365e+001 -6.185525e+001 5.811082e-001 -6.745782e-001 -5.690673e+001
965931250 -1.633912e-001 -2.711236e+001 -6.298925e+001 -7.181761e+001 -6.195866e+001 -1.622553e+000 -6.933405e-001 -5.798237e+001
984675000 -1.639671e-001 -2.762425e+001 -6.291197e+001 -5.691647e+001 -6.222976e+001 -7.390431e-002 -7.113937e-001 -5.905086e+001
1003418750 -1.639111e-001 -2.814673e+001 -6.308659e+001 -3.688919e+001 -6.245418e+001 -6.635280e-001 -7.283847e-001 -6.013586e+001
1022162500 -1.642101e-001 -2.865282e+001 -6.313351e+001 -2.156037e+001 -6.223691e+001 -6.608787e-001 -7.458733e-001 -6.121206e+001
1040906250 -1.664120e-001 -2.917050e+001 -6.336449e+001 -7.963068e+000 -6.208915e+001 1.067698e+000 -7.653906e-001 -6.227980e+001
1059650000 -1.682745e-001 -2.967497e+001 -6.289553e+001 -2.890103e-002 -6.212026e+001 3.175432e+000 -7.837252e-001 -6.333599e+001
1078393750 -1.687463e-001 -3.018130e+001 -6.296548e+001 -2.020227e+000 -6.198383e+001 3.107536e+000 -8.028485e-001 -6.439301e+001
1097137500 -1.705833e-001 -3.069224e+001 -6.303001e+001 -3.472142e+000 -6.194498e+001 1.713001e+000 -8.198272e-001 -6.543394e+001
1115881250 -1.714872e-001 -3.121971e+001 -6.265470e+001 -4.475529e+000 -6.196855e+001 2.539428e+000 -8.352455e-001 -6.648881e+001
1134625000 -1.741481e-001 -3.173618e+001 -6.238967e+001 -1.736004e+000 -6.138613e+001 2.590189e+000 -8.504111e-001 -6.754868e+001
1153368750 -1.750324e-001 -3.225969e+001 -6.201468e+001 -2.565473e+000 -6.145823e+001 2.597905e+000 -8.663488e-001 -6.861168e+001
1172112500 -1.784399e-001 -3.275817e+001 -6.230182e+001 -2.885395e-001 -6.160619e+001 1.354315e+000 -8.853424e-001 -6.966198e+001
1190856250 -1.810337e-001 -3.326819e+001 -6.205182e+001 5.905917e-001 -6.144160e+001 2.584488e+000 -9.019828e-001 -7.071750e+001
1209600000 -1.809075e-001 -3.376352e+001 -6.214107e+001 -1.238281e+000 -6.150391e+001 3.734581e+000 -9.184173e-001 -7.176286e+001
1228343750 -1.811579e-001 -3.426925e+001 -6.152989e+001 -3.468038e+000 -6.110778e+001 2.176637e+000 -9.323021e-001 -7.279871e+001
1247087500 -1.829232e-001 -3.477983e+001 -6.140527e+001 -3.292989e+000 -6.081008e+001 5.072168e+000 -9.461561e-001 -7.383233e+001
1265831250 -1.848161e-001 -3.529487e+001 -6.119555e+001 -4.709366e+000 -6.067970e+001 5.052540e+000 -9.598187e-001 -7.487432e+001
1284575000 -1.852913e-001 -3.579462e+001 -6.118151e+001 -3.934268e+000 -6.059890e+001 4.882717e+000 -9.736125e-001 -7.591819e+001
1303318750 -1.865857e-001 -3.629982e+001 -6.079432e+001 -6.456256e+000 -6.033039e+001 1.846977e+000 -9.877765e-001 -7.695439e+001
1322062500 -1.878428e-001 -3.679652e+001 -6.144835e+001 -8.565129e+000 -6.021018e+001 1.829575e+000 -9.992228e-001 -7.798143e+001
1340806250 -1.886613e-001 -3.728345e+001 -6.120059e+001 -1.011264e+001 -6.021340e+001 2.326656e+000 -1.013383e+000 -7.900008e+001
1359550000 -1.897300e-001 -3.776907e+001 -6.099671e+001 -8.021810e+000 -6.009391e+001 1.406567e+000 -1.025529e+000 -8.001241e+001
1378293750 -1.902853e-001 -3.827581e+001 -6.111620e+001 -8.075484e+000 -6.005227e+001 2.098949e+000 -1.036592e+000 -8.102487e+001
1397037500 -1.912578e-001 -3.878239e+001 -6.081674e+001 -8.768832e+000 -5.966468e+001 5.039478e+000 -1.046430e+000 -8.205511e+001
1415781250 -1.928542e-001 -3.928727e+001 -6.086441e+001 -8.505430e+000 -5.940053e+001 1.554159e+000 -1.056369e+000 -8.307937e+001
1434525000 -1.953332e-001 -3.978868e+001 -6.043313e+001 -1.220394e+001 -5.899283e+001 -3.834356e-001 -1.069685e+000 -8.409586e+001
1453268750 -1.976827e-001 -4.028040e+001 -6.040921e+001 -1.272647e+001 -5.903890e+001 -1.887544e+000 -1.081467e+000 -8.509112e+001
1472012500 -1.966659e-001 -4.078105e+001 -6.010791e+001 -1.578457e+001 -5.906498e+001 -2.978966e+000 -1.090623e+000 -8.607487e+001
1490756250 -1.980501e-001 -4.128860e+001 -6.009000e+001 -1.457273e+001 -5.911644e+001 -3.917997e+000 -1.101889e+000 -8.707552e+001
1509500000 -2.002303e-001 -4.178976e+001 -5.985171e+001 -1.248286e+001 -5.904779e+001 -6.614813e+000 -1.110962e+000 -8.808195e+001
1528243750 -2.027203e-001 -4.230281e+001 -5.966825e+001 -1.117332e+001 -5.894379e+001 -6.465725e+000 -1.120234e+000 -8.910266e+001
1546987500 -2.032626e-001 -4.279832e+001 -5.985643e+001 -1.136681e+001 -5.885499e+001 -6.634946e+000 -1.131795e+000 -9.010683e+001
1565731250 -2.051549e-001 -4.330429e+001 -5.968084e+001 -1.221282e+001 -5.911413e+001 -5.752512e+000 -1.142946e+000 -9.110214e+001
1584475000 -2.051598e-001 -4.381412e+001 -5.977812e+001 -1.091748e+001 -5.921841e+001 -5.964358e+000 -1.153533e+000 -9.207397e+001
1603218750 -2.051248e-001 -4.431940e+001 -5.952515e+001 -1.525240e+001 -5.900681e+001 -6.538305e+000 -1.161140e+000 -9.304395e+001
1621962500 -2.057588e-001 -4.483892e+001 -5.949184e+001 -1.457619e+001 -5.889597e+001 -7.421526e+000 -1.169820e+000 -9.400904e+001
1640706250 -2.074514e-001 -4.536973e+001 -5.943099e+001 -1.581564e+001 -5.888783e+001 -8.112855e+000 -1.178496e+000 -9.499197e+001
1659450000 -2.100454e-001 -4.588015e+001 -5.952737e+001 -1.566155e+001 -5.872760e+001 -8.332042e+000 -1.189949e+000 -9.598667e+001
1678193750 -2.091274e-001 -4.639442e+001 -5.954612e+001 -1.736506e+001 -5.866328e+001 -1.024770e+001 -1.202714e+000 -9.697243e+001
1696937500 -2.103433e-001 -4.689302e+001 -5.947168e+001 -1.600228e+001 -5.873659e+001 -1.251001e+001 -1.215018e+000 -9.792882e+001
1715681250 -2.107500e-001 -4.740674e+001 -5.929373e+001 -1.713145e+001 -5.864465e+001 -1.216455e+001 -1.224762e+000 -9.887864e+001
1734425000 -2.127666e-001 -4.792533e+001 -5.945324e+001 -1.857921e+001 -5.871409e+001 -8.821226e+000 -1.236404e+000 -9.982941e+001
1753168750 -2.152321e-001 -4.845061e+001 -5.850061e+001 -1.781508e+001 -5.880807e+001 -9.389756e+000 -1.250144e+000 -1.008010e+002
1771912500 -2.176038e-001 -4.897687e+001 -5.856543e+001 -1.723290e+001 -5.899476e+001 -1.020519e+001 -1.261441e+000 -1.017822e+002
1790656250 -2.188965e-001 -4.950184e+001 -5.836285e+001 -1.975546e+001 -5.876360e+001 -1.231091e+001 -1.274317e+000 -1.027659e+002
1809400000 -2.197440e-001 -4.999302e+001 -5.818279e+001 -1.952241e+001 -5.886054e+001 -1.436373e+001 -1.289697e+000 -1.037363e+002
1828143750 -2.212975e-001 -5.048375e+001 -5.802822e+001 -1.989393e+001 -5.900502e+001 -1.437343e+001 -1.304189e+000 -1.046756e+002
1846887500 -2.226440e-001 -5.097909e+001 -5.806569e+001 -2.301028e+001 -5.858575e+001 -8.886358e+000 -1.319163e+000 -1.056155e+002
1865631250 -2.230281e-001 -5.150576e+001 -5.798426e+001 -2.482775e+001 -5.892920e+001 -8.721072e+000 -1.330565e+000 -1.065587e+002
1884375000 -2.220737e-001 -5.203186e+001 -5.827336e+001 -2.441130e+001 -5.877312e+001 -9.942652e+000 -1.343525e+000 -1.075182e+002
1903118750 -2.246297e-001 -5.254320e+001 -5.825571e+001 -2.388893e+001 -5.903786e+001 -1.174420e+001 -1.358337e+000 -1.084918e+002
1921862500 -2.254768e-001 -5.303138e+001 -5.820491e+001 -2.622077e+001 -5.878674e+001 -1.227904e+001 -1.373485e+000 -1.094545e+002
1940606250 -2.267572e-001 -5.353500e+001 -5.825232e+001 -2.802284e+001 -5.899951e+001 -1.138750e+001 -1.389073e+000 -1.104030e+002
1959350000 -2.269268e-001 -5.402587e+001 -5.822494e+001 -3.060437e+001 -5.910453e+001 -1.113838e+001 -1.406321e+000 -1.113408e+002
1978093750 -2.288502e-001 -5.452424e+001 -5.818348e+001 -3.188658e+001 -5.881663e+001 -1.388885e+001 -1.420780e+000 -1.122754e+002
1996837500 -2.297465e-001 -5.502042e+001 -5.834882e+001 -3.014844e+001 -5.842596e+001 -1.611418e+001 -1.436355e+000 -1.132155e+002
2015581250 -2.325050e-001 -5.551061e+001 -5.816236e+001 -3.110579e+001 -5.817760e+001 -1.609435e+001 -1.454107e+000 -1.141702e+002
2034325000 -2.330254e-001 -5.600549e+001 -5.794765e+001 -2.982392e+001 -5.865904e+001 -1.857892e+001 -1.473173e+000 -1.151344e+002
2053068750 -2.335970e-001 -5.647944e+001 -5.789445e+001 -3.005717e+001 -5.898115e+001 -1.903838e+001 -1.492714e+000 -1.160891e+002
2071812500 -2.342248e-001 -5.696324e+001 -5.784025e+001 -2.897012e+001 -5.890350e+001 -2.149104e+001 -1.511594e+000 -1.170170e+002
2090556250 -2.353604e-001 -5.744585e+001 -5.756291e+001 -3.103733e+001 -5.903817e+001 -2.043199e+001 -1.529712e+000 -1.179395e+002
2109300000 -2.396249e-001 -5.794054e+001 -5.794524e+001 -3.061061e+001 -5.920406e+001 -2.127531e+001 -1.546124e+000 -1.188768e+002
2128043750 -2.432671e-001 -5.844319e+001 -5.783124e+001 -3.268403e+001 -5.942671e+001 -2.306800e+001 -1.561366e+000 -1.198269e+002
2146787500 -2.447255e-001 -5.893098e+001 -5.779613e+001 -3.353899e+001 -5.925920e+001 -2.319957e+001 -1.580211e+000 -1.207727e+002
2165531250 -2.443136e-001 -5.941780e+001 -5.759400e+001 -3.219576e+001 -5.908367e+001 -2.686986e+001 -1.597019e+000 -1.217075e+002
2184275000 -2.445215e-001 -5.991151e+001 -5.776937e+001 -3.407885e+001 -5.866599e+001 -2.893819e+001 -1.613451e+000 -1.226360e+002
2203018750 -2.447028e-001 -6.039706e+001 -5.759570e+001 -3.576656e+001 -5.821035e+001 -2.989612e+001 -1.633020e+000 -1.235499e+002
2221762500 -2.452850e-001 -6.089388e+001 -5.774338e+001 -3.505236e+001 -5.813237e+001 -3.018404e+001 -1.648026e+000 -1.244641e+002
2240506250 -2.474692e-001 -6.139616e+001 -5.754183e+001 -3.602884e+001 -5.799904e+001 -3.146091e+001 -1.662850e+000 -1.253811e+002
2259250000 -2.486202e-001 -6.191718e+001 -5.769332e+001 -3.682949e+001 -5.779899e+001 -3.494722e+001 -1.678998e+000 -1.263110e+002
2277993750 -2.486926e-001 -6.241533e+001 -5.780369e+001 -3.536545e+001 -5.787470e+001 -4.062856e+001 -1.695092e+000 -1.272363e+002
2296737500 -2.529416e-001 -6.288507e+001 -5.790565e+001 -3.447363e+001 -5.753337e+001 -4.101070e+001 -1.713363e+000 -1.281504e+002
2315481250 -2.575591e-001 -6.338164e+001 -5.752558e+001 -3.538955e+001 -5.769835e+001 -3.917382e+001 -1.730062e+000 -1.290786e+002
2334225000 -2.585301e-001 -6.387354e+001 -5.752787e+001 -3.713624e+001 -5.740250e+001 -3.771182e+001 -1.748374e+000 -1.299884e+002
2352968750 -2.605949e-001 -6.438486e+001 -5.761051e+001 -3.838773e+001 -5.742686e+001 -3.812674e+001 -1.764050e+000 -1.308929e+002
2371712500 -2.617283e-001 -6.488815e+001 -5.750497e+001 -3.820174e+001 -5.745167e+001 -4.019438e+001 -1.777818e+000 -1.318033e+002
2390456250 -2.623093e-001 -6.539310e+001 -5.738409e+001 -3.743923e+001 -5.727635e+001 -4.279221e+001 -1.792450e+000 -1.327104e+002
2409200000 -2.643005e-001 -6.587874e+001 -5.723888e+001 -3.569950e+001 -5.741166e+001 -4.108629e+001 -1.808999e+000 -1.336269e+002
2427943750 -2.676454e-001 -6.638126e+001 -5.720690e+001 -3.806667e+001 -5.740569e+001 -4.184657e+001 -1.824749e+000 -1.345427e+002
2446687500 -2.707778e-001 -6.687517e+001 -5.714460e+001 -3.907427e+001 -5.736232e+001 -4.325708e+001 -1.839860e+000 -1.354455e+002
2465431250 -2.744141e-001 -6.735937e+001 -5.703692e+001 -4.025031e+001 -5.704975e+001 -4.236586e+001 -1.852380e+000 -1.363378e+002
2484175000 -2.785710e-001 -6.785288e+001 -5.711539e+001 -3.980666e+001 -5.675641e+001 -4.511284e+001 -1.866061e+000 -1.372306e+002
2502918750 -2.820077e-001 -6.836143e+001 -5.737464e+001 -3.978853e+001 -5.691976e+001 -4.174151e+001 -1.880374e+000 -1.381293e+002
2521662500 -2.846154e-001 -6.886723e+001 -5.763643e+001 -3.783288e+001 -5.695435e+001 -4.579834e+001 -1.892774e+000 -1.390326e+002
2540406250 -2.862960e-001 -6.937138e+001 -5.727973e+001 -3.839126e+001 -5.675472e+001 -4.644085e+001 -1.907542e+000 -1.399297e+002
2559150000 -2.874561e-001 -6.985797e+001 -5.721082e+001 -4.008432e+001 -5.664307e+001 -4.474434e+001 -1.923048e+000 -1.408287e+002
2577893750 -2.902034e-001 -7.033073e+001 -5.709031e+001 -3.977842e+001 -5.672564e+001 -4.633801e+001 -1.937130e+000 -1.417188e+002
2596637500 -2.944217e-001 -7.081958e+001 -5.718038e+001 -4.163628e+001 -5.680950e+001 -4.614352e+001 -1.949633e+000 -1.426055e+002
2615381250 -2.958351e-001 -7.130118e+001 -5.726879e+001 -4.191149e+001 -5.708568e+001 -4.639790e+001 -1.964367e+000 -1.434756e+002
2634125000 -2.970851e-001 -7.178629e+001 -5.738656e+001 -4.399122e+001 -5.716351e+001 -4.631532e+001 -1.977030e+000 -1.443665e+002
2652868750 -3.000698e-001 -7.226778e+001 -5.735402e+001 -4.430395e+001 -5.725900e+001 -4.652129e+001 -1.993611e+000 -1.452652e+002
2671612500 -3.044387e-001 -7.275146e+001 -5.749417e+001 -4.703119e+001 -5.725315e+001 -4.623964e+001 -2.010068e+000 -1.461617e+002
2690356250 -3.076853e-001 -7.321363e+001 -5.726590e+001 -4.778516e+001 -5.724089e+001 -4.642854e+001 -2.022811e+000 -1.470515e+002
2709100000 -3.137440e-001 -7.369172e+001 -5.713449e+001 -4.943466e+001 -5.734001e+001 -4.658363e+001 -2.036062e+000 -1.479370e+002
2727843750 -3.144499e-001 -7.418356e+001 -5.710184e+001 -4.947942e+001 -5.735302e+001 -4.802056e+001 -2.049385e+000 -1.488114e+002
2746587500 -3.168357e-001 -7.466021e+001 -5.719888e+001 -4.858567e+001 -5.720794e+001 -5.030155e+001 -2.062397e+000 -1.496844e+002
2765331250 -3.202539e-001 -7.514202e+001 -5.703870e+001 -4.759729e+001 -5.736148e+001 -5.013008e+001 -2.074502e+000 -1.505599e+002
2784075000 -3.233726e-001 -7.562412e+001 -5.697610e+001 -4.779198e+001 -5.770572e+001 -5.204536e+001 -2.089274e+000 -1.514616e+002
2802818750 -3.268966e-001 -7.607783e+001 -5.695191e+001 -4.776024e+001 -5.745910e+001 -5.020160e+001 -2.104205e+000 -1.523325e+002
2821562500 -3.289517e-001 -7.655563e+001 -5.710844e+001 -4.878303e+001 -5.747997e+001 -4.993383e+001 -2.118487e+000 -1.531951e+002
2840306250 -3.319244e-001 -7.705365e+001 -5.698673e+001 -5.079904e+001 -5.748817e+001 -5.144979e+001 -2.130036e+000 -1.540558e+002
2859050000 -3.311142e-001 -7.752624e+001 -5.697116e+001 -4.951612e+001 -5.758892e+001 -5.074612e+001 -2.143467e+000 -1.549126e+002
2877793750 -3.255087e-001 -7.803902e+001 -5.704012e+001 -5.083867e+001 -5.748270e+001 -5.055253e+001 -2.151054e+000 -1.557817e+002
2896537500 -3.260514e-001 -7.849944e+001 -5.721935e+001 -5.046211e+001 -5.706141e+001 -5.129385e+001 -2.167512e+000 -1.566318e+002
2915281250 -3.331100e-001 -7.901408e+001 -5.721817e+001 -5.289861e+001 -5.699835e+001 -5.125446e+001 -2.183890e+000 -1.575261e+002
2934025000 -3.309272e-001 -7.951752e+001 -5.697273e+001 -5.274670e+001 -5.668381e+001 -5.322473e+001 -2.189948e+000 -1.583880e+002
2952768750 -3.311513e-001 -7.994140e+001 -5.675543e+001 -5.503401e+001 -5.658530e+001 -5.297327e+001 -2.206537e+000 -1.592389e+002
2971512500 -3.383512e-001 -8.044717e+001 -5.663159e+001 -5.604000e+001 -5.659412e+001 -5.487548e+001 -2.222640e+000 -1.601303e+002
2990256250 -3.343411e-001 -8.096322e+001 -5.682065e+001 -5.527242e+001 -5.634349e+001 -5.622760e+001 -2.231559e+000 -1.609678e+002
3009000000 -3.375044e-001 -8.141047e+001 -5.686200e+001 -5.491437e+001 -5.622190e+001 -5.598568e+001 -2.249077e+000 -1.618159e+002
3027743750 -3.422938e-001 -8.190903e+001 -5.677897e+001 -5.456452e+001 -5.624533e+001 -5.809764e+001 -2.267377e+000 -1.627203e+002
3046487500 -3.392840e-001 -8.239721e+001 -5.655887e+001 -5.635602e+001 -5.629951e+001 -5.788533e+001 -2.276140e+000 -1.635658e+002
3065231250 -3.425149e-001 -8.284039e+001 -5.643609e+001 -5.552348e+001 -5.630096e+001 -5.978572e+001 -2.290941e+000 -1.644211e+002
3083975000 -3.485475e-001 -8.334383e+001 -5.623709e+001 -5.655070e+001 -5.622547e+001 -6.029177e+001 -2.305883e+000 -1.653039e+002
3102718750 -3.459495e-001 -8.384747e+001 -5.625776e+001 -5.452620e+001 -5.613350e+001 -6.223241e+001 -2.313244e+000 -1.661255e+002
3121462500 -3.499898e-001 -8.430632e+001 -5.620346e+001 -5.457517e+001 -5.609524e+001 -6.411695e+001 -2.332594e+000 -1.669752e+002
3140206250 -3.525223e-001 -8.480023e+001 -5.595198e+001 -5.415291e+001 -5.576782e+001 -6.472861e+001 -2.346248e+000 -1.678572e+002
3158950000 -3.523493e-001 -8.530231e+001 -5.579781e+001 -5.519497e+001 -5.583894e+001 -6.501134e+001 -2.357527e+000 -1.686853e+002
3177693750 -3.563789e-001 -8.575804e+001 -5.556379e+001 -5.827873e+001 -5.576210e+001 -6.571420e+001 -2.377239e+000 -1.695437e+002
3196437500 -3.578698e-001 -8.624861e+001 -5.557795e+001 -5.991547e+001 -5.563097e+001 -6.763023e+001 -2.389858e+000 -1.704357e+002
3215181250 -3.607694e-001 -8.673105e+001 -5.549039e+001 -5.954427e+001 -5.550483e+001 -6.641450e+001 -2.402244e+000 -1.712236e+002
3233925000 -3.630555e-001 -8.721643e+001 -5.551585e+001 -5.992268e+001 -5.564334e+001 -6.655227e+001 -2.420485e+000 -1.720936e+002
3252668750 -3.646425e-001 -8.769287e+001 -5.533400e+001 -5.957562e+001 -5.576513e+001 -6.773081e+001 -2.431022e+000 -1.729828e+002
3271412500 -3.689627e-001 -8.815712e+001 -5.529620e+001 -5.970947e+001 -5.580285e+001 -6.816515e+001 -2.443914e+000 -1.737991e+002
3290156250 -3.738829e-001 -8.863803e+001 -5.541211e+001 -6.276964e+001 -5.573064e+001 -6.954201e+001 -2.459884e+000 -1.746792e+002
3308900000 -3.767695e-001 -8.908853e+001 -5.531682e+001 -6.311069e+001 -5.569939e+001 -7.066496e+001 -2.473324e+000 -1.755476e+002
3327643750 -3.810292e-001 -8.957267e+001 -5.512629e+001 -6.410216e+001 -5.586108e+001 -7.050116e+001 -2.481853e+000 -1.763906e+002
3346387500 -3.803045e-001 -9.001492e+001 -5.506413e+001 -6.362978e+001 -5.581540e+001 -7.157151e+001 -2.494454e+000 -1.772337e+002
3365131250 -3.843918e-001 -9.046834e+001 -5.526226e+001 -6.462866e+001 -5.580769e+001 -7.333702e+001 -2.508840e+000 -1.781021e+002
3383875000 -3.890791e-001 -9.094810e+001 -5.527729e+001 -6.459503e+001 -5.578526e+001 -7.317757e+001 -2.521146e+000 -1.789230e+002
3402618750 -3.882084e-001 -9.139195e+001 -5.544920e+001 -6.349534e+001 -5.614266e+001 -7.361401e+001 -2.533363e+000 -1.797716e+002
3421362500 -3.940229e-001 -9.184666e+001 -5.559045e+001 -6.347748e+001 -5.609205e+001 -7.187521e+001 -2.547709e+000 1.793686e+002
3440106250 -3.983281e-001 -9.231537e+001 -5.551788e+001 -6.392085e+001 -5.608889e+001 -7.344766e+001 -2.557276e+000 1.785309e+002
3458850000 -4.011596e-001 -9.277997e+001 -5.546193e+001 -6.489977e+001 -5.612213e+001 -7.112005e+001 -2.568018e+000 1.776894e+002
3477593750 -4.076566e-001 -9.327458e+001 -5.549639e+001 -6.465196e+001 -5.592686e+001 -7.259129e+001 -2.579063e+000 1.768331e+002
3496337500 -4.132133e-001 -9.373182e+001 -5.534998e+001 -6.585860e+001 -5.596910e+001 -7.231182e+001 -2.590106e+000 1.760041e+002
3515081250 -4.165238e-001 -9.421671e+001 -5.551574e+001 -6.731362e+001 -5.588791e+001 -7.354614e+001 -2.600244e+000 1.751612e+002
3533825000 -4.192494e-001 -9.468404e+001 -5.563147e+001 -6.871572e+001 -5.596410e+001 -7.256357e+001 -2.610475e+000 1.743230e+002
3552568750 -4.190810e-001 -9.514274e+001 -5.567631e+001 -6.865945e+001 -5.616605e+001 -7.230262e+001 -2.621570e+000 1.734785e+002
3571312500 -4.264086e-001 -9.564561e+001 -5.585490e+001 -6.922799e+001 -5.615958e+001 -7.267510e+001 -2.634548e+000 1.726327e+002
3590056250 -4.325857e-001 -9.608394e+001 -5.585035e+001 -7.035072e+001 -5.614901e+001 -7.296121e+001 -2.647843e+000 1.717561e+002
3608800000 -4.352323e-001 -9.656471e+001 -5.598877e+001 -7.136357e+001 -5.611445e+001 -7.270995e+001 -2.653247e+000 1.709228e+002
3627543750 -4.391523e-001 -9.701446e+001 -5.600676e+001 -7.190592e+001 -5.604597e+001 -7.429633e+001 -2.664984e+000 1.701169e+002
3646287500 -4.413401e-001 -9.747013e+001 -5.601394e+001 -7.362666e+001 -5.582222e+001 -7.544073e+001 -2.674880e+000 1.692444e+002
3665031250 -4.438954e-001 -9.795090e+001 -5.602227e+001 -7.533928e+001 -5.564828e+001 -7.556975e+001 -2.680568e+000 1.684205e+002
3683775000 -4.471387e-001 -9.835676e+001 -5.602094e+001 -7.678090e+001 -5.551807e+001 -7.454601e+001 -2.688390e+000 1.676189e+002
3702518750 -4.545689e-001 -9.883368e+001 -5.603521e+001 -7.913824e+001 -5.581211e+001 -7.539561e+001 -2.703690e+000 1.667649e+002
3721262500 -4.529333e-001 -9.932976e+001 -5.607956e+001 -7.838985e+001 -5.586689e+001 -7.498218e+001 -2.710094e+000 1.659309e+002
3740006250 -4.566430e-001 -9.973624e+001 -5.626037e+001 -7.939030e+001 -5.583796e+001 -7.555331e+001 -2.721322e+000 1.651255e+002
3758750000 -4.667003e-001 -1.002381e+002 -5.624588e+001 -7.986258e+001 -5.556952e+001 -7.810226e+001 -2.735276e+000 1.642756e+002
3777493750 -4.625183e-001 -1.007333e+002 -5.617054e+001 -8.090470e+001 -5.573619e+001 -7.679140e+001 -2.744528e+000 1.634338e+002
3796237500 -4.639385e-001 -1.011454e+002 -5.595449e+001 -8.267936e+001 -5.572010e+001 -7.811871e+001 -2.756717e+000 1.626161e+002
3814981250 -4.735665e-001 -1.016556e+002 -5.582503e+001 -8.374291e+001 -5.571647e+001 -7.890180e+001 -2.769022e+000 1.617583e+002
3833725000 -4.686726e-001 -1.021242e+002 -5.587562e+001 -8.654961e+001 -5.534270e+001 -7.851379e+001 -2.776065e+000 1.609457e+002
3852468750 -4.716813e-001 -1.025228e+002 -5.557047e+001 -8.831021e+001 -5.526193e+001 -7.994242e+001 -2.787837e+000 1.601191e+002
3871212500 -4.801893e-001 -1.030371e+002 -5.566450e+001 -9.030569e+001 -5.528398e+001 -7.964107e+001 -2.798482e+000 1.592666e+002
3889956250 -4.757215e-001 -1.035000e+002 -5.591949e+001 -9.075681e+001 -5.512421e+001 -8.177385e+001 -2.807975e+000 1.584459e+002
3908700000 -4.771042e-001 -1.038820e+002 -5.598728e+001 -9.160877e+001 -5.505333e+001 -8.264741e+001 -2.823130e+000 1.576055e+002
3927443750 -4.857259e-001 -1.043879e+002 -5.596305e+001 -9.217976e+001 -5.513208e+001 -8.180169e+001 -2.833088e+000 1.567517e+002
3946187500 -4.834712e-001 -1.048181e+002 -5.587893e+001 -9.226820e+001 -5.522268e+001 -8.129849e+001 -2.840628e+000 1.559273e+002
3964931250 -4.867349e-001 -1.052280e+002 -5.561396e+001 -9.233147e+001 -5.526160e+001 -8.260841e+001 -2.856783e+000 1.550831e+002
3983675000 -4.953597e-001 -1.057090e+002 -5.571078e+001 -9.356206e+001 -5.511976e+001 -8.381144e+001 -2.865061e+000 1.542429e+002
4002418750 -4.911963e-001 -1.061322e+002 -5.563288e+001 -9.489165e+001 -5.500407e+001 -8.518941e+001 -2.873151e+000 1.534135e+002
4021162500 -4.926102e-001 -1.065555e+002 -5.577313e+001 -9.539159e+001 -5.487991e+001 -8.548925e+001 -2.885904e+000 1.525958e+002
4039906250 -4.976115e-001 -1.070268e+002 -5.568526e+001 -9.547021e+001 -5.493702e+001 -8.652074e+001 -2.898984e+000 1.517364e+002
4058650000 -4.981733e-001 -1.074805e+002 -5.563128e+001 -9.574057e+001 -5.483584e+001 -8.636764e+001 -2.908100e+000 1.508835e+002
4077393750 -5.012181e-001 -1.079127e+002 -5.559014e+001 -9.519369e+001 -5.483640e+001 -8.707342e+001 -2.922734e+000 1.500675e+002
4096137500 -5.072217e-001 -1.083730e+002 -5.549715e+001 -9.454723e+001 -5.483621e+001 -8.885285e+001 -2.934816e+000 1.492179e+002
4114881250 -5.105203e-001 -1.088821e+002 -5.547786e+001 -9.439341e+001 -5.470666e+001 -9.089301e+001 -2.949413e+000 1.483589e+002
4133625000 -5.096839e-001 -1.093164e+002 -5.546577e+001 -9.355834e+001 -5.432164e+001 -9.204671e+001 -2.959510e+000 1.475249e+002
4152368750 -5.171759e-001 -1.097630e+002 -5.509235e+001 -9.423131e+001 -5.428741e+001 -9.364605e+001 -2.973671e+000 1.466951e+002
4171112500 -5.198817e-001 -1.102556e+002 -5.501793e+001 -9.485358e+001 -5.443285e+001 -9.498853e+001 -2.987283e+000 1.458175e+002
4189856250 -5.184048e-001 -1.106737e+002 -5.507562e+001 -9.576672e+001 -5.473511e+001 -9.376847e+001 -2.998954e+000 1.449835e+002
4208600000 -5.253773e-001 -1.111404e+002 -5.512428e+001 -9.693118e+001 -5.456530e+001 -9.654856e+001 -3.009371e+000 1.441598e+002
4227343750 -5.297043e-001 -1.115984e+002 -5.522282e+001 -9.661314e+001 -5.456082e+001 -9.762486e+001 -3.022257e+000 1.432967e+002
4246087500 -5.317032e-001 -1.120322e+002 -5.550144e+001 -9.731593e+001 -5.453115e+001 -9.862072e+001 -3.031435e+000 1.424445e+002
4264831250 -5.395328e-001 -1.125022e+002 -5.539237e+001 -9.721123e+001 -5.461059e+001 -9.959816e+001 -3.043834e+000 1.416108e+002
4283575000 -5.404246e-001 -1.129707e+002 -5.547228e+001 -9.802664e+001 -5.495399e+001 -1.010026e+002 -3.053384e+000 1.407579e+002
4302318750 -5.366110e-001 -1.134210e+002 -5.543325e+001 -9.755762e+001 -5.485996e+001 -1.020677e+002 -3.063150e+000 1.399103e+002
4321062500 -5.439978e-001 -1.138434e+002 -5.523775e+001 -9.744214e+001 -5.488115e+001 -1.030071e+002 -3.073817e+000 1.390904e+002
4339806250 -5.514227e-001 -1.143246e+002 -5.513673e+001 -9.829456e+001 -5.490575e+001 -1.023806e+002 -3.086588e+000 1.382369e+002
4358550000 -5.491499e-001 -1.147810e+002 -5.520036e+001 -9.850633e+001 -5.477168e+001 -1.030800e+002 -3.098073e+000 1.373896e+002
4377293750 -5.560254e-001 -1.152481e+002 -5.521215e+001 -1.001185e+002 -5.472631e+001 -1.049082e+002 -3.111238e+000 1.365528e+002
4396037500 -5.552599e-001 -1.157199e+002 -5.541584e+001 -1.002654e+002 -5.462292e+001 -1.046048e+002 -3.120920e+000 1.356774e+002
4414781250 -5.584430e-001 -1.161546e+002 -5.522108e+001 -1.022783e+002 -5.454503e+001 -1.036353e+002 -3.129672e+000 1.348340e+002
4433525000 -5.642688e-001 -1.166256e+002 -5.514072e+001 -1.033720e+002 -5.464537e+001 -1.044509e+002 -3.142854e+000 1.339902e+002
4452268750 -5.622484e-001 -1.170879e+002 -5.504950e+001 -1.042072e+002 -5.453368e+001 -1.058132e+002 -3.151678e+000 1.331180e+002
4471012500 -5.665002e-001 -1.174804e+002 -5.509248e+001 -1.031739e+002 -5.455169e+001 -1.067621e+002 -3.160373e+000 1.322832e+002
4489756250 -5.743252e-001 -1.179591e+002 -5.512949e+001 -1.045662e+002 -5.480387e+001 -1.078261e+002 -3.170559e+000 1.314368e+002
4508500000 -5.725438e-001 -1.184197e+002 -5.509797e+001 -1.058616e+002 -5.499773e+001 -1.091723e+002 -3.179113e+000 1.305676e+002
4527243750 -5.776581e-001 -1.188238e+002 -5.521328e+001 -1.071010e+002 -5.498559e+001 -1.097190e+002 -3.189059e+000 1.297272e+002
4545987500 -5.852873e-001 -1.192987e+002 -5.518722e+001 -1.080836e+002 -5.515037e+001 -1.110074e+002 -3.199594e+000 1.288657e+002
4564731250 -5.822117e-001 -1.197408e+002 -5.521633e+001 -1.081481e+002 -5.533117e+001 -1.114864e+002 -3.207009e+000 1.279990e+002
4583475000 -5.903176e-001 -1.201392e+002 -5.526714e+001 -1.095238e+002 -5.523845e+001 -1.123298e+002 -3.214386e+000 1.271526e+002
4602218750 -5.994458e-001 -1.205810e+002 -5.512496e+001 -1.092944e+002 -5.519907e+001 -1.125967e+002 -3.222809e+000 1.263126e+002
4620962500 -5.992672e-001 -1.210436e+002 -5.516521e+001 -1.099660e+002 -5.509156e+001 -1.135323e+002 -3.228826e+000 1.254320e+002
4639706250 -6.052817e-001 -1.214330e+002 -5.525490e+001 -1.094757e+002 -5.508133e+001 -1.142529e+002 -3.235491e+000 1.245803e+002
4658450000 -6.125585e-001 -1.218943e+002 -5.502193e+001 -1.104409e+002 -5.514566e+001 -1.144262e+002 -3.244349e+000 1.237442e+002
4677193750 -6.078647e-001 -1.223201e+002 -5.481684e+001 -1.116253e+002 -5.537130e+001 -1.143067e+002 -3.253247e+000 1.228935e+002
4695937500 -6.182017e-001 -1.227232e+002 -5.459625e+001 -1.119057e+002 -5.525437e+001 -1.151285e+002 -3.261950e+000 1.220274e+002
4714681250 -6.255299e-001 -1.232008e+002 -5.446306e+001 -1.126917e+002 -5.500730e+001 -1.152539e+002 -3.269543e+000 1.211628e+002
4733425000 -6.291800e-001 -1.236055e+002 -5.431805e+001 -1.139838e+002 -5.498371e+001 -1.154199e+002 -3.278259e+000 1.203055e+002
4752168750 -6.380947e-001 -1.240710e+002 -5.438177e+001 -1.155794e+002 -5.538380e+001 -1.176054e+002 -3.285880e+000 1.194382e+002
4770912500 -6.385360e-001 -1.245292e+002 -5.433702e+001 -1.155950e+002 -5.545430e+001 -1.194594e+002 -3.291160e+000 1.185701e+002
4789656250 -6.417778e-001 -1.249356e+002 -5.445211e+001 -1.166646e+002 -5.543105e+001 -1.224131e+002 -3.297112e+000 1.176897e+002
4808400000 -6.496648e-001 -1.253540e+002 -5.442740e+001 -1.171633e+002 -5.566662e+001 -1.222767e+002 -3.305471e+000 1.168382e+002
4827143750 -6.556007e-001 -1.258198e+002 -5.418837e+001 -1.185343e+002 -5.570103e+001 -1.244818e+002 -3.314057e+000 1.159701e+002
4845887500 -6.578665e-001 -1.262480e+002 -5.428660e+001 -1.176495e+002 -5.580981e+001 -1.255727e+002 -3.322261e+000 1.150946e+002
4864631250 -6.652917e-001 -1.266920e+002 -5.442710e+001 -1.174633e+002 -5.579672e+001 -1.263428e+002 -3.329064e+000 1.142547e+002
4883375000 -6.700035e-001 -1.271754e+002 -5.434011e+001 -1.183297e+002 -5.598893e+001 -1.267566e+002 -3.337342e+000 1.133792e+002
4902118750 -6.705661e-001 -1.276060e+002 -5.421800e+001 -1.209927e+002 -5.590370e+001 -1.276910e+002 -3.346155e+000 1.124892e+002
4920862500 -6.782794e-001 -1.280418e+002 -5.426606e+001 -1.214198e+002 -5.574798e+001 -1.280771e+002 -3.352768e+000 1.116287e+002
4939606250 -6.819605e-001 -1.285040e+002 -5.417464e+001 -1.216772e+002 -5.542427e+001 -1.277246e+002 -3.359008e+000 1.107425e+002
4958350000 -6.853550e-001 -1.289205e+002 -5.413631e+001 -1.230303e+002 -5.546607e+001 -1.278969e+002 -3.365236e+000 1.098457e+002
4977093750 -6.929208e-001 -1.293565e+002 -5.418109e+001 -1.243678e+002 -5.533496e+001 -1.283318e+002 -3.371245e+000 1.089938e+002
4995837500 -6.942087e-001 -1.298259e+002 -5.408369e+001 -1.255648e+002 -5.506020e+001 -1.282160e+002 -3.382286e+000 1.081036e+002
5014581250 -6.956832e-001 -1.302337e+002 -5.409847e+001 -1.258456e+002 -5.511172e+001 -1.291039e+002 -3.391700e+000 1.072133e+002
5033325000 -7.050611e-001 -1.307208e+002 -5.413748e+001 -1.272317e+002 -5.498837e+001 -1.299135e+002 -3.396786e+000 1.063371e+002
5052068750 -7.021528e-001 -1.311723e+002 -5.408357e+001 -1.278228e+002 -5.482497e+001 -1.311699e+002 -3.408221e+000 1.054672e+002
5070812500 -7.096385e-001 -1.315735e+002 -5.398472e+001 -1.292046e+002 -5.490717e+001 -1.315157e+002 -3.417219e+000 1.045404e+002
5089556250 -7.188545e-001 -1.320577e+002 -5.419122e+001 -1.296962e+002 -5.486991e+001 -1.325231e+002 -3.422904e+000 1.036458e+002
5108300000 -7.203379e-001 -1.325062e+002 -5.418652e+001 -1.300190e+002 -5.468442e+001 -1.335611e+002 -3.432601e+000 1.027493e+002
5127043750 -7.237496e-001 -1.329219e+002 -5.422448e+001 -1.305941e+002 -5.479108e+001 -1.331696e+002 -3.439079e+000 1.018521e+002
5145787500 -7.323307e-001 -1.333746e+002 -5.428780e+001 -1.308526e+002 -5.484162e+001 -1.343622e+002 -3.444060e+000 1.009695e+002
5164531250 -7.316273e-001 -1.338250e+002 -5.443899e+001 -1.310759e+002 -5.487733e+001 -1.350167e+002 -3.454703e+000 1.000660e+002
5183275000 -7.355569e-001 -1.342372e+002 -5.429128e+001 -1.322106e+002 -5.442929e+001 -1.339838e+002 -3.461384e+000 9.914655e+001
5202018750 -7.461978e-001 -1.346887e+002 -5.448991e+001 -1.342169e+002 -5.432616e+001 -1.339465e+002 -3.469005e+000 9.824824e+001
5220762500 -7.460560e-001 -1.351376e+002 -5.432996e+001 -1.349079e+002 -5.419337e+001 -1.328933e+002 -3.479654e+000 9.735126e+001
5239506250 -7.495536e-001 -1.355567e+002 -5.420673e+001 -1.353482e+002 -5.402718e+001 -1.348307e+002 -3.484700e+000 9.642827e+001
5258250000 -7.574170e-001 -1.359917e+002 -5.443070e+001 -1.346868e+002 -5.404652e+001 -1.355036e+002 -3.489550e+000 9.552823e+001
5276993750 -7.559741e-001 -1.364388e+002 -5.441780e+001 -1.362106e+002 -5.389371e+001 -1.360674e+002 -3.499187e+000 9.460828e+001
5295737500 -7.611646e-001 -1.368528e+002 -5.435190e+001 -1.371877e+002 -5.377444e+001 -1.358802e+002 -3.503420e+000 9.368494e+001
5314481250 -7.680790e-001 -1.372872e+002 -5.438762e+001 -1.366752e+002 -5.363063e+001 -1.373565e+002 -3.509558e+000 9.278304e+001
5333225000 -7.684784e-001 -1.377402e+002 -5.450238e+001 -1.361690e+002 -5.382612e+001 -1.382362e+002 -3.517310e+000 9.186068e+001
5351968750 -7.749968e-001 -1.381591e+002 -5.453023e+001 -1.364927e+002 -5.373305e+001 -1.388928e+002 -3.523808e+000 9.093701e+001
5370712500 -7.794108e-001 -1.385960e+002 -5.466036e+001 -1.376590e+002 -5.395723e+001 -1.397958e+002 -3.531221e+000 9.003231e+001
5389456250 -7.799459e-001 -1.390455e+002 -5.453235e+001 -1.381117e+002 -5.382893e+001 -1.408622e+002 -3.542498e+000 8.910621e+001
5408200000 -7.876000e-001 -1.394606e+002 -5.460356e+001 -1.377662e+002 -5.389275e+001 -1.418920e+002 -3.546520e+000 8.818587e+001
5426943750 -7.912956e-001 -1.399022e+002 -5.461567e+001 -1.384350e+002 -5.412046e+001 -1.429818e+002 -3.553611e+000 8.726603e+001
5445687500 -7.957125e-001 -1.403423e+002 -5.467770e+001 -1.395436e+002 -5.413511e+001 -1.432547e+002 -3.560187e+000 8.630675e+001
5464431250 -8.027744e-001 -1.407431e+002 -5.455774e+001 -1.398624e+002 -5.418208e+001 -1.426795e+002 -3.565738e+000 8.537697e+001
5483175000 -8.086662e-001 -1.412060e+002 -5.459848e+001 -1.412373e+002 -5.422640e+001 -1.427256e+002 -3.571074e+000 8.444722e+001
5501918750 -8.116443e-001 -1.416403e+002 -5.464935e+001 -1.426780e+002 -5.414915e+001 -1.442482e+002 -3.578758e+000 8.351260e+001
5520662500 -8.177022e-001 -1.420646e+002 -5.448933e+001 -1.434842e+002 -5.410424e+001 -1.447138e+002 -3.581872e+000 8.258142e+001
5539406250 -8.218571e-001 -1.425368e+002 -5.455190e+001 -1.449242e+002 -5.437442e+001 -1.456194e+002 -3.589680e+000 8.165181e+001
5558150000 -8.225305e-001 -1.429557e+002 -5.471857e+001 -1.452924e+002 -5.446278e+001 -1.475715e+002 -3.598187e+000 8.067558e+001
5576893750 -8.319451e-001 -1.433809e+002 -5.465408e+001 -1.464346e+002 -5.426875e+001 -1.481159e+002 -3.603181e+000 7.972184e+001
5595637500 -8.356540e-001 -1.438495e+002 -5.482633e+001 -1.464049e+002 -5.454012e+001 -1.497511e+002 -3.609416e+000 7.877570e+001
5614381250 -8.374249e-001 -1.442626e+002 -5.494839e+001 -1.468237e+002 -5.449819e+001 -1.511644e+002 -3.618351e+000 7.779084e+001
5633125000 -8.454328e-001 -1.446840e+002 -5.481238e+001 -1.468331e+002 -5.450877e+001 -1.532267e+002 -3.618340e+000 7.682996e+001
5651868750 -8.482231e-001 -1.451490e+002 -5.492457e+001 -1.479082e+002 -5.460147e+001 -1.545044e+002 -3.628366e+000 7.589223e+001
5670612500 -8.504921e-001 -1.455546e+002 -5.502050e+001 -1.480773e+002 -5.452284e+001 -1.545342e+002 -3.634885e+000 7.489835e+001
5689356250 -8.612497e-001 -1.459778e+002 -5.486870e+001 -1.509150e+002 -5.467852e+001 -1.534789e+002 -3.637111e+000 7.392020e+001
5708100000 -8.635036e-001 -1.464334e+002 -5.486930e+001 -1.508268e+002 -5.465003e+001 -1.554188e+002 -3.645106e+000 7.296972e+001
5726843750 -8.660941e-001 -1.468345e+002 -5.483631e+001 -1.510672e+002 -5.470337e+001 -1.568479e+002 -3.651020e+000 7.196027e+001
5745587500 -8.764051e-001 -1.472478e+002 -5.484296e+001 -1.524395e+002 -5.466230e+001 -1.573694e+002 -3.651045e+000 7.098211e+001
5764331250 -8.793504e-001 -1.476995e+002 -5.474886e+001 -1.537484e+002 -5.455857e+001 -1.582421e+002 -3.660826e+000 7.001292e+001
5783075000 -8.819029e-001 -1.480961e+002 -5.467874e+001 -1.546244e+002 -5.459330e+001 -1.574850e+002 -3.664876e+000 6.899591e+001
5801818750 -8.919945e-001 -1.485047e+002 -5.461071e+001 -1.555529e+002 -5.457790e+001 -1.583230e+002 -3.668968e+000 6.796157e+001
5820562500 -8.970997e-001 -1.489584e+002 -5.473382e+001 -1.555907e+002 -5.456043e+001 -1.581595e+002 -3.668077e+000 6.697034e+001
5839306250 -8.942701e-001 -1.493712e+002 -5.466563e+001 -1.567246e+002 -5.444350e+001 -1.581098e+002 -3.677872e+000 6.594907e+001
5858050000 -9.060283e-001 -1.497677e+002 -5.472245e+001 -1.587081e+002 -5.432438e+001 -1.612978e+002 -3.678433e+000 6.492623e+001
5876793750 -9.131594e-001 -1.502192e+002 -5.476306e+001 -1.594122e+002 -5.421642e+001 -1.617962e+002 -3.674205e+000 6.395637e+001
5895537500 -9.066452e-001 -1.506617e+002 -5.488020e+001 -1.608358e+002 -5.419979e+001 -1.641222e+002 -3.688560e+000 6.295612e+001
5914281250 -9.189637e-001 -1.510191e+002 -5.479553e+001 -1.608988e+002 -5.431396e+001 -1.647270e+002 -3.692705e+000 6.186703e+001
5933025000 -9.232129e-001 -1.514954e+002 -5.477447e+001 -1.598992e+002 -5.434776e+001 -1.652013e+002 -3.688378e+000 6.086673e+001
5951768750 -9.192784e-001 -1.519200e+002 -5.480054e+001 -1.606031e+002 -5.459736e+001 -1.658703e+002 -3.700014e+000 5.983820e+001
5970512500 -9.295744e-001 -1.522812e+002 -5.467973e+001 -1.607816e+002 -5.433024e+001 -1.667596e+002 -3.698674e+000 5.875607e+001
5989256250 -9.370769e-001 -1.527453e+002 -5.444386e+001 -1.613174e+002 -5.411618e+001 -1.673243e+002 -3.693408e+000 5.775034e+001
6008000000 -9.318419e-001 -1.531884e+002 -5.452281e+001 -1.618797e+002 -5.426171e+001 -1.672732e+002 -3.709360e+000 5.670817e+001
6026743750 -9.458774e-001 -1.535652e+002 -5.421765e+001 -1.628678e+002 -5.414910e+001 -1.675247e+002 -3.707596e+000 5.563514e+001
6045487500 -9.506194e-001 -1.540312e+002 -5.404833e+001 -1.636204e+002 -5.439336e+001 -1.688845e+002 -3.703834e+000 5.461879e+001
6064231250 -9.483746e-001 -1.544723e+002 -5.396616e+001 -1.642401e+002 -5.443782e+001 -1.687545e+002 -3.718710e+000 5.356638e+001
6082975000 -9.600123e-001 -1.548403e+002 -5.408041e+001 -1.640386e+002 -5.453094e+001 -1.691518e+002 -3.709351e+000 5.245601e+001
6101718750 -9.645397e-001 -1.553255e+002 -5.402131e+001 -1.653511e+002 -5.463867e+001 -1.702298e+002 -3.710438e+000 5.142427e+001
6120462500 -9.630074e-001 -1.557606e+002 -5.392455e+001 -1.657131e+002 -5.434980e+001 -1.713425e+002 -3.724327e+000 5.036323e+001
6139206250 -9.762487e-001 -1.561509e+002 -5.382587e+001 -1.674689e+002 -5.450832e+001 -1.715568e+002 -3.715094e+000 4.924139e+001
6157950000 -9.795017e-001 -1.566301e+002 -5.381486e+001 -1.683586e+002 -5.452857e+001 -1.721475e+002 -3.715480e+000 4.820470e+001
6176693750 -9.783636e-001 -1.570614e+002 -5.395311e+001 -1.682236e+002 -5.467561e+001 -1.721861e+002 -3.729289e+000 4.710113e+001
6195437500 -9.889449e-001 -1.574957e+002 -5.395801e+001 -1.689136e+002 -5.466451e+001 -1.721051e+002 -3.722064e+000 4.601697e+001
6214181250 -9.881704e-001 -1.579435e+002 -5.389547e+001 -1.700843e+002 -5.472438e+001 -1.742280e+002 -3.726741e+000 4.494493e+001
6232925000 -9.937661e-001 -1.583753e+002 -5.397369e+001 -1.712157e+002 -5.479209e+001 -1.756662e+002 -3.725140e+000 4.386554e+001
6251668750 -9.987442e-001 -1.588141e+002 -5.398018e+001 -1.728283e+002 -5.501873e+001 -1.768717e+002 -3.726147e+000 4.277308e+001
6270412500 -1.002218e+000 -1.592852e+002 -5.391533e+001 -1.731711e+002 -5.496161e+001 -1.782318e+002 -3.724834e+000 4.170843e+001
6289156250 -1.005127e+000 -1.596951e+002 -5.393247e+001 -1.736811e+002 -5.494723e+001 -1.759790e+002 -3.729511e+000 4.060062e+001
6307900000 -1.008329e+000 -1.601095e+002 -5.385447e+001 -1.740633e+002 -5.493177e+001 -1.766997e+002 -3.728810e+000 3.943831e+001
6326643750 -1.017467e+000 -1.605609e+002 -5.388577e+001 -1.739104e+002 -5.491457e+001 -1.762922e+002 -3.722758e+000 3.834158e+001
6345387500 -1.020228e+000 -1.609848e+002 -5.393464e+001 -1.752305e+002 -5.485360e+001 -1.773355e+002 -3.724947e+000 3.725058e+001
6364131250 -1.026049e+000 -1.613858e+002 -5.390023e+001 -1.760999e+002 -5.492572e+001 -1.774047e+002 -3.726084e+000 3.608744e+001
6382875000 -1.035217e+000 -1.618215e+002 -5.386978e+001 -1.767632e+002 -5.470238e+001 -1.780393e+002 -3.721673e+000 3.498200e+001
6401618750 -1.039011e+000 -1.622480e+002 -5.400467e+001 -1.778037e+002 -5.465210e+001 -1.783708e+002 -3.723649e+000 3.385574e+001
6420362500 -1.044397e+000 -1.626612e+002 -5.415324e+001 -1.791786e+002 -5.468985e+001 -1.776848e+002 -3.722088e+000 3.268818e+001
6439106250 -1.053701e+000 -1.630836e+002 -5.402497e+001 -1.793505e+002 -5.462677e+001 -1.788454e+002 -3.714444e+000 3.157117e+001
6457850000 -1.055465e+000 -1.634987e+002 -5.399288e+001 -1.799610e+002 -5.441645e+001 -1.795701e+002 -3.716255e+000 3.043016e+001
6476593750 -1.061814e+000 -1.639107e+002 -5.399448e+001 1.793843e+002 -5.418808e+001 -1.794237e+002 -3.711917e+000 2.926847e+001
6495337500 -1.067624e+000 -1.643329e+002 -5.406540e+001 1.787261e+002 -5.400585e+001 -1.799464e+002 -3.702569e+000 2.813960e+001
6514081250 -1.069759e+000 -1.647606e+002 -5.385728e+001 1.771874e+002 -5.409289e+001 1.791037e+002 -3.706898e+000 2.699304e+001
6532825000 -1.075649e+000 -1.651658e+002 -5.382219e+001 1.770853e+002 -5.402076e+001 1.792960e+002 -3.700099e+000 2.582303e+001
6551568750 -1.081579e+000 -1.655937e+002 -5.380478e+001 1.771619e+002 -5.403940e+001 1.782823e+002 -3.691949e+000 2.467424e+001
6570312500 -1.085793e+000 -1.660172e+002 -5.385654e+001 1.773802e+002 -5.384156e+001 1.781606e+002 -3.695427e+000 2.352158e+001
6589056250 -1.093044e+000 -1.664204e+002 -5.377599e+001 1.770472e+002 -5.378537e+001 1.783418e+002 -3.688039e+000 2.233317e+001
6607800000 -1.099497e+000 -1.668575e+002 -5.358873e+001 1.759850e+002 -5.371848e+001 1.775552e+002 -3.678663e+000 2.119138e+001
6626543750 -1.105323e+000 -1.672487e+002 -5.358593e+001 1.751840e+002 -5.360890e+001 1.766316e+002 -3.673581e+000 1.998399e+001
6645287500 -1.116528e+000 -1.676805e+002 -5.352156e+001 1.753332e+002 -5.343446e+001 1.767547e+002 -3.662935e+000 1.881684e+001
6664031250 -1.117779e+000 -1.681238e+002 -5.353686e+001 1.754340e+002 -5.324293e+001 1.770329e+002 -3.662853e+000 1.765571e+001
6682775000 -1.125893e+000 -1.684969e+002 -5.341008e+001 1.755085e+002 -5.310289e+001 1.758612e+002 -3.656874e+000 1.644500e+001
6701518750 -1.135097e+000 -1.689014e+002 -5.346662e+001 1.748742e+002 -5.311968e+001 1.763129e+002 -3.647860e+000 1.522995e+001
6720262500 -1.140154e+000 -1.693600e+002 -5.339304e+001 1.749147e+002 -5.301014e+001 1.738931e+002 -3.639166e+000 1.404720e+001
6739006250 -1.143772e+000 -1.697763e+002 -5.341265e+001 1.746253e+002 -5.303349e+001 1.735886e+002 -3.636607e+000 1.287478e+001
6757750000 -1.152936e+000 -1.701865e+002 -5.338356e+001 1.736327e+002 -5.314957e+001 1.721115e+002 -3.626572e+000 1.165477e+001
6776493750 -1.156289e+000 -1.706258e+002 -5.338729e+001 1.743394e+002 -5.311831e+001 1.713209e+002 -3.615650e+000 1.047941e+001
6795237500 -1.160553e+000 -1.710420e+002 -5.338933e+001 1.728469e+002 -5.305721e+001 1.698276e+002 -3.610648e+000 9.298065e+000
6813981250 -1.167457e+000 -1.714630e+002 -5.330210e+001 1.719020e+002 -5.301942e+001 1.700279e+002 -3.602417e+000 8.070139e+000
6832725000 -1.172132e+000 -1.719155e+002 -5.325870e+001 1.718490e+002 -5.302878e+001 1.697458e+002 -3.591588e+000 6.875033e+000
6851468750 -1.176913e+000 -1.723223e+002 -5.338073e+001 1.701326e+002 -5.289629e+001 1.684191e+002 -3.584919e+000 5.679309e+000
6870212500 -1.183093e+000 -1.727512e+002 -5.349788e+001 1.690341e+002 -5.314910e+001 1.674940e+002 -3.574972e+000 4.446445e+000
6888956250 -1.187952e+000 -1.731924e+002 -5.354494e+001 1.687082e+002 -5.328077e+001 1.670777e+002 -3.563005e+000 3.232769e+000
6907700000 -1.193288e+000 -1.735919e+002 -5.357857e+001 1.677004e+002 -5.326576e+001 1.660243e+002 -3.556607e+000 2.020965e+000
6926443750 -1.200984e+000 -1.740272e+002 -5.360229e+001 1.674528e+002 -5.322525e+001 1.654741e+002 -3.548317e+000 7.828711e-001
6945187500 -1.208750e+000 -1.744560e+002 -5.351040e+001 1.674640e+002 -5.302090e+001 1.647945e+002 -3.536435e+000 -4.360007e-001
6963931250 -1.214259e+000 -1.748782e+002 -5.350060e+001 1.665078e+002 -5.305026e+001 1.642508e+002 -3.528134e+000 -1.648785e+000
6982675000 -1.223256e+000 -1.753146e+002 -5.359173e+001 1.656759e+002 -5.305108e+001 1.641263e+002 -3.517381e+000 -2.893169e+000
7001418750 -1.228607e+000 -1.757265e+002 -5.361319e+001 1.644879e+002 -5.308486e+001 1.635046e+002 -3.504951e+000 -4.110903e+000
7020162500 -1.232948e+000 -1.761381e+002 -5.364560e+001 1.636086e+002 -5.322207e+001 1.629474e+002 -3.498854e+000 -5.341308e+000
7038906250 -1.242520e+000 -1.765562e+002 -5.364991e+001 1.621464e+002 -5.318597e+001 1.622269e+002 -3.486698e+000 -6.594175e+000
7057650000 -1.247941e+000 -1.769707e+002 -5.367978e+001 1.618485e+002 -5.330349e+001 1.616555e+002 -3.475965e+000 -7.816308e+000
7076393750 -1.252285e+000 -1.774045e+002 -5.367318e+001 1.613565e+002 -5.341014e+001 1.602831e+002 -3.468116e+000 -9.066324e+000
7095137500 -1.260740e+000 -1.778349e+002 -5.354526e+001 1.599540e+002 -5.346108e+001 1.594361e+002 -3.454669e+000 -1.033025e+001
7113881250 -1.263616e+000 -1.782714e+002 -5.348845e+001 1.600397e+002 -5.334979e+001 1.587080e+002 -3.443331e+000 -1.157460e+001
7132625000 -1.270444e+000 -1.786860e+002 -5.346198e+001 1.590429e+002 -5.329742e+001 1.572953e+002 -3.433619e+000 -1.282733e+001
7151368750 -1.277185e+000 -1.791077e+002 -5.336155e+001 1.593448e+002 -5.331917e+001 1.571113e+002 -3.418927e+000 -1.409770e+001
7170112500 -1.282880e+000 -1.795235e+002 -5.338398e+001 1.582106e+002 -5.336727e+001 1.561955e+002 -3.407662e+000 -1.533213e+001
7188856250 -1.289612e+000 -1.799344e+002 -5.338814e+001 1.570950e+002 -5.321521e+001 1.552186e+002 -3.397142e+000 -1.659955e+001
7207600000 -1.296210e+000 1.796249e+002 -5.326263e+001 1.553484e+002 -5.320921e+001 1.554702e+002 -3.383570e+000 -1.787840e+001
7226343750 -1.301931e+000 1.792150e+002 -5.325737e+001 1.554780e+002 -5.305754e+001 1.559092e+002 -3.372467e+000 -1.912200e+001
7245087500 -1.309698e+000 1.788226e+002 -5.339081e+001 1.545123e+002 -5.307720e+001 1.551629e+002 -3.360484e+000 -2.040553e+001
7263831250 -1.316804e+000 1.784075e+002 -5.333313e+001 1.536980e+002 -5.311126e+001 1.538698e+002 -3.345440e+000 -2.169172e+001
7282575000 -1.323407e+000 1.779845e+002 -5.320835e+001 1.536076e+002 -5.318711e+001 1.523485e+002 -3.334870e+000 -2.293982e+001
7301318750 -1.331772e+000 1.775697e+002 -5.315485e+001 1.528663e+002 -5.276772e+001 1.517096e+002 -3.322619e+000 -2.422586e+001
7320062500 -1.336363e+000 1.771265e+002 -5.312794e+001 1.505225e+002 -5.269328e+001 1.504725e+002 -3.306998e+000 -2.551650e+001
7338806250 -1.343681e+000 1.767102e+002 -5.314759e+001 1.499034e+002 -5.259926e+001 1.502984e+002 -3.296471e+000 -2.678104e+001
7357550000 -1.352184e+000 1.763014e+002 -5.307102e+001 1.494053e+002 -5.260784e+001 1.496361e+002 -3.283401e+000 -2.808594e+001
7376293750 -1.355766e+000 1.758694e+002 -5.308018e+001 1.482454e+002 -5.254240e+001 1.492119e+002 -3.266819e+000 -2.937982e+001
7395037500 -1.361199e+000 1.754490e+002 -5.314637e+001 1.472675e+002 -5.239222e+001 1.479555e+002 -3.255355e+000 -3.067319e+001
7413781250 -1.367023e+000 1.750515e+002 -5.310618e+001 1.464350e+002 -5.259770e+001 1.464680e+002 -3.239513e+000 -3.197445e+001
7432525000 -1.372662e+000 1.745763e+002 -5.301699e+001 1.459402e+002 -5.264333e+001 1.451107e+002 -3.223505e+000 -3.326210e+001
7451268750 -1.377730e+000 1.741567e+002 -5.300798e+001 1.449980e+002 -5.250015e+001 1.442845e+002 -3.209515e+000 -3.456465e+001
7470012500 -1.380772e+000 1.737587e+002 -5.290670e+001 1.435477e+002 -5.241299e+001 1.435530e+002 -3.195073e+000 -3.588236e+001
7488756250 -1.392579e+000 1.732980e+002 -5.283361e+001 1.423419e+002 -5.229461e+001 1.427318e+002 -3.178689e+000 -3.719540e+001
7507500000 -1.396915e+000 1.728764e+002 -5.283503e+001 1.402319e+002 -5.226617e+001 1.429288e+002 -3.163047e+000 -3.849006e+001
7526243750 -1.401508e+000 1.724766e+002 -5.279682e+001 1.399662e+002 -5.224093e+001 1.421326e+002 -3.148369e+000 -3.979145e+001
7544987500 -1.413345e+000 1.720271e+002 -5.275955e+001 1.388057e+002 -5.232793e+001 1.419678e+002 -3.133197e+000 -4.109462e+001
7563731250 -1.415792e+000 1.716085e+002 -5.269247e+001 1.378573e+002 -5.247321e+001 1.412975e+002 -3.120522e+000 -4.241195e+001
7582475000 -1.422819e+000 1.712090e+002 -5.276661e+001 1.353873e+002 -5.241180e+001 1.398418e+002 -3.106255e+000 -4.373045e+001
7601218750 -1.434509e+000 1.707496e+002 -5.269723e+001 1.341109e+002 -5.239106e+001 1.382008e+002 -3.091069e+000 -4.506775e+001
7619962500 -1.436575e+000 1.703193e+002 -5.265336e+001 1.332385e+002 -5.240336e+001 1.381813e+002 -3.075550e+000 -4.639152e+001
7638706250 -1.444177e+000 1.699037e+002 -5.268417e+001 1.322484e+002 -5.253029e+001 1.359626e+002 -3.059164e+000 -4.771080e+001
7657450000 -1.453671e+000 1.694589e+002 -5.262774e+001 1.310169e+002 -5.278110e+001 1.348093e+002 -3.043633e+000 -4.904673e+001
7676193750 -1.453370e+000 1.690332e+002 -5.249100e+001 1.304614e+002 -5.273986e+001 1.340933e+002 -3.028151e+000 -5.036013e+001
7694937500 -1.460468e+000 1.686114e+002 -5.244872e+001 1.300363e+002 -5.271069e+001 1.334424e+002 -3.011917e+000 -5.169258e+001
7713681250 -1.469780e+000 1.681692e+002 -5.228111e+001 1.296427e+002 -5.275220e+001 1.341124e+002 -2.998402e+000 -5.302584e+001
7732425000 -1.473794e+000 1.677481e+002 -5.224226e+001 1.292641e+002 -5.301303e+001 1.333500e+002 -2.980701e+000 -5.434583e+001
7751168750 -1.483781e+000 1.673337e+002 -5.234908e+001 1.295199e+002 -5.291308e+001 1.326015e+002 -2.965077e+000 -5.569163e+001
7769912500 -1.490947e+000 1.668934e+002 -5.236704e+001 1.293824e+002 -5.302399e+001 1.319523e+002 -2.949308e+000 -5.702319e+001
7788656250 -1.494020e+000 1.664816e+002 -5.234911e+001 1.283282e+002 -5.299433e+001 1.304573e+002 -2.931906e+000 -5.834855e+001
7807400000 -1.505562e+000 1.660640e+002 -5.254879e+001 1.281852e+002 -5.308387e+001 1.297470e+002 -2.916667e+000 -5.971113e+001
7826143750 -1.515014e+000 1.656463e+002 -5.250202e+001 1.274193e+002 -5.316747e+001 1.298689e+002 -2.900734e+000 -6.102769e+001
7844887500 -1.521173e+000 1.652065e+002 -5.263726e+001 1.261973e+002 -5.282909e+001 1.288935e+002 -2.886033e+000 -6.235507e+001
7863631250 -1.528869e+000 1.647995e+002 -5.263052e+001 1.260702e+002 -5.280334e+001 1.290307e+002 -2.870442e+000 -6.372361e+001
7882375000 -1.537521e+000 1.643737e+002 -5.274815e+001 1.256547e+002 -5.290056e+001 1.271657e+002 -2.853376e+000 -6.502636e+001
7901118750 -1.546683e+000 1.639368e+002 -5.278143e+001 1.260222e+002 -5.299707e+001 1.271699e+002 -2.839228e+000 -6.635411e+001
7919862500 -1.550702e+000 1.635364e+002 -5.278044e+001 1.259427e+002 -5.299805e+001 1.270932e+002 -2.822710e+000 -6.770937e+001
7938606250 -1.560638e+000 1.631168e+002 -5.273278e+001 1.264191e+002 -5.294587e+001 1.257093e+002 -2.808262e+000 -6.902674e+001
7957350000 -1.570424e+000 1.626707e+002 -5.271273e+001 1.261789e+002 -5.282818e+001 1.253181e+002 -2.793298e+000 -7.037359e+001
7976093750 -1.574405e+000 1.622539e+002 -5.281762e+001 1.256955e+002 -5.294743e+001 1.248721e+002 -2.777127e+000 -7.174361e+001
7994837500 -1.585647e+000 1.618350e+002 -5.288681e+001 1.251821e+002 -5.282364e+001 1.245957e+002 -2.758638e+000 -7.304710e+001
8013581250 -1.592234e+000 1.613839e+002 -5.290216e+001 1.255767e+002 -5.285476e+001 1.247068e+002 -2.742948e+000 -7.439289e+001
8032325000 -1.595975e+000 1.609811e+002 -5.289045e+001 1.256559e+002 -5.275387e+001 1.249041e+002 -2.727042e+000 -7.571950e+001
8051068750 -1.607724e+000 1.605664e+002 -5.296421e+001 1.247144e+002 -5.277008e+001 1.243141e+002 -2.708340e+000 -7.703764e+001
8069812500 -1.615479e+000 1.601104e+002 -5.301406e+001 1.239519e+002 -5.263825e+001 1.243498e+002 -2.696723e+000 -7.837308e+001
8088556250 -1.621411e+000 1.596720e+002 -5.287453e+001 1.234180e+002 -5.233029e+001 1.239959e+002 -2.679218e+000 -7.970672e+001
8107300000 -1.633843e+000 1.592410e+002 -5.293586e+001 1.225242e+002 -5.228937e+001 1.234321e+002 -2.660869e+000 -8.103853e+001
8126043750 -1.641004e+000 1.588013e+002 -5.297185e+001 1.210394e+002 -5.219799e+001 1.230357e+002 -2.648350e+000 -8.236587e+001
8144787500 -1.644156e+000 1.583889e+002 -5.304780e+001 1.207246e+002 -5.220935e+001 1.214153e+002 -2.631377e+000 -8.370278e+001
8163531250 -1.654659e+000 1.579680e+002 -5.297577e+001 1.195573e+002 -5.197405e+001 1.209467e+002 -2.615606e+000 -8.503123e+001
8182275000 -1.661524e+000 1.575136e+002 -5.286593e+001 1.184159e+002 -5.215770e+001 1.205415e+002 -2.601471e+000 -8.634290e+001
8201018750 -1.666911e+000 1.570689e+002 -5.278637e+001 1.172287e+002 -5.212187e+001 1.204272e+002 -2.584702e+000 -8.767550e+001
8219762500 -1.676483e+000 1.566409e+002 -5.274129e+001 1.163626e+002 -5.218959e+001 1.197265e+002 -2.569441e+000 -8.899557e+001
8238506250 -1.682337e+000 1.561886e+002 -5.250416e+001 1.147305e+002 -5.211971e+001 1.191975e+002 -2.554409e+000 -9.029143e+001
8257250000 -1.688777e+000 1.557724e+002 -5.237503e+001 1.141169e+002 -5.205460e+001 1.175432e+002 -2.539197e+000 -9.161504e+001
8275993750 -1.698287e+000 1.553521e+002 -5.230895e+001 1.142259e+002 -5.217096e+001 1.166394e+002 -2.524642e+000 -9.293409e+001
8294737500 -1.706091e+000 1.548990e+002 -5.228724e+001 1.122785e+002 -5.217891e+001 1.149733e+002 -2.510473e+000 -9.425097e+001
8313481250 -1.714075e+000 1.544719e+002 -5.227100e+001 1.108202e+002 -5.208830e+001 1.149170e+002 -2.496821e+000 -9.558195e+001
8332225000 -1.721674e+000 1.540471e+002 -5.226347e+001 1.092162e+002 -5.208873e+001 1.132879e+002 -2.479993e+000 -9.689506e+001
8350968750 -1.727287e+000 1.536079e+002 -5.227916e+001 1.082846e+002 -5.216914e+001 1.112523e+002 -2.466726e+000 -9.819360e+001
8369712500 -1.736056e+000 1.531976e+002 -5.228634e+001 1.067306e+002 -5.221230e+001 1.101705e+002 -2.451721e+000 -9.950503e+001
8388456250 -1.744924e+000 1.527639e+002 -5.227331e+001 1.055369e+002 -5.225846e+001 1.087801e+002 -2.435675e+000 -1.008123e+002
8407200000 -1.751878e+000 1.523112e+002 -5.219983e+001 1.042747e+002 -5.211613e+001 1.072446e+002 -2.419780e+000 -1.020948e+002
8425943750 -1.759157e+000 1.518797e+002 -5.217088e+001 1.029890e+002 -5.212153e+001 1.057886e+002 -2.405478e+000 -1.034133e+002
8444687500 -1.767386e+000 1.514503e+002 -5.210006e+001 1.017791e+002 -5.210638e+001 1.053673e+002 -2.394194e+000 -1.047040e+002
8463431250 -1.772851e+000 1.510075e+002 -5.206856e+001 1.005470e+002 -5.221753e+001 1.041881e+002 -2.378747e+000 -1.060082e+002
8482175000 -1.779874e+000 1.505869e+002 -5.197490e+001 9.999896e+001 -5.234683e+001 1.023081e+002 -2.368686e+000 -1.073011e+002
8500918750 -1.788477e+000 1.501541e+002 -5.188039e+001 9.880431e+001 -5.233369e+001 1.007833e+002 -2.353640e+000 -1.085909e+002
8519662500 -1.794037e+000 1.497053e+002 -5.206977e+001 9.782925e+001 -5.244397e+001 9.927750e+001 -2.340253e+000 -1.098735e+002
8538406250 -1.802569e+000 1.492762e+002 -5.200469e+001 9.682618e+001 -5.248826e+001 9.822571e+001 -2.329251e+000 -1.111603e+002
8557150000 -1.810780e+000 1.488229e+002 -5.200951e+001 9.615961e+001 -5.249188e+001 9.675462e+001 -2.314803e+000 -1.124305e+002
8575893750 -1.818870e+000 1.483776e+002 -5.216432e+001 9.393998e+001 -5.249233e+001 9.584125e+001 -2.299477e+000 -1.136994e+002
8594637500 -1.828341e+000 1.479660e+002 -5.230193e+001 9.340482e+001 -5.276665e+001 9.472633e+001 -2.287636e+000 -1.149863e+002
8613381250 -1.836309e+000 1.475208e+002 -5.227827e+001 9.223117e+001 -5.267671e+001 9.393921e+001 -2.274125e+000 -1.162377e+002
8632125000 -1.845088e+000 1.470813e+002 -5.243139e+001 9.164478e+001 -5.272467e+001 9.212905e+001 -2.263094e+000 -1.174938e+002
8650868750 -1.853261e+000 1.466451e+002 -5.248532e+001 9.112466e+001 -5.280465e+001 9.195263e+001 -2.252630e+000 -1.187692e+002
8669612500 -1.859919e+000 1.461969e+002 -5.249247e+001 9.067569e+001 -5.290482e+001 8.944772e+001 -2.239631e+000 -1.200171e+002
8688356250 -1.865588e+000 1.457568e+002 -5.269659e+001 9.057734e+001 -5.304052e+001 8.862455e+001 -2.229897e+000 -1.212717e+002
8707100000 -1.874839e+000 1.453295e+002 -5.262521e+001 8.914834e+001 -5.304843e+001 8.777430e+001 -2.217770e+000 -1.225335e+002
8725843750 -1.881719e+000 1.448848e+002 -5.272579e+001 8.871931e+001 -5.314059e+001 8.809016e+001 -2.205622e+000 -1.237466e+002
8744587500 -1.887599e+000 1.444320e+002 -5.271032e+001 8.877824e+001 -5.327534e+001 8.700437e+001 -2.198983e+000 -1.249825e+002
8763331250 -1.894880e+000 1.439904e+002 -5.289584e+001 8.843699e+001 -5.339569e+001 8.697479e+001 -2.190588e+000 -1.262427e+002
8782075000 -1.901481e+000 1.435298e+002 -5.298200e+001 8.705450e+001 -5.335324e+001 8.752461e+001 -2.179406e+000 -1.274470e+002
8800818750 -1.906026e+000 1.430863e+002 -5.310424e+001 8.733328e+001 -5.333992e+001 8.670779e+001 -2.173744e+000 -1.286852e+002
8819562500 -1.914239e+000 1.426703e+002 -5.321759e+001 8.690496e+001 -5.344830e+001 8.711287e+001 -2.165353e+000 -1.299247e+002
8838306250 -1.923856e+000 1.422192e+002 -5.332312e+001 8.656122e+001 -5.353843e+001 8.633723e+001 -2.156842e+000 -1.311256e+002
8857050000 -1.931135e+000 1.417692e+002 -5.328164e+001 8.672706e+001 -5.365856e+001 8.609626e+001 -2.153795e+000 -1.323475e+002
8875793750 -1.939778e+000 1.413231e+002 -5.338464e+001 8.653123e+001 -5.390067e+001 8.474255e+001 -2.143470e+000 -1.335810e+002
8894537500 -1.948874e+000 1.408642e+002 -5.347224e+001 8.674157e+001 -5.394709e+001 8.507987e+001 -2.135653e+000 -1.347622e+002
8913281250 -1.954824e+000 1.404341e+002 -5.359529e+001 8.598213e+001 -5.394815e+001 8.486593e+001 -2.132851e+000 -1.359838e+002
8932025000 -1.963202e+000 1.400071e+002 -5.385469e+001 8.607608e+001 -5.408682e+001 8.522826e+001 -2.124666e+000 -1.371974e+002
8950768750 -1.972035e+000 1.395566e+002 -5.397722e+001 8.544627e+001 -5.410202e+001 8.536626e+001 -2.117693e+000 -1.383743e+002
8969512500 -1.978209e+000 1.391099e+002 -5.412212e+001 8.486406e+001 -5.407244e+001 8.440543e+001 -2.115779e+000 -1.395812e+002
8988256250 -1.985762e+000 1.386569e+002 -5.419861e+001 8.535172e+001 -5.436986e+001 8.537595e+001 -2.109949e+000 -1.407863e+002
9007000000 -1.993624e+000 1.382156e+002 -5.409504e+001 8.597649e+001 -5.443956e+001 8.503142e+001 -2.105547e+000 -1.419548e+002
9025743750 -1.999176e+000 1.377780e+002 -5.423178e+001 8.709370e+001 -5.437674e+001 8.457704e+001 -2.104813e+000 -1.431476e+002
9044487500 -2.008621e+000 1.373541e+002 -5.436977e+001 8.688377e+001 -5.443950e+001 8.441755e+001 -2.100461e+000 -1.443398e+002
9063231250 -2.015095e+000 1.369134e+002 -5.439294e+001 8.638650e+001 -5.436674e+001 8.420552e+001 -2.097469e+000 -1.455061e+002
9081975000 -2.023288e+000 1.364830e+002 -5.445043e+001 8.654410e+001 -5.435770e+001 8.416707e+001 -2.095397e+000 -1.467008e+002
9100718750 -2.032432e+000 1.360260e+002 -5.456210e+001 8.633203e+001 -5.426529e+001 8.470863e+001 -2.091262e+000 -1.478811e+002
9119462500 -2.039738e+000 1.355661e+002 -5.459412e+001 8.619982e+001 -5.424399e+001 8.547892e+001 -2.085557e+000 -1.490282e+002
9138206250 -2.046430e+000 1.351363e+002 -5.455196e+001 8.674849e+001 -5.424230e+001 8.515249e+001 -2.086995e+000 -1.502141e+002
9156950000 -2.055843e+000 1.346981e+002 -5.454932e+001 8.630872e+001 -5.417009e+001 8.478239e+001 -2.084259e+000 -1.513778e+002
9175693750 -2.064523e+000 1.342465e+002 -5.455505e+001 8.551295e+001 -5.413571e+001 8.494959e+001 -2.080413e+000 -1.525227e+002
9194437500 -2.074000e+000 1.338049e+002 -5.449315e+001 8.581885e+001 -5.399312e+001 8.480350e+001 -2.078935e+000 -1.536983e+002
9213181250 -2.082367e+000 1.333468e+002 -5.440502e+001 8.547121e+001 -5.401531e+001 8.422974e+001 -2.076733e+000 -1.548464e+002
9231925000 -2.091170e+000 1.329001e+002 -5.441311e+001 8.478374e+001 -5.402447e+001 8.380318e+001 -2.075047e+000 -1.559850e+002
9250668750 -2.096795e+000 1.324693e+002 -5.445559e+001 8.486957e+001 -5.399440e+001 8.324786e+001 -2.075355e+000 -1.571412e+002
9269412500 -2.107109e+000 1.320283e+002 -5.435637e+001 8.418055e+001 -5.404072e+001 8.332066e+001 -2.072748e+000 -1.582573e+002
9288156250 -2.114479e+000 1.315686e+002 -5.443295e+001 8.345895e+001 -5.389067e+001 8.246785e+001 -2.074357e+000 -1.593866e+002
9306900000 -2.123328e+000 1.311260e+002 -5.441676e+001 8.337974e+001 -5.364369e+001 8.245814e+001 -2.074324e+000 -1.605331e+002
9325643750 -2.132293e+000 1.306744e+002 -5.429250e+001 8.198291e+001 -5.362650e+001 8.092152e+001 -2.075162e+000 -1.616567e+002
9344387500 -2.139676e+000 1.302255e+002 -5.414276e+001 8.241238e+001 -5.361931e+001 8.088749e+001 -2.076083e+000 -1.627770e+002
9363131250 -2.147353e+000 1.297908e+002 -5.394508e+001 8.162800e+001 -5.345118e+001 8.008766e+001 -2.078718e+000 -1.639240e+002
9381875000 -2.157115e+000 1.293545e+002 -5.383199e+001 8.114445e+001 -5.337818e+001 7.956889e+001 -2.079029e+000 -1.650206e+002
9400618750 -2.165317e+000 1.288937e+002 -5.384892e+001 8.151741e+001 -5.344709e+001 7.836356e+001 -2.082953e+000 -1.661375e+002
9419362500 -2.172825e+000 1.284475e+002 -5.394474e+001 8.095689e+001 -5.325495e+001 7.756086e+001 -2.084445e+000 -1.672746e+002
9438106250 -2.181736e+000 1.279749e+002 -5.394023e+001 7.994334e+001 -5.318969e+001 7.662653e+001 -2.082773e+000 -1.683762e+002
9456850000 -2.187762e+000 1.275208e+002 -5.379800e+001 7.785767e+001 -5.312252e+001 7.546277e+001 -2.086813e+000 -1.694819e+002
9475593750 -2.194821e+000 1.270764e+002 -5.362645e+001 7.735451e+001 -5.312365e+001 7.523370e+001 -2.088873e+000 -1.706118e+002
9494337500 -2.206149e+000 1.266142e+002 -5.352938e+001 7.668478e+001 -5.316136e+001 7.457025e+001 -2.088199e+000 -1.716956e+002
9513081250 -2.213539e+000 1.261499e+002 -5.342978e+001 7.530181e+001 -5.314878e+001 7.402614e+001 -2.095202e+000 -1.727818e+002
9531825000 -2.221446e+000 1.256941e+002 -5.343279e+001 7.417027e+001 -5.326004e+001 7.383588e+001 -2.100332e+000 -1.738922e+002
9550568750 -2.230078e+000 1.252260e+002 -5.333741e+001 7.291537e+001 -5.324060e+001 7.226740e+001 -2.103026e+000 -1.749875e+002
9569312500 -2.236563e+000 1.247761e+002 -5.334173e+001 7.198053e+001 -5.313432e+001 7.226957e+001 -2.107847e+000 -1.760750e+002
9588056250 -2.243318e+000 1.243267e+002 -5.324883e+001 7.159566e+001 -5.316081e+001 7.042387e+001 -2.111882e+000 -1.771700e+002
9606800000 -2.254815e+000 1.238837e+002 -5.328503e+001 7.117960e+001 -5.302611e+001 6.998719e+001 -2.112761e+000 -1.782445e+002
9625543750 -2.261924e+000 1.234206e+002 -5.318270e+001 6.938393e+001 -5.312875e+001 6.755062e+001 -2.120188e+000 -1.793176e+002
9644287500 -2.271371e+000 1.229601e+002 -5.313596e+001 6.841476e+001 -5.310407e+001 6.690900e+001 -2.125949e+000 1.795934e+002
9663031250 -2.277446e+000 1.224933e+002 -5.306594e+001 6.703873e+001 -5.315378e+001 6.514280e+001 -2.128419e+000 1.785223e+002
9681775000 -2.284303e+000 1.220268e+002 -5.312280e+001 6.542642e+001 -5.312444e+001 6.336416e+001 -2.135088e+000 1.774492e+002
9700518750 -2.292199e+000 1.215831e+002 -5.329678e+001 6.512073e+001 -5.297200e+001 6.232940e+001 -2.139124e+000 1.763613e+002
9719262500 -2.300946e+000 1.211285e+002 -5.321489e+001 6.404059e+001 -5.302397e+001 6.232472e+001 -2.141850e+000 1.753109e+002
9738006250 -2.307822e+000 1.206703e+002 -5.310846e+001 6.270998e+001 -5.311324e+001 6.218025e+001 -2.149853e+000 1.742462e+002
9756750000 -2.316769e+000 1.201989e+002 -5.324090e+001 6.221367e+001 -5.305478e+001 6.174718e+001 -2.155035e+000 1.731801e+002
9775493750 -2.327625e+000 1.197243e+002 -5.334227e+001 6.042364e+001 -5.288010e+001 6.085046e+001 -2.157601e+000 1.721363e+002
9794237500 -2.336771e+000 1.192630e+002 -5.330227e+001 5.982708e+001 -5.308157e+001 6.105423e+001 -2.161626e+000 1.711293e+002
9812981250 -2.342435e+000 1.188097e+002 -5.322281e+001 5.891159e+001 -5.308672e+001 6.028318e+001 -2.170841e+000 1.700502e+002
9831725000 -2.350121e+000 1.183698e+002 -5.311436e+001 5.724525e+001 -5.303546e+001 6.043002e+001 -2.172215e+000 1.690090e+002
9850468750 -2.361288e+000 1.179101e+002 -5.318367e+001 5.449247e+001 -5.302392e+001 5.932756e+001 -2.179400e+000 1.680084e+002
9869212500 -2.366004e+000 1.174348e+002 -5.318496e+001 5.351114e+001 -5.293936e+001 5.930496e+001 -2.192810e+000 1.669825e+002
9887956250 -2.372746e+000 1.169745e+002 -5.309146e+001 5.310260e+001 -5.297377e+001 5.938416e+001 -2.199554e+000 1.659301e+002
9906700000 -2.382002e+000 1.165193e+002 -5.321938e+001 5.263879e+001 -5.279017e+001 5.731902e+001 -2.204566e+000 1.649052e+002
9925443750 -2.386488e+000 1.160585e+002 -5.319555e+001 5.207604e+001 -5.278156e+001 5.559981e+001 -2.214485e+000 1.638946e+002
9944187500 -2.394871e+000 1.156094e+002 -5.323735e+001 5.193724e+001 -5.264685e+001 5.368396e+001 -2.220893e+000 1.628546e+002
9962931250 -2.406533e+000 1.151574e+002 -5.326424e+001 5.219785e+001 -5.260590e+001 5.344126e+001 -2.225372e+000 1.618343e+002
9981675000 -2.410969e+000 1.146796e+002 -5.321951e+001 5.059669e+001 -5.266597e+001 5.300415e+001 -2.236143e+000 1.608216e+002
10000418750 -2.419656e+000 1.142215e+002 -5.327477e+001 4.864208e+001 -5.294732e+001 5.201129e+001 -2.244039e+000 1.597988e+002
10019162500 -2.428200e+000 1.137666e+002 -5.327101e+001 4.694466e+001 -5.281916e+001 5.170530e+001 -2.249968e+000 1.587727e+002
10037906250 -2.431195e+000 1.132826e+002 -5.313591e+001 4.531158e+001 -5.292286e+001 5.006983e+001 -2.261628e+000 1.577648e+002
10056650000 -2.440257e+000 1.128572e+002 -5.324942e+001 4.449191e+001 -5.287421e+001 4.954490e+001 -2.267448e+000 1.567500e+002
10075393750 -2.452247e+000 1.123896e+002 -5.320694e+001 4.376894e+001 -5.289140e+001 4.882309e+001 -2.276809e+000 1.557306e+002
10094137500 -2.459426e+000 1.118926e+002 -5.326660e+001 4.294729e+001 -5.291282e+001 4.831918e+001 -2.288801e+000 1.547120e+002
10112881250 -2.468738e+000 1.114512e+002 -5.322319e+001 4.190018e+001 -5.289513e+001 4.734074e+001 -2.296688e+000 1.537040e+002
10131625000 -2.475933e+000 1.109713e+002 -5.309376e+001 3.977579e+001 -5.289528e+001 4.665879e+001 -2.307796e+000 1.526980e+002
10150368750 -2.481595e+000 1.104944e+002 -5.313123e+001 3.789469e+001 -5.294565e+001 4.539653e+001 -2.319475e+000 1.516778e+002
10169112500 -2.492656e+000 1.100618e+002 -5.316017e+001 3.685092e+001 -5.295274e+001 4.332512e+001 -2.324885e+000 1.506795e+002
10187856250 -2.503551e+000 1.095760e+002 -5.303471e+001 3.637485e+001 -5.306778e+001 4.281769e+001 -2.335404e+000 1.496971e+002
10206600000 -2.505597e+000 1.090826e+002 -5.311707e+001 3.567395e+001 -5.312297e+001 4.162656e+001 -2.347051e+000 1.486753e+002
10225343750 -2.512109e+000 1.086432e+002 -5.305026e+001 3.540375e+001 -5.311259e+001 4.030068e+001 -2.355624e+000 1.476423e+002
10244087500 -2.524166e+000 1.081549e+002 -5.313027e+001 3.420442e+001 -5.319099e+001 3.903674e+001 -2.364293e+000 1.466789e+002
10262831250 -2.531645e+000 1.076672e+002 -5.315013e+001 3.351992e+001 -5.313650e+001 3.786236e+001 -2.380589e+000 1.456824e+002
10281575000 -2.539876e+000 1.072372e+002 -5.284731e+001 3.380630e+001 -5.310015e+001 3.788010e+001 -2.388696e+000 1.446548e+002
10300318750 -2.553287e+000 1.067402e+002 -5.275996e+001 3.321912e+001 -5.310174e+001 3.659712e+001 -2.396579e+000 1.436595e+002
10319062500 -2.559529e+000 1.062460e+002 -5.302879e+001 3.195797e+001 -5.314531e+001 3.503858e+001 -2.409099e+000 1.426829e+002
10337806250 -2.565316e+000 1.057839e+002 -5.300982e+001 3.080077e+001 -5.316288e+001 3.439712e+001 -2.421102e+000 1.416841e+002
10356550000 -2.576165e+000 1.052996e+002 -5.303056e+001 2.950655e+001 -5.317115e+001 3.469332e+001 -2.430774e+000 1.406854e+002
10375293750 -2.583147e+000 1.048274e+002 -5.305796e+001 2.797304e+001 -5.345108e+001 3.341032e+001 -2.443763e+000 1.397246e+002
10394037500 -2.591390e+000 1.043694e+002 -5.305847e+001 2.525672e+001 -5.350187e+001 3.121664e+001 -2.458101e+000 1.387284e+002
10412781250 -2.602727e+000 1.038792e+002 -5.312934e+001 2.474687e+001 -5.337614e+001 2.986790e+001 -2.468947e+000 1.377436e+002
10431525000 -2.606653e+000 1.033831e+002 -5.317136e+001 2.319349e+001 -5.315358e+001 2.804873e+001 -2.480880e+000 1.367748e+002
10450268750 -2.614136e+000 1.029122e+002 -5.330727e+001 2.136453e+001 -5.323185e+001 2.682428e+001 -2.494823e+000 1.357832e+002
10469012500 -2.622449e+000 1.024385e+002 -5.344362e+001 2.076200e+001 -5.317645e+001 2.561129e+001 -2.505905e+000 1.347991e+002
10487756250 -2.630828e+000 1.019544e+002 -5.338183e+001 2.039364e+001 -5.316995e+001 2.472774e+001 -2.519783e+000 1.338532e+002
10506500000 -2.638940e+000 1.015010e+002 -5.363566e+001 1.985296e+001 -5.324596e+001 2.227622e+001 -2.531461e+000 1.328675e+002
10525243750 -2.645898e+000 1.010028e+002 -5.362195e+001 1.878260e+001 -5.310563e+001 2.231896e+001 -2.540904e+000 1.319053e+002
10543987500 -2.651366e+000 1.005084e+002 -5.368991e+001 1.777011e+001 -5.312425e+001 2.140825e+001 -2.552874e+000 1.309628e+002
10562731250 -2.659766e+000 1.000400e+002 -5.378150e+001 1.623903e+001 -5.321470e+001 2.044950e+001 -2.567398e+000 1.299931e+002
10581475000 -2.665987e+000 9.956063e+001 -5.383749e+001 1.600981e+001 -5.335936e+001 1.932761e+001 -2.578303e+000 1.290320e+002
10600218750 -2.673189e+000 9.908456e+001 -5.396753e+001 1.511100e+001 -5.339489e+001 1.883838e+001 -2.593518e+000 1.281017e+002
10618962500 -2.682410e+000 9.861500e+001 -5.424317e+001 1.337321e+001 -5.326477e+001 1.769158e+001 -2.608333e+000 1.271061e+002
10637706250 -2.689030e+000 9.811205e+001 -5.417093e+001 1.282991e+001 -5.342101e+001 1.587652e+001 -2.620740e+000 1.261635e+002
10656450000 -2.695502e+000 9.762648e+001 -5.424805e+001 1.052127e+001 -5.329897e+001 1.506359e+001 -2.634972e+000 1.252317e+002
10675193750 -2.703032e+000 9.714072e+001 -5.430229e+001 9.670090e+000 -5.332086e+001 1.420938e+001 -2.648016e+000 1.242573e+002
10693937500 -2.709905e+000 9.664568e+001 -5.439368e+001 8.080987e+000 -5.343240e+001 1.364917e+001 -2.657879e+000 1.233165e+002
10712681250 -2.716007e+000 9.619487e+001 -5.449633e+001 6.794418e+000 -5.351228e+001 1.110732e+001 -2.672127e+000 1.224017e+002
10731425000 -2.727371e+000 9.571868e+001 -5.454733e+001 5.414344e+000 -5.354701e+001 9.886865e+000 -2.688664e+000 1.214293e+002
10750168750 -2.733954e+000 9.521105e+001 -5.446269e+001 3.975802e+000 -5.361126e+001 8.401378e+000 -2.699843e+000 1.204966e+002
10768912500 -2.740211e+000 9.471497e+001 -5.462453e+001 2.267637e+000 -5.373686e+001 6.693749e+000 -2.715214e+000 1.195715e+002
10787656250 -2.749352e+000 9.422979e+001 -5.482227e+001 3.394849e-002 -5.389094e+001 4.769173e+000 -2.729743e+000 1.186052e+002
10806400000 -2.754145e+000 9.372613e+001 -5.496445e+001 -1.262984e+000 -5.395931e+001 3.405644e+000 -2.740475e+000 1.176757e+002
10825143750 -2.757850e+000 9.325077e+001 -5.517445e+001 -1.929776e+000 -5.403797e+001 2.640335e+000 -2.754421e+000 1.167640e+002
10843887500 -2.769624e+000 9.275864e+001 -5.517812e+001 -2.560082e+000 -5.427320e+001 5.865352e-001 -2.766736e+000 1.158036e+002
10862631250 -2.778353e+000 9.223794e+001 -5.518629e+001 -2.520777e+000 -5.447540e+001 1.691054e-001 -2.778630e+000 1.148905e+002
10881375000 -2.786267e+000 9.174188e+001 -5.541713e+001 -2.084838e+000 -5.452729e+001 -2.030681e-001 -2.794250e+000 1.139722e+002
10900118750 -2.795557e+000 9.124115e+001 -5.560747e+001 -4.270289e+000 -5.473196e+001 -2.085462e+000 -2.809305e+000 1.130219e+002
10918862500 -2.800905e+000 9.072599e+001 -5.574047e+001 -6.290548e+000 -5.475520e+001 -3.258576e+000 -2.822518e+000 1.120950e+002
10937606250 -2.807349e+000 9.023730e+001 -5.571107e+001 -5.719033e+000 -5.495725e+001 -3.185811e+000 -2.839550e+000 1.111753e+002
10956350000 -2.818195e+000 8.973943e+001 -5.587883e+001 -6.347325e+000 -5.507208e+001 -4.184984e+000 -2.853441e+000 1.102176e+002
10975093750 -2.827410e+000 8.922800e+001 -5.582807e+001 -7.221552e+000 -5.521563e+001 -4.710865e+000 -2.867396e+000 1.093118e+002
10993837500 -2.833891e+000 8.871667e+001 -5.603590e+001 -7.681011e+000 -5.542031e+001 -6.765352e+000 -2.884458e+000 1.083817e+002
11012581250 -2.843114e+000 8.821319e+001 -5.622689e+001 -9.561155e+000 -5.538862e+001 -8.453373e+000 -2.896436e+000 1.074480e+002
11031325000 -2.845809e+000 8.769926e+001 -5.643316e+001 -1.075547e+001 -5.574065e+001 -1.054716e+001 -2.911104e+000 1.065426e+002
11050068750 -2.853691e+000 8.722046e+001 -5.629003e+001 -1.062879e+001 -5.606705e+001 -1.003847e+001 -2.928367e+000 1.056219e+002
11068812500 -2.865554e+000 8.671622e+001 -5.637860e+001 -1.048949e+001 -5.615744e+001 -1.041232e+001 -2.939699e+000 1.046755e+002
11087556250 -2.871046e+000 8.619300e+001 -5.695001e+001 -1.097229e+001 -5.642973e+001 -1.218414e+001 -2.955817e+000 1.037896e+002
11106300000 -2.880328e+000 8.570514e+001 -5.712499e+001 -1.211731e+001 -5.653534e+001 -1.249643e+001 -2.974485e+000 1.028587e+002
11125043750 -2.888110e+000 8.520187e+001 -5.718776e+001 -1.249075e+001 -5.656565e+001 -1.471030e+001 -2.987941e+000 1.019268e+002
11143787500 -2.892603e+000 8.466599e+001 -5.755156e+001 -1.443054e+001 -5.665250e+001 -1.567681e+001 -3.005129e+000 1.010267e+002
11162531250 -2.902774e+000 8.419698e+001 -5.761890e+001 -1.499338e+001 -5.696262e+001 -1.681835e+001 -3.019985e+000 1.000947e+002
11181275000 -2.911438e+000 8.366783e+001 -5.782411e+001 -1.554269e+001 -5.708988e+001 -1.683248e+001 -3.030302e+000 9.916750e+001
11200018750 -2.917898e+000 8.317011e+001 -5.799710e+001 -1.482175e+001 -5.748479e+001 -1.499895e+001 -3.045233e+000 9.828925e+001
11218762500 -2.926855e+000 8.266780e+001 -5.805741e+001 -1.420847e+001 -5.742743e+001 -1.488993e+001 -3.065143e+000 9.736828e+001
11237506250 -2.935168e+000 8.214238e+001 -5.825033e+001 -1.516637e+001 -5.747471e+001 -1.372916e+001 -3.078854e+000 9.644730e+001
11256250000 -2.942331e+000 8.165323e+001 -5.849983e+001 -1.488288e+001 -5.779196e+001 -1.581854e+001 -3.095667e+000 9.555869e+001
11274993750 -2.953770e+000 8.117696e+001 -5.877325e+001 -1.495506e+001 -5.753989e+001 -1.499833e+001 -3.116433e+000 9.463799e+001
11293737500 -2.960558e+000 8.064502e+001 -5.899485e+001 -1.369189e+001 -5.757522e+001 -1.592785e+001 -3.129494e+000 9.371005e+001
11312481250 -2.966008e+000 8.013480e+001 -5.910217e+001 -1.480112e+001 -5.832351e+001 -1.243155e+001 -3.145261e+000 9.284282e+001
11331225000 -2.977840e+000 7.962830e+001 -5.926320e+001 -1.433850e+001 -5.835811e+001 -1.110463e+001 -3.162056e+000 9.191125e+001
11349968750 -2.983346e+000 7.909194e+001 -5.964174e+001 -1.209885e+001 -5.896922e+001 -7.822546e+000 -3.175581e+000 9.100089e+001
11368712500 -2.987055e+000 7.859753e+001 -5.975998e+001 -1.237304e+001 -5.893851e+001 -9.482335e+000 -3.192010e+000 9.011710e+001
11387456250 -2.998281e+000 7.810464e+001 -5.975314e+001 -1.326961e+001 -5.915314e+001 -8.520565e+000 -3.210090e+000 8.920460e+001
11406200000 -3.004673e+000 7.755434e+001 -5.981705e+001 -1.289080e+001 -5.920683e+001 -1.057535e+001 -3.225504e+000 8.829099e+001
11424943750 -3.010486e+000 7.705887e+001 -5.977961e+001 -1.493868e+001 -5.914745e+001 -9.294991e+000 -3.242671e+000 8.739986e+001
11443687500 -3.018916e+000 7.654238e+001 -5.986356e+001 -1.199166e+001 -5.992318e+001 -6.197986e+000 -3.259744e+000 8.647392e+001
11462431250 -3.025181e+000 7.599935e+001 -5.997560e+001 -1.237494e+001 -6.024889e+001 -5.689378e+000 -3.274479e+000 8.556911e+001
11481175000 -3.030566e+000 7.549813e+001 -6.022836e+001 -1.274981e+001 -6.079200e+001 -4.769767e+000 -3.290653e+000 8.467052e+001
11499918750 -3.038970e+000 7.498159e+001 -6.026016e+001 -1.331049e+001 -6.089680e+001 -5.372672e+000 -3.308829e+000 8.374080e+001
11518662500 -3.045165e+000 7.443665e+001 -6.011992e+001 -1.765559e+001 -6.125704e+001 -5.075753e+000 -3.322115e+000 8.282103e+001
11537406250 -3.049899e+000 7.391370e+001 -5.997320e+001 -1.613137e+001 -6.137540e+001 -7.191708e+000 -3.338854e+000 8.193085e+001
11556150000 -3.058344e+000 7.336652e+001 -6.018831e+001 -1.478411e+001 -6.153592e+001 -5.653967e+000 -3.354720e+000 8.100427e+001
11574893750 -3.063496e+000 7.281821e+001 -6.006845e+001 -1.726267e+001 -6.150496e+001 -6.778208e+000 -3.369554e+000 8.009784e+001
11593637500 -3.065796e+000 7.230873e+001 -6.043448e+001 -1.883414e+001 -6.147461e+001 -5.995521e+000 -3.387567e+000 7.920374e+001
11612381250 -3.076794e+000 7.177654e+001 -6.027526e+001 -1.797650e+001 -6.167128e+001 -5.862883e+000 -3.406628e+000 7.827578e+001
11631125000 -3.081073e+000 7.121100e+001 -6.026619e+001 -1.935346e+001 -6.158982e+001 -8.160260e+000 -3.420984e+000 7.737341e+001
11649868750 -3.086043e+000 7.070937e+001 -6.037055e+001 -1.921096e+001 -6.181613e+001 -7.538116e+000 -3.439145e+000 7.647459e+001
11668612500 -3.093426e+000 7.014777e+001 -6.030534e+001 -1.849320e+001 -6.249645e+001 -8.130986e+000 -3.454149e+000 7.553472e+001
11687356250 -3.097404e+000 6.958656e+001 -6.045209e+001 -1.872401e+001 -6.244622e+001 -6.981359e+000 -3.469125e+000 7.463706e+001
11706100000 -3.102608e+000 6.907523e+001 -6.051561e+001 -1.960137e+001 -6.301733e+001 -1.000701e+001 -3.489287e+000 7.372405e+001
11724843750 -3.113252e+000 6.852724e+001 -6.077313e+001 -1.955658e+001 -6.299203e+001 -1.213409e+001 -3.506314e+000 7.278659e+001
11743587500 -3.117806e+000 6.797655e+001 -6.054795e+001 -1.853487e+001 -6.239604e+001 -1.819346e+001 -3.520713e+000 7.188286e+001
11762331250 -3.123967e+000 6.746091e+001 -6.031061e+001 -1.603366e+001 -6.263560e+001 -1.966785e+001 -3.541637e+000 7.098831e+001
11781075000 -3.134357e+000 6.688587e+001 -6.002019e+001 -1.792204e+001 -6.241463e+001 -2.627668e+001 -3.558950e+000 7.005168e+001
11799818750 -3.141608e+000 6.630925e+001 -5.997877e+001 -1.928941e+001 -6.252047e+001 -2.741182e+001 -3.576689e+000 6.912820e+001
11818562500 -3.144204e+000 6.579559e+001 -6.011594e+001 -1.694364e+001 -6.258037e+001 -2.886041e+001 -3.593125e+000 6.821946e+001
11837306250 -3.157472e+000 6.526357e+001 -6.017827e+001 -1.746474e+001 -6.261388e+001 -2.749116e+001 -3.609181e+000 6.730523e+001
11856050000 -3.163798e+000 6.467586e+001 -6.045773e+001 -1.479564e+001 -6.280392e+001 -2.754491e+001 -3.626347e+000 6.640406e+001
11874793750 -3.168344e+000 6.419823e+001 -6.052636e+001 -1.486674e+001 -6.214086e+001 -3.244295e+001 -3.644912e+000 6.553198e+001
11893537500 -3.188234e+000 6.362477e+001 -6.052076e+001 -1.454578e+001 -6.194906e+001 -3.852330e+001 -3.669801e+000 6.460615e+001
11912281250 -3.184939e+000 6.303880e+001 -6.101542e+001 -1.496665e+001 -6.140950e+001 -4.417382e+001 -3.684715e+000 6.365868e+001
11931025000 -3.191756e+000 6.257892e+001 -6.124303e+001 -1.744768e+001 -6.117865e+001 -4.517749e+001 -3.702932e+000 6.278744e+001
11949768750 -3.212811e+000 6.199996e+001 -6.188972e+001 -1.557592e+001 -6.134948e+001 -4.570446e+001 -3.728535e+000 6.185914e+001
11968512500 -3.210306e+000 6.140257e+001 -6.230101e+001 -1.858248e+001 -6.138518e+001 -4.365002e+001 -3.740829e+000 6.090649e+001
11987256250 -3.217257e+000 6.093725e+001 -6.228861e+001 -2.111824e+001 -6.191715e+001 -4.151451e+001 -3.761699e+000 6.004535e+001
12006000000 -3.235193e+000 6.034664e+001 -6.215961e+001 -1.655499e+001 -6.227285e+001 -3.028428e+001 -3.788041e+000 5.909804e+001
12024743750 -3.230863e+000 5.975570e+001 -6.215631e+001 -1.438701e+001 -6.263689e+001 -1.792944e+001 -3.802453e+000 5.814743e+001
12043487500 -3.240301e+000 5.928776e+001 -6.256191e+001 -1.353227e+001 -6.242517e+001 -2.273212e+000 -3.822725e+000 5.727444e+001
12062231250 -3.258186e+000 5.869773e+001 -6.261860e+001 -1.165990e+001 -6.259859e+001 1.746716e+001 -3.848256e+000 5.631709e+001
12080975000 -3.255034e+000 5.809928e+001 -6.287031e+001 -1.226189e+001 -6.283501e+001 3.147993e+001 -3.858955e+000 5.536753e+001
12099718750 -3.265954e+000 5.762590e+001 -6.278850e+001 -1.059659e+001 -6.252064e+001 4.190515e+001 -3.880965e+000 5.451614e+001
12118462500 -3.278506e+000 5.701683e+001 -6.238530e+001 -1.277603e+001 -6.246993e+001 5.984522e+001 -3.907376e+000 5.354955e+001
12137206250 -3.273508e+000 5.645399e+001 -6.274176e+001 -1.489534e+001 -6.220514e+001 7.995568e+001 -3.918606e+000 5.261168e+001
12155950000 -3.284499e+000 5.597762e+001 -6.251766e+001 -1.459489e+001 -6.231309e+001 9.525456e+001 -3.943222e+000 5.173722e+001
12174693750 -3.298242e+000 5.537320e+001 -6.247855e+001 -1.650169e+001 -6.268663e+001 1.126306e+002 -3.967499e+000 5.075462e+001
12193437500 -3.294327e+000 5.479698e+001 -6.303510e+001 -2.066039e+001 -6.247593e+001 1.274641e+002 -3.979550e+000 4.981100e+001
12212181250 -3.306412e+000 5.430574e+001 -6.402820e+001 -2.536753e+001 -6.271465e+001 1.501993e+002 -4.004960e+000 4.894410e+001
12230925000 -3.310594e+000 5.371134e+001 -6.456523e+001 -2.318156e+001 -6.270253e+001 1.680478e+002 -4.025913e+000 4.798525e+001
12249668750 -3.314381e+000 5.316458e+001 -6.447728e+001 -2.233292e+001 -6.275881e+001 -1.789223e+002 -4.044994e+000 4.704617e+001
12268412500 -3.326616e+000 5.263729e+001 -6.485213e+001 -1.909420e+001 -6.295488e+001 -1.635709e+002 -4.070105e+000 4.612811e+001
12287156250 -3.331110e+000 5.203511e+001 -6.471194e+001 -2.077239e+001 -6.324308e+001 -1.478288e+002 -4.090636e+000 4.512799e+001
12305900000 -3.335465e+000 5.145734e+001 -6.469670e+001 -2.387639e+001 -6.333273e+001 -1.292936e+002 -4.106406e+000 4.419491e+001
12324643750 -3.343571e+000 5.091898e+001 -6.480205e+001 -2.383179e+001 -6.308521e+001 -1.084172e+002 -4.127633e+000 4.327853e+001
12343387500 -3.352349e+000 5.033472e+001 -6.457630e+001 -2.526030e+001 -6.350241e+001 -8.448550e+001 -4.151601e+000 4.230973e+001
12362131250 -3.355896e+000 4.976190e+001 -6.478346e+001 -2.327094e+001 -6.379499e+001 -6.662920e+001 -4.171550e+000 4.137959e+001
12380875000 -3.364321e+000 4.924942e+001 -6.406326e+001 -2.195534e+001 -6.361727e+001 -5.083841e+001 -4.192860e+000 4.044705e+001
12399618750 -3.374313e+000 4.867839e+001 -6.391472e+001 -1.933582e+001 -6.391068e+001 -3.720529e+001 -4.215662e+000 3.948216e+001
12418362500 -3.380431e+000 4.811116e+001 -6.442175e+001 -1.345340e+001 -6.322874e+001 -2.504768e+001 -4.232811e+000 3.855205e+001
12437106250 -3.391231e+000 4.757974e+001 -6.482928e+001 -1.456108e+001 -6.338795e+001 -2.266645e+001 -4.255407e+000 3.762729e+001
12455850000 -3.400118e+000 4.699466e+001 -6.477180e+001 -1.714169e+001 -6.347303e+001 -2.253005e+001 -4.279083e+000 3.664869e+001
12474593750 -3.405218e+000 4.643700e+001 -6.515104e+001 -1.647772e+001 -6.360888e+001 -2.349172e+001 -4.298745e+000 3.571757e+001
12493337500 -3.417706e+000 4.590093e+001 -6.560496e+001 -2.117862e+001 -6.356349e+001 -2.551479e+001 -4.322723e+000 3.477436e+001
12512081250 -3.427628e+000 4.531579e+001 -6.539678e+001 -2.183064e+001 -6.352822e+001 -2.754257e+001 -4.342490e+000 3.380186e+001
12530825000 -3.434417e+000 4.474598e+001 -6.560078e+001 -2.174749e+001 -6.354385e+001 -1.979688e+001 -4.362994e+000 3.286243e+001
12549568750 -3.447057e+000 4.419279e+001 -6.607339e+001 -1.799979e+001 -6.426657e+001 -1.427641e+001 -4.387553e+000 3.190877e+001
12568312500 -3.454633e+000 4.357684e+001 -6.598813e+001 -1.622202e+001 -6.422160e+001 -1.408473e+001 -4.410031e+000 3.091522e+001
12587056250 -3.459833e+000 4.298160e+001 -6.614342e+001 -1.796571e+001 -6.430425e+001 -1.066832e+001 -4.426274e+000 2.993153e+001
12605800000 -3.467717e+000 4.244846e+001 -6.679434e+001 -1.691353e+001 -6.400769e+001 -1.306318e+001 -4.446148e+000 2.899768e+001
12624543750 -3.483608e+000 4.188038e+001 -6.671373e+001 -1.525170e+001 -6.420818e+001 -1.016491e+001 -4.468139e+000 2.805216e+001
12643287500 -3.488033e+000 4.127289e+001 -6.613165e+001 -1.237372e+001 -6.428996e+001 -1.396536e+001 -4.484076e+000 2.706511e+001
12662031250 -3.499514e+000 4.073933e+001 -6.569006e+001 -1.718429e+001 -6.433672e+001 -1.239287e+001 -4.506623e+000 2.615970e+001
12680775000 -3.508692e+000 4.018762e+001 -6.604443e+001 -2.757033e+001 -6.427106e+001 -1.028271e+001 -4.531474e+000 2.516120e+001
12699518750 -3.517407e+000 3.958698e+001 -6.578951e+001 -3.171268e+001 -6.445838e+001 -9.968653e+000 -4.543605e+000 2.420534e+001
12718262500 -3.525002e+000 3.906146e+001 -6.603429e+001 -3.108884e+001 -6.455100e+001 -1.386344e+001 -4.569237e+000 2.330186e+001
12737006250 -3.538293e+000 3.848792e+001 -6.611233e+001 -3.216335e+001 -6.469497e+001 -1.368509e+001 -4.592047e+000 2.229195e+001
12755750000 -3.544297e+000 3.789080e+001 -6.592639e+001 -3.486915e+001 -6.462272e+001 -1.675726e+001 -4.603992e+000 2.136599e+001
12774493750 -3.552993e+000 3.735514e+001 -6.560808e+001 -3.408087e+001 -6.422693e+001 -2.470290e+001 -4.631888e+000 2.046038e+001
12793237500 -3.563687e+000 3.678838e+001 -6.549043e+001 -3.570272e+001 -6.424994e+001 -2.487217e+001 -4.652467e+000 1.942218e+001
12811981250 -3.571575e+000 3.616657e+001 -6.598643e+001 -3.677961e+001 -6.402399e+001 -2.475900e+001 -4.665039e+000 1.848538e+001
12830725000 -3.578809e+000 3.565164e+001 -6.624692e+001 -3.865024e+001 -6.451420e+001 -2.379465e+001 -4.691864e+000 1.753943e+001
12849468750 -3.588946e+000 3.505517e+001 -6.590799e+001 -4.313417e+001 -6.443585e+001 -2.702686e+001 -4.708630e+000 1.652884e+001
12868212500 -3.595627e+000 3.446861e+001 -6.608437e+001 -4.252934e+001 -6.420201e+001 -2.589730e+001 -4.719417e+000 1.562187e+001
12886956250 -3.603201e+000 3.393170e+001 -6.608860e+001 -4.220244e+001 -6.399112e+001 -2.691104e+001 -4.748465e+000 1.467943e+001
12905700000 -3.613999e+000 3.334724e+001 -6.539106e+001 -4.650301e+001 -6.377742e+001 -3.028156e+001 -4.764356e+000 1.365901e+001
12924443750 -3.620727e+000 3.276670e+001 -6.523361e+001 -4.256127e+001 -6.367883e+001 -3.278127e+001 -4.776378e+000 1.272601e+001
12943187500 -3.627794e+000 3.223942e+001 -6.522346e+001 -4.265524e+001 -6.363597e+001 -2.489696e+001 -4.804104e+000 1.175595e+001
12961931250 -3.639163e+000 3.165585e+001 -6.497485e+001 -4.874211e+001 -6.330496e+001 -1.469438e+001 -4.812559e+000 1.075117e+001
12980675000 -3.642929e+000 3.108773e+001 -6.457230e+001 -5.316486e+001 -6.249340e+001 -9.901870e+000 -4.824636e+000 9.854616e+000
12999418750 -3.653106e+000 3.056297e+001 -6.405995e+001 -5.485738e+001 -6.302248e+001 7.071289e+000 -4.850970e+000 8.912249e+000
13018162500 -3.665824e+000 2.998808e+001 -6.399131e+001 -5.808036e+001 -6.284862e+001 1.816496e+001 -4.863415e+000 7.956264e+000
13036906250 -3.674713e+000 2.939395e+001 -6.357902e+001 -6.191183e+001 -6.280313e+001 3.130495e+001 -4.881272e+000 7.019809e+000
13055650000 -3.677125e+000 2.883888e+001 -6.312334e+001 -6.103728e+001 -6.283046e+001 3.913070e+001 -4.901370e+000 6.020009e+000
13074393750 -3.690830e+000 2.827952e+001 -6.271778e+001 -6.411781e+001 -6.209138e+001 5.019088e+001 -4.910250e+000 5.098934e+000
13093137500 -3.698378e+000 2.768893e+001 -6.295934e+001 -6.901752e+001 -6.206958e+001 6.305991e+001 -4.930200e+000 4.156680e+000
13111881250 -3.705009e+000 2.709595e+001 -6.283923e+001 -6.652804e+001 -6.188631e+001 7.464063e+001 -4.948644e+000 3.214496e+000
13130625000 -3.711694e+000 2.654258e+001 -6.282890e+001 -7.033167e+001 -6.184155e+001 8.687060e+001 -4.961994e+000 2.231316e+000
13149368750 -3.721858e+000 2.597132e+001 -6.252731e+001 -7.338318e+001 -6.119398e+001 9.993604e+001 -4.975753e+000 1.272242e+000
13168112500 -3.727590e+000 2.539724e+001 -6.287073e+001 -7.649271e+001 -6.106776e+001 1.111207e+002 -4.990229e+000 3.039512e-001
13186856250 -3.736924e+000 2.486359e+001 -6.307333e+001 -7.985632e+001 -6.087634e+001 1.250852e+002 -5.000961e+000 -6.650022e-001
13205600000 -3.747839e+000 2.428766e+001 -6.322045e+001 -8.521813e+001 -6.130823e+001 1.437629e+002 -5.013521e+000 -1.598721e+000
13224343750 -3.754591e+000 2.369974e+001 -6.312915e+001 -9.161524e+001 -6.140968e+001 1.660206e+002 -5.028190e+000 -2.533541e+000
13243087500 -3.760297e+000 2.317356e+001 -6.253162e+001 -9.679588e+001 -6.119210e+001 -1.684696e+002 -5.039083e+000 -3.508853e+000
13261831250 -3.770401e+000 2.257234e+001 -6.274306e+001 -9.591979e+001 -6.053281e+001 -1.452969e+002 -5.051482e+000 -4.443867e+000
13280575000 -3.776545e+000 2.201748e+001 -6.247612e+001 -8.886210e+001 -6.093511e+001 -1.169022e+002 -5.063315e+000 -5.396128e+000
13299318750 -3.783218e+000 2.146234e+001 -6.236310e+001 -7.731816e+001 -6.076406e+001 -9.196286e+001 -5.072983e+000 -6.363229e+000
13318062500 -3.795179e+000 2.087488e+001 -6.214018e+001 -6.802312e+001 -6.070232e+001 -6.574614e+001 -5.082777e+000 -7.276461e+000
13336806250 -3.801607e+000 2.031517e+001 -6.191450e+001 -5.717728e+001 -6.085140e+001 -3.674462e+001 -5.095970e+000 -8.221724e+000
13355550000 -3.807340e+000 1.975488e+001 -6.142492e+001 -5.049253e+001 -6.093141e+001 -1.250438e+001 -5.106094e+000 -9.173331e+000
13374293750 -3.816597e+000 1.916799e+001 -6.141637e+001 -4.382174e+001 -6.057858e+001 6.417197e+000 -5.114548e+000 -1.008449e+001
13393037500 -3.822405e+000 1.861084e+001 -6.161877e+001 -3.425120e+001 -6.049875e+001 1.673955e+001 -5.125002e+000 -1.104101e+001
13411781250 -3.833786e+000 1.804537e+001 -6.154903e+001 -2.754120e+001 -6.030121e+001 2.642866e+001 -5.133858e+000 -1.197358e+001
13430525000 -3.843699e+000 1.747740e+001 -6.174487e+001 -1.660152e+001 -5.967441e+001 3.011250e+001 -5.142554e+000 -1.288954e+001
13449268750 -3.848178e+000 1.693247e+001 -6.153844e+001 -6.412368e+000 -6.006801e+001 4.031340e+001 -5.153392e+000 -1.383402e+001
13468012500 -3.857443e+000 1.637848e+001 -6.135006e+001 3.723157e+000 -6.012366e+001 5.188529e+001 -5.160235e+000 -1.476553e+001
13486756250 -3.863962e+000 1.579797e+001 -6.134912e+001 9.106032e+000 -6.005916e+001 6.492752e+001 -5.168604e+000 -1.567418e+001
13505500000 -3.868020e+000 1.526949e+001 -6.127366e+001 2.090516e+001 -6.035799e+001 7.673891e+001 -5.179167e+000 -1.662933e+001
13524243750 -3.878118e+000 1.471071e+001 -6.093390e+001 3.470107e+001 -6.012280e+001 8.394186e+001 -5.183411e+000 -1.755028e+001
13542987500 -3.886247e+000 1.413603e+001 -6.098325e+001 4.615876e+001 -6.015158e+001 9.464211e+001 -5.191355e+000 -1.846847e+001
13561731250 -3.892349e+000 1.357610e+001 -6.087367e+001 5.612496e+001 -5.979564e+001 1.056620e+002 -5.201847e+000 -1.941571e+001
13580475000 -3.902330e+000 1.300770e+001 -6.072145e+001 6.515800e+001 -5.981643e+001 1.170361e+002 -5.206448e+000 -2.033653e+001
13599218750 -3.906760e+000 1.243746e+001 -6.022915e+001 7.476339e+001 -5.961008e+001 1.243864e+002 -5.213683e+000 -2.124121e+001
13617962500 -3.910310e+000 1.189844e+001 -5.977834e+001 8.481215e+001 -5.987043e+001 1.333931e+002 -5.219569e+000 -2.216935e+001
13636706250 -3.921561e+000 1.133864e+001 -5.960780e+001 9.407079e+001 -5.909444e+001 1.367186e+002 -5.223217e+000 -2.305810e+001
13655450000 -3.929582e+000 1.075810e+001 -5.939880e+001 1.049896e+002 -5.887443e+001 1.331626e+002 -5.231355e+000 -2.395510e+001
13674193750 -3.938184e+000 1.020028e+001 -5.921861e+001 1.156608e+002 -5.928610e+001 1.230291e+002 -5.238999e+000 -2.488795e+001
13692937500 -3.948033e+000 9.635408e+000 -5.867799e+001 1.197788e+002 -5.935212e+001 1.187414e+002 -5.242611e+000 -2.578694e+001
13711681250 -3.952386e+000 9.063499e+000 -5.896048e+001 1.172465e+002 -5.927727e+001 1.146940e+002 -5.250342e+000 -2.670271e+001
13730425000 -3.956693e+000 8.541605e+000 -5.893152e+001 1.118328e+002 -5.951780e+001 1.130639e+002 -5.254596e+000 -2.761641e+001
13749168750 -3.965649e+000 8.012153e+000 -5.916896e+001 1.074232e+002 -5.934932e+001 1.079149e+002 -5.256716e+000 -2.851134e+001
13767912500 -3.971570e+000 7.434656e+000 -5.947904e+001 9.881400e+001 -5.918263e+001 1.018587e+002 -5.260856e+000 -2.940814e+001
13786656250 -3.977269e+000 6.905026e+000 -5.955185e+001 9.434592e+001 -5.906333e+001 9.762521e+001 -5.264338e+000 -3.032396e+001
13805400000 -3.988093e+000 6.352478e+000 -5.950937e+001 9.351079e+001 -5.928164e+001 9.228559e+001 -5.266194e+000 -3.122368e+001
13824143750 -3.989033e+000 5.802866e+000 -5.944835e+001 8.771012e+001 -5.949840e+001 9.027502e+001 -5.273345e+000 -3.212732e+001
13842887500 -3.993963e+000 5.291164e+000 -5.965152e+001 8.647348e+001 -6.040394e+001 8.951978e+001 -5.274650e+000 -3.304381e+001
13861631250 -4.002705e+000 4.736290e+000 -5.964151e+001 7.938071e+001 -6.081679e+001 8.368346e+001 -5.273743e+000 -3.393832e+001
13880375000 -4.008176e+000 4.190339e+000 -5.989767e+001 7.400182e+001 -6.044983e+001 7.759212e+001 -5.276528e+000 -3.484464e+001
13899118750 -4.014329e+000 3.657458e+000 -6.013377e+001 7.261195e+001 -6.055436e+001 7.440701e+001 -5.277812e+000 -3.576110e+001
13917862500 -4.024355e+000 3.107513e+000 -6.015879e+001 7.513310e+001 -6.084095e+001 7.604935e+001 -5.275685e+000 -3.664914e+001
13936606250 -4.026406e+000 2.563589e+000 -6.031077e+001 7.378010e+001 -6.088744e+001 7.397373e+001 -5.277110e+000 -3.755288e+001
13955350000 -4.031610e+000 2.060920e+000 -6.061535e+001 7.147460e+001 -6.103383e+001 7.538496e+001 -5.274382e+000 -3.845090e+001
13974093750 -4.040457e+000 1.529028e+000 -6.069171e+001 7.395909e+001 -6.127917e+001 7.054071e+001 -5.271030e+000 -3.932883e+001
13992837500 -4.042774e+000 1.005642e+000 -6.081733e+001 8.005068e+001 -6.160266e+001 7.233379e+001 -5.270991e+000 -4.021965e+001
14011581250 -4.049109e+000 4.875990e-001 -6.086602e+001 7.825767e+001 -6.184351e+001 7.444543e+001 -5.266897e+000 -4.111126e+001
14030325000 -4.057227e+000 -6.914395e-002 -6.106239e+001 8.390359e+001 -6.204681e+001 7.857560e+001 -5.264185e+000 -4.200340e+001
14049068750 -4.057312e+000 -6.115478e-001 -6.192866e+001 8.677567e+001 -6.238109e+001 7.752055e+001 -5.263322e+000 -4.291615e+001
14067812500 -4.061323e+000 -1.119382e+000 -6.240979e+001 8.886627e+001 -6.317635e+001 8.319553e+001 -5.256809e+000 -4.381934e+001
14086556250 -4.065606e+000 -1.644428e+000 -6.247144e+001 9.024316e+001 -6.349184e+001 8.561376e+001 -5.252906e+000 -4.472172e+001
14105300000 -4.066098e+000 -2.176175e+000 -6.328374e+001 9.627898e+001 -6.340464e+001 9.476023e+001 -5.250636e+000 -4.562449e+001
14124043750 -4.071239e+000 -2.700794e+000 -6.409431e+001 9.554432e+001 -6.341529e+001 1.086271e+002 -5.244941e+000 -4.652802e+001
14142787500 -4.075391e+000 -3.255435e+000 -6.384208e+001 9.683997e+001 -6.354583e+001 1.256994e+002 -5.239672e+000 -4.742809e+001
14161531250 -4.074017e+000 -3.794299e+000 -6.392781e+001 9.449717e+001 -6.321879e+001 1.438196e+002 -5.236796e+000 -4.834361e+001
14180275000 -4.076307e+000 -4.317461e+000 -6.403857e+001 9.372392e+001 -6.328484e+001 1.645259e+002 -5.230760e+000 -4.924921e+001
14199018750 -4.076660e+000 -4.847713e+000 -6.417036e+001 9.633939e+001 -6.377811e+001 -1.722826e+002 -5.225135e+000 -5.017101e+001
14217762500 -4.077110e+000 -5.379434e+000 -6.450767e+001 9.019582e+001 -6.414773e+001 -1.541122e+002 -5.220308e+000 -5.107487e+001
14236506250 -4.080334e+000 -5.909775e+000 -6.444015e+001 7.644793e+001 -6.448431e+001 -1.398194e+002 -5.215447e+000 -5.198717e+001
14255250000 -4.080354e+000 -6.471655e+000 -6.510639e+001 6.356195e+001 -6.519238e+001 -1.258496e+002 -5.210899e+000 -5.290693e+001
14273993750 -4.075776e+000 -7.011289e+000 -6.488947e+001 4.931804e+001 -6.442912e+001 -1.093730e+002 -5.204815e+000 -5.382661e+001
14292737500 -4.075805e+000 -7.529793e+000 -6.513970e+001 4.141368e+001 -6.527718e+001 -8.743922e+001 -5.198045e+000 -5.473854e+001
14311481250 -4.074736e+000 -8.061770e+000 -6.551233e+001 3.858355e+001 -6.536255e+001 -6.550892e+001 -5.193409e+000 -5.564523e+001
14330225000 -4.071366e+000 -8.583755e+000 -6.548059e+001 3.794292e+001 -6.530511e+001 -4.806247e+001 -5.191859e+000 -5.658016e+001
14348968750 -4.070852e+000 -9.120421e+000 -6.555620e+001 3.805319e+001 -6.492420e+001 -3.203167e+001 -5.187530e+000 -5.752439e+001
14367712500 -4.067955e+000 -9.678164e+000 -6.555522e+001 3.786147e+001 -6.483744e+001 -1.703811e+001 -5.183178e+000 -5.847112e+001
14386456250 -4.063523e+000 -1.022477e+001 -6.562997e+001 3.906993e+001 -6.490968e+001 -3.493774e+000 -5.177005e+000 -5.941922e+001
14405200000 -4.061328e+000 -1.075424e+001 -6.536332e+001 3.557158e+001 -6.459140e+001 1.669730e+001 -5.171742e+000 -6.037231e+001
14423943750 -4.056601e+000 -1.129525e+001 -6.555678e+001 2.928892e+001 -6.431181e+001 3.064892e+001 -5.169987e+000 -6.130288e+001
14442687500 -4.052187e+000 -1.183937e+001 -6.577005e+001 3.287841e+001 -6.420336e+001 4.363829e+001 -5.167709e+000 -6.225133e+001
14461431250 -4.050066e+000 -1.238663e+001 -6.532140e+001 2.890310e+001 -6.409723e+001 5.919692e+001 -5.162990e+000 -6.321772e+001
14480175000 -4.046658e+000 -1.295786e+001 -6.464874e+001 2.753704e+001 -6.368196e+001 7.543011e+001 -5.160885e+000 -6.417094e+001
14498918750 -4.041067e+000 -1.350935e+001 -6.412766e+001 2.687918e+001 -6.348591e+001 8.833759e+001 -5.157121e+000 -6.514134e+001
14517662500 -4.036967e+000 -1.404409e+001 -6.405346e+001 2.818417e+001 -6.313413e+001 1.049850e+002 -5.153651e+000 -6.609563e+001
14536406250 -4.029180e+000 -1.459738e+001 -6.339613e+001 2.543445e+001 -6.289839e+001 1.167440e+002 -5.151834e+000 -6.705064e+001
14555150000 -4.024451e+000 -1.512183e+001 -6.253715e+001 2.697814e+001 -6.263705e+001 1.205656e+002 -5.150784e+000 -6.801749e+001
14573893750 -4.020563e+000 -1.567005e+001 -6.237663e+001 2.695871e+001 -6.241768e+001 1.204457e+002 -5.148073e+000 -6.899502e+001
14592637500 -4.015915e+000 -1.625524e+001 -6.180032e+001 2.752962e+001 -6.262290e+001 1.174746e+002 -5.147931e+000 -6.995734e+001
14611381250 -4.011480e+000 -1.681506e+001 -6.153374e+001 3.064521e+001 -6.267026e+001 1.149696e+002 -5.143761e+000 -7.092369e+001
14630125000 -4.006622e+000 -1.737570e+001 -6.112610e+001 3.264601e+001 -6.197451e+001 1.092017e+002 -5.142173e+000 -7.187880e+001
14648868750 -3.999398e+000 -1.793867e+001 -6.070045e+001 4.198297e+001 -6.155247e+001 1.076935e+002 -5.142869e+000 -7.283057e+001
14667612500 -3.993110e+000 -1.848894e+001 -6.047087e+001 5.532812e+001 -6.113986e+001 1.109057e+002 -5.141529e+000 -7.380499e+001
14686356250 -3.990784e+000 -1.905374e+001 -5.977819e+001 7.203829e+001 -6.016294e+001 1.122629e+002 -5.140472e+000 -7.477731e+001
14705100000 -3.985881e+000 -1.963677e+001 -5.974165e+001 8.919905e+001 -6.005272e+001 1.106157e+002 -5.142054e+000 -7.573861e+001
14723843750 -3.980329e+000 -2.020456e+001 -5.924908e+001 9.986227e+001 -5.911795e+001 1.078072e+002 -5.141060e+000 -7.671711e+001
14742587500 -3.974831e+000 -2.077975e+001 -5.852372e+001 1.065368e+002 -5.892777e+001 1.060950e+002 -5.141285e+000 -7.768675e+001
14761331250 -3.969354e+000 -2.135259e+001 -5.826301e+001 1.071071e+002 -5.862941e+001 1.034821e+002 -5.140843e+000 -7.863686e+001
14780075000 -3.965641e+000 -2.190744e+001 -5.802740e+001 1.032632e+002 -5.837283e+001 1.001054e+002 -5.143045e+000 -7.961107e+001
14798818750 -3.962486e+000 -2.248982e+001 -5.777365e+001 1.024551e+002 -5.808504e+001 1.005680e+002 -5.141654e+000 -8.057195e+001
14817562500 -3.957108e+000 -2.308428e+001 -5.718638e+001 1.008090e+002 -5.773188e+001 9.952007e+001 -5.144607e+000 -8.152759e+001
14836306250 -3.951604e+000 -2.366409e+001 -5.693261e+001 1.002908e+002 -5.772539e+001 9.791102e+001 -5.143939e+000 -8.248615e+001
14855050000 -3.947536e+000 -2.427179e+001 -5.638677e+001 9.965227e+001 -5.775533e+001 9.459081e+001 -5.144860e+000 -8.344439e+001
14873793750 -3.943947e+000 -2.485791e+001 -5.590530e+001 9.656475e+001 -5.760083e+001 9.401335e+001 -5.145221e+000 -8.440620e+001
14892537500 -3.941721e+000 -2.542692e+001 -5.598199e+001 9.523434e+001 -5.737686e+001 9.012823e+001 -5.147696e+000 -8.536806e+001
14911281250 -3.938783e+000 -2.601960e+001 -5.580461e+001 9.331429e+001 -5.745029e+001 8.981088e+001 -5.148022e+000 -8.632318e+001
14930025000 -3.934111e+000 -2.662641e+001 -5.571431e+001 9.094238e+001 -5.694048e+001 8.700696e+001 -5.151535e+000 -8.728456e+001
14948768750 -3.930512e+000 -2.721331e+001 -5.553051e+001 8.817482e+001 -5.681423e+001 8.412727e+001 -5.151758e+000 -8.823062e+001
14967512500 -3.928337e+000 -2.780944e+001 -5.528625e+001 8.528753e+001 -5.659512e+001 8.319703e+001 -5.152145e+000 -8.915628e+001
14986256250 -3.925751e+000 -2.840458e+001 -5.502427e+001 8.417645e+001 -5.639135e+001 8.215430e+001 -5.148049e+000 -9.009781e+001
15005000000 -3.924718e+000 -2.899765e+001 -5.490398e+001 8.182362e+001 -5.630435e+001 7.903284e+001 -5.150762e+000 -9.101076e+001
15023743750 -3.922223e+000 -2.959659e+001 -5.485149e+001 8.037914e+001 -5.598303e+001 7.818831e+001 -5.149333e+000 -9.196109e+001
15042487500 -3.918950e+000 -3.019514e+001 -5.459365e+001 7.798384e+001 -5.560345e+001 7.770164e+001 -5.146628e+000 -9.289503e+001
15061231250 -3.917650e+000 -3.079533e+001 -5.457854e+001 7.718519e+001 -5.569931e+001 7.603693e+001 -5.148581e+000 -9.381068e+001
15079975000 -3.922107e+000 -3.137124e+001 -5.442058e+001 7.412607e+001 -5.545550e+001 7.457230e+001 -5.145543e+000 -9.476373e+001
15098718750 -3.920295e+000 -3.197736e+001 -5.444969e+001 7.342430e+001 -5.524545e+001 7.345507e+001 -5.144790e+000 -9.567255e+001
15117462500 -3.916487e+000 -3.256770e+001 -5.419804e+001 7.282669e+001 -5.509655e+001 7.148017e+001 -5.147989e+000 -9.659922e+001
15136206250 -3.921553e+000 -3.314968e+001 -5.391318e+001 6.990178e+001 -5.504597e+001 7.074138e+001 -5.142202e+000 -9.753245e+001
15154950000 -3.917571e+000 -3.376297e+001 -5.365710e+001 6.841008e+001 -5.464128e+001 6.878830e+001 -5.141548e+000 -9.841827e+001
15173693750 -3.912742e+000 -3.434398e+001 -5.343213e+001 6.589488e+001 -5.466434e+001 6.746895e+001 -5.145515e+000 -9.934232e+001
15192437500 -3.917026e+000 -3.491824e+001 -5.324081e+001 6.477457e+001 -5.460897e+001 6.770733e+001 -5.139591e+000 -1.002590e+002
15211181250 -3.914189e+000 -3.552488e+001 -5.315595e+001 6.355634e+001 -5.451916e+001 6.510186e+001 -5.137802e+000 -1.011364e+002
15229925000 -3.912552e+000 -3.611348e+001 -5.320912e+001 6.230495e+001 -5.455222e+001 6.424363e+001 -5.140174e+000 -1.020428e+002
15248668750 -3.918061e+000 -3.670142e+001 -5.334305e+001 6.181047e+001 -5.444444e+001 6.291197e+001 -5.132753e+000 -1.029445e+002
15267412500 -3.911062e+000 -3.730714e+001 -5.332293e+001 6.012708e+001 -5.444021e+001 6.217282e+001 -5.135263e+000 -1.038052e+002
15286156250 -3.911151e+000 -3.785348e+001 -5.334874e+001 5.998202e+001 -5.429711e+001 6.100290e+001 -5.134420e+000 -1.047106e+002
15304900000 -3.914471e+000 -3.840271e+001 -5.330042e+001 5.882330e+001 -5.412088e+001 5.941682e+001 -5.128318e+000 -1.055986e+002
15323643750 -3.910559e+000 -3.901667e+001 -5.324871e+001 5.715879e+001 -5.417986e+001 5.810525e+001 -5.127720e+000 -1.064513e+002
15342387500 -3.912987e+000 -3.956396e+001 -5.322513e+001 5.528331e+001 -5.380307e+001 5.849855e+001 -5.125247e+000 -1.073436e+002
15361131250 -3.916294e+000 -4.014853e+001 -5.296421e+001 5.527843e+001 -5.370635e+001 5.628978e+001 -5.114145e+000 -1.081986e+002
15379875000 -3.911162e+000 -4.075757e+001 -5.300505e+001 5.473864e+001 -5.351760e+001 5.446964e+001 -5.114065e+000 -1.090419e+002
15398618750 -3.911899e+000 -4.129046e+001 -5.296778e+001 5.364238e+001 -5.340138e+001 5.303100e+001 -5.112033e+000 -1.099385e+002
15417362500 -3.915288e+000 -4.186465e+001 -5.291424e+001 5.166432e+001 -5.326067e+001 5.190670e+001 -5.109344e+000 -1.107949e+002
15436106250 -3.910727e+000 -4.243586e+001 -5.284332e+001 5.056084e+001 -5.302903e+001 5.134731e+001 -5.108638e+000 -1.116571e+002
15454850000 -3.914997e+000 -4.298125e+001 -5.279573e+001 4.985049e+001 -5.295872e+001 4.858193e+001 -5.104167e+000 -1.125213e+002
15473593750 -3.918546e+000 -4.356902e+001 -5.262841e+001 4.834854e+001 -5.305664e+001 4.605074e+001 -5.100426e+000 -1.133557e+002
15492337500 -3.911232e+000 -4.413671e+001 -5.260330e+001 4.524361e+001 -5.287897e+001 4.483618e+001 -5.099857e+000 -1.141967e+002
15511081250 -3.910251e+000 -4.469559e+001 -5.254769e+001 4.432027e+001 -5.292721e+001 4.314434e+001 -5.097334e+000 -1.150488e+002
15529825000 -3.913187e+000 -4.524372e+001 -5.233411e+001 4.167814e+001 -5.278002e+001 4.101554e+001 -5.091153e+000 -1.158944e+002
15548568750 -3.913667e+000 -4.582641e+001 -5.238456e+001 3.947833e+001 -5.278464e+001 4.019725e+001 -5.088388e+000 -1.167033e+002
15567312500 -3.914068e+000 -4.638149e+001 -5.240702e+001 3.798462e+001 -5.271870e+001 3.754757e+001 -5.083565e+000 -1.175480e+002
15586056250 -3.917787e+000 -4.696368e+001 -5.251255e+001 3.589038e+001 -5.268488e+001 3.638996e+001 -5.079803e+000 -1.183680e+002
15604800000 -3.915871e+000 -4.753799e+001 -5.259959e+001 3.408582e+001 -5.256656e+001 3.420329e+001 -5.075877e+000 -1.191747e+002
15623543750 -3.915717e+000 -4.807938e+001 -5.267483e+001 3.150222e+001 -5.256522e+001 3.231291e+001 -5.072209e+000 -1.200031e+002
15642287500 -3.919379e+000 -4.863466e+001 -5.267560e+001 2.891146e+001 -5.287685e+001 3.058913e+001 -5.065940e+000 -1.208270e+002
15661031250 -3.919384e+000 -4.919301e+001 -5.254627e+001 2.646735e+001 -5.294576e+001 2.761008e+001 -5.061703e+000 -1.216357e+002
15679775000 -3.919731e+000 -4.973062e+001 -5.239140e+001 2.355283e+001 -5.321003e+001 2.492783e+001 -5.057078e+000 -1.224520e+002
15698518750 -3.924489e+000 -5.030096e+001 -5.229222e+001 2.089092e+001 -5.347093e+001 2.260271e+001 -5.050422e+000 -1.232416e+002
15717262500 -3.918823e+000 -5.086939e+001 -5.225078e+001 1.630942e+001 -5.331554e+001 2.070860e+001 -5.045337e+000 -1.240300e+002
15736006250 -3.918053e+000 -5.140701e+001 -5.230896e+001 1.388141e+001 -5.336612e+001 1.853503e+001 -5.042320e+000 -1.248307e+002
15754750000 -3.920128e+000 -5.194498e+001 -5.230353e+001 1.027671e+001 -5.346330e+001 1.751685e+001 -5.037921e+000 -1.256138e+002
15773493750 -3.914667e+000 -5.249596e+001 -5.243105e+001 8.242150e+000 -5.359399e+001 1.543188e+001 -5.035269e+000 -1.264005e+002
15792237500 -3.910431e+000 -5.303637e+001 -5.281065e+001 6.005795e+000 -5.385505e+001 1.328693e+001 -5.033876e+000 -1.271866e+002
15810981250 -3.914673e+000 -5.356257e+001 -5.279847e+001 3.512287e+000 -5.422105e+001 1.194662e+001 -5.026794e+000 -1.279486e+002
15829725000 -3.910807e+000 -5.412683e+001 -5.326498e+001 1.803970e+000 -5.438361e+001 9.865726e+000 -5.022832e+000 -1.286939e+002
15848468750 -3.905809e+000 -5.464486e+001 -5.327372e+001 -5.725082e-001 -5.465033e+001 6.262155e+000 -5.019870e+000 -1.294717e+002
15867212500 -3.908498e+000 -5.520805e+001 -5.342599e+001 -4.415705e+000 -5.481384e+001 3.949652e+000 -5.011044e+000 -1.302453e+002
15885956250 -3.904598e+000 -5.573131e+001 -5.356910e+001 -7.041951e+000 -5.501980e+001 2.382469e+000 -5.008587e+000 -1.309882e+002
15904700000 -3.903634e+000 -5.624532e+001 -5.427778e+001 -7.301092e+000 -5.521933e+001 1.390054e+000 -5.006665e+000 -1.317556e+002
15923443750 -3.909110e+000 -5.680283e+001 -5.450920e+001 -9.747042e+000 -5.548362e+001 -1.174951e+000 -4.999024e+000 -1.325014e+002
15942187500 -3.899274e+000 -5.731361e+001 -5.490041e+001 -1.365625e+001 -5.594957e+001 -3.942032e+000 -5.001194e+000 -1.332271e+002
15960931250 -3.899959e+000 -5.783597e+001 -5.550148e+001 -1.644393e+001 -5.662167e+001 -9.309222e+000 -5.000633e+000 -1.339919e+002
15979675000 -3.901665e+000 -5.837958e+001 -5.591750e+001 -1.907723e+001 -5.754080e+001 -1.199464e+001 -4.991965e+000 -1.347368e+002
15998418750 -3.891894e+000 -5.888935e+001 -5.697639e+001 -2.543555e+001 -5.789774e+001 -1.698200e+001 -4.992605e+000 -1.354430e+002
16017162500 -3.895760e+000 -5.938763e+001 -5.745013e+001 -3.250203e+001 -5.904206e+001 -2.311599e+001 -4.989512e+000 -1.361914e+002
16035906250 -3.896083e+000 -5.993665e+001 -5.808600e+001 -3.402510e+001 -5.958545e+001 -2.683503e+001 -4.982596e+000 -1.369006e+002
16054650000 -3.888066e+000 -6.044398e+001 -5.850406e+001 -3.823065e+001 -5.985068e+001 -3.598110e+001 -4.985047e+000 -1.376207e+002
16073393750 -3.889427e+000 -6.095042e+001 -5.907077e+001 -4.068223e+001 -6.037572e+001 -3.998101e+001 -4.982695e+000 -1.383589e+002
16092137500 -3.888488e+000 -6.150277e+001 -5.974973e+001 -4.741549e+001 -6.097258e+001 -4.428538e+001 -4.975485e+000 -1.390801e+002
16110881250 -3.878995e+000 -6.201410e+001 -6.040454e+001 -5.696326e+001 -6.095193e+001 -5.560592e+001 -4.978160e+000 -1.397887e+002
16129625000 -3.884636e+000 -6.253088e+001 -6.089815e+001 -6.620014e+001 -6.108757e+001 -6.353660e+001 -4.975044e+000 -1.405272e+002
16148368750 -3.883812e+000 -6.307974e+001 -6.171355e+001 -7.750615e+001 -6.180323e+001 -7.375061e+001 -4.972550e+000 -1.412294e+002
16167112500 -3.875175e+000 -6.357824e+001 -6.207844e+001 -9.442322e+001 -6.257781e+001 -7.762418e+001 -4.976613e+000 -1.419361e+002
16185856250 -3.880582e+000 -6.408527e+001 -6.250659e+001 -1.030987e+002 -6.271780e+001 -8.885949e+001 -4.972106e+000 -1.426830e+002
16204600000 -3.878244e+000 -6.463914e+001 -6.276453e+001 -1.149621e+002 -6.291275e+001 -9.781464e+001 -4.968873e+000 -1.433678e+002
16223343750 -3.875372e+000 -6.511810e+001 -6.274766e+001 -1.263892e+002 -6.294767e+001 -1.071333e+002 -4.971333e+000 -1.440658e+002
16242087500 -3.878336e+000 -6.566344e+001 -6.314999e+001 -1.355703e+002 -6.347190e+001 -1.182374e+002 -4.970830e+000 -1.448022e+002
16260831250 -3.870125e+000 -6.620129e+001 -6.371176e+001 -1.504221e+002 -6.358707e+001 -1.305076e+002 -4.971392e+000 -1.454934e+002
16279575000 -3.865927e+000 -6.670235e+001 -6.407660e+001 -1.588489e+002 -6.390574e+001 -1.411911e+002 -4.975020e+000 -1.462016e+002
16298318750 -3.868775e+000 -6.720414e+001 -6.421823e+001 -1.674416e+002 -6.395329e+001 -1.524708e+002 -4.977079e+000 -1.469016e+002
16317062500 -3.861090e+000 -6.775988e+001 -6.457754e+001 -1.767263e+002 -6.414400e+001 -1.613624e+002 -4.977833e+000 -1.475839e+002
16335806250 -3.855771e+000 -6.825790e+001 -6.434767e+001 1.711246e+002 -6.414204e+001 -1.709696e+002 -4.978574e+000 -1.482719e+002
16354550000 -3.854664e+000 -6.876080e+001 -6.421208e+001 1.627326e+002 -6.418652e+001 1.794586e+002 -4.981609e+000 -1.489590e+002
16373293750 -3.849998e+000 -6.930705e+001 -6.393102e+001 1.550281e+002 -6.380117e+001 1.705130e+002 -4.982572e+000 -1.496442e+002
16392037500 -3.846234e+000 -6.980123e+001 -6.359491e+001 1.460508e+002 -6.348653e+001 1.639079e+002 -4.984341e+000 -1.503418e+002
16410781250 -3.845862e+000 -7.030720e+001 -6.322858e+001 1.367964e+002 -6.249113e+001 1.535420e+002 -4.985864e+000 -1.510364e+002
16429525000 -3.839768e+000 -7.085532e+001 -6.225768e+001 1.313932e+002 -6.212379e+001 1.468558e+002 -4.988655e+000 -1.517290e+002
16448268750 -3.831494e+000 -7.135201e+001 -6.186517e+001 1.269957e+002 -6.105432e+001 1.400342e+002 -4.988923e+000 -1.524166e+002
16467012500 -3.830253e+000 -7.185342e+001 -6.148041e+001 1.166797e+002 -6.045822e+001 1.317391e+002 -4.992043e+000 -1.530871e+002
16485756250 -3.823776e+000 -7.238253e+001 -6.107322e+001 1.099141e+002 -6.011285e+001 1.290834e+002 -4.997635e+000 -1.537529e+002
16504500000 -3.817942e+000 -7.287275e+001 -6.051876e+001 9.995872e+001 -5.929014e+001 1.218759e+002 -5.002034e+000 -1.544487e+002
16523243750 -3.814702e+000 -7.337296e+001 -5.994044e+001 9.453204e+001 -5.870394e+001 1.130273e+002 -5.006371e+000 -1.551160e+002
16541987500 -3.810096e+000 -7.388038e+001 -5.918381e+001 9.214278e+001 -5.851880e+001 1.120462e+002 -5.009286e+000 -1.557995e+002
16560731250 -3.803349e+000 -7.436578e+001 -5.871585e+001 8.945650e+001 -5.796400e+001 1.077361e+002 -5.009969e+000 -1.564908e+002
16579475000 -3.801569e+000 -7.486295e+001 -5.791949e+001 8.973253e+001 -5.717118e+001 1.058908e+002 -5.012465e+000 -1.571451e+002
16598218750 -3.797500e+000 -7.537223e+001 -5.759182e+001 9.447580e+001 -5.644321e+001 9.741412e+001 -5.016224e+000 -1.578137e+002
16616962500 -3.792047e+000 -7.586335e+001 -5.700471e+001 9.184956e+001 -5.598461e+001 9.573967e+001 -5.021237e+000 -1.584937e+002
16635706250 -3.787804e+000 -7.637251e+001 -5.648833e+001 9.260033e+001 -5.561211e+001 9.232735e+001 -5.024673e+000 -1.591765e+002
16654450000 -3.781944e+000 -7.689050e+001 -5.610094e+001 9.166653e+001 -5.521021e+001 9.015369e+001 -5.028104e+000 -1.598637e+002
16673193750 -3.776511e+000 -7.736588e+001 -5.551168e+001 8.868064e+001 -5.432288e+001 8.928359e+001 -5.028674e+000 -1.605466e+002
16691937500 -3.774161e+000 -7.787541e+001 -5.446416e+001 9.096440e+001 -5.394599e+001 8.945940e+001 -5.030928e+000 -1.612202e+002
16710681250 -3.770379e+000 -7.837745e+001 -5.395625e+001 8.795341e+001 -5.334066e+001 8.908443e+001 -5.034899e+000 -1.618987e+002
16729425000 -3.766042e+000 -7.886091e+001 -5.355136e+001 8.563361e+001 -5.301713e+001 8.785907e+001 -5.036463e+000 -1.626050e+002
16748168750 -3.763061e+000 -7.937064e+001 -5.285376e+001 8.229646e+001 -5.242560e+001 8.435162e+001 -5.037253e+000 -1.633062e+002
16766912500 -3.756761e+000 -7.987547e+001 -5.234267e+001 8.096494e+001 -5.190316e+001 8.188150e+001 -5.040294e+000 -1.640237e+002
16785656250 -3.753612e+000 -8.036658e+001 -5.203521e+001 7.903349e+001 -5.157208e+001 7.956512e+001 -5.038926e+000 -1.647413e+002
16804400000 -3.749254e+000 -8.089284e+001 -5.173265e+001 7.649902e+001 -5.135829e+001 7.746329e+001 -5.040419e+000 -1.654330e+002
16823143750 -3.743421e+000 -8.139793e+001 -5.135992e+001 7.454971e+001 -5.084068e+001 7.480837e+001 -5.045787e+000 -1.661490e+002
16841887500 -3.738194e+000 -8.189325e+001 -5.102325e+001 7.293167e+001 -5.074066e+001 7.312087e+001 -5.047706e+000 -1.668732e+002
16860631250 -3.734364e+000 -8.240527e+001 -5.090953e+001 7.064767e+001 -5.060732e+001 7.062132e+001 -5.050086e+000 -1.675835e+002
16879375000 -3.729333e+000 -8.290959e+001 -5.080420e+001 6.840677e+001 -5.031105e+001 6.889913e+001 -5.052748e+000 -1.683457e+002
16898118750 -3.725655e+000 -8.340334e+001 -5.043819e+001 6.563332e+001 -5.016177e+001 6.625578e+001 -5.049960e+000 -1.690782e+002
16916862500 -3.719928e+000 -8.392199e+001 -5.012225e+001 6.284183e+001 -5.009291e+001 6.371446e+001 -5.051017e+000 -1.697986e+002
16935606250 -3.715717e+000 -8.442245e+001 -4.991957e+001 6.081695e+001 -4.996624e+001 6.106579e+001 -5.052526e+000 -1.705547e+002
16954350000 -3.712225e+000 -8.492653e+001 -4.971381e+001 5.888420e+001 -4.962755e+001 5.935320e+001 -5.052652e+000 -1.713011e+002
16973093750 -3.707432e+000 -8.544332e+001 -4.962943e+001 5.718871e+001 -4.950981e+001 5.842645e+001 -5.054090e+000 -1.720626e+002
16991837500 -3.702546e+000 -8.593882e+001 -4.946960e+001 5.558633e+001 -4.931929e+001 5.590404e+001 -5.054268e+000 -1.728439e+002
17010581250 -3.696583e+000 -8.644151e+001 -4.929452e+001 5.315295e+001 -4.930883e+001 5.392064e+001 -5.051919e+000 -1.736113e+002
17029325000 -3.692123e+000 -8.697040e+001 -4.911498e+001 5.130334e+001 -4.903977e+001 5.192300e+001 -5.052340e+000 -1.743815e+002
17048068750 -3.687270e+000 -8.745582e+001 -4.909228e+001 4.992762e+001 -4.889177e+001 4.960681e+001 -5.052381e+000 -1.751855e+002
17066812500 -3.685467e+000 -8.795074e+001 -4.890754e+001 4.790271e+001 -4.885506e+001 4.799312e+001 -5.050020e+000 -1.759754e+002
17085556250 -3.681937e+000 -8.844873e+001 -4.879558e+001 4.656901e+001 -4.878386e+001 4.574386e+001 -5.050590e+000 -1.767805e+002
17104300000 -3.677509e+000 -8.893890e+001 -4.877029e+001 4.459646e+001 -4.868383e+001 4.377211e+001 -5.051041e+000 -1.776194e+002
17123043750 -3.674456e+000 -8.944240e+001 -4.864374e+001 4.272182e+001 -4.856887e+001 4.176955e+001 -5.045221e+000 -1.784313e+002
17141787500 -3.669577e+000 -8.994125e+001 -4.855073e+001 4.097630e+001 -4.842598e+001 3.970062e+001 -5.046457e+000 -1.792549e+002
17160531250 -3.665613e+000 -9.043010e+001 -4.853456e+001 3.949697e+001 -4.846545e+001 3.735464e+001 -5.047005e+000 1.798969e+002
17179275000 -3.662982e+000 -9.094125e+001 -4.857227e+001 3.802401e+001 -4.842765e+001 3.602303e+001 -5.044242e+000 1.790517e+002
17198018750 -3.659625e+000 -9.144010e+001 -4.866178e+001 3.619949e+001 -4.837486e+001 3.415610e+001 -5.048218e+000 1.781921e+002
17216762500 -3.654773e+000 -9.194189e+001 -4.860463e+001 3.425082e+001 -4.825666e+001 3.259521e+001 -5.047177e+000 1.772967e+002
17235506250 -3.652760e+000 -9.244226e+001 -4.857300e+001 3.271064e+001 -4.806607e+001 3.142169e+001 -5.043046e+000 1.764324e+002
17254250000 -3.645913e+000 -9.292822e+001 -4.859975e+001 3.169711e+001 -4.807855e+001 3.095725e+001 -5.046043e+000 1.755447e+002
17272993750 -3.643822e+000 -9.340424e+001 -4.861698e+001 3.027644e+001 -4.801430e+001 2.870975e+001 -5.047373e+000 1.746241e+002
17291737500 -3.641556e+000 -9.391306e+001 -4.845839e+001 2.928941e+001 -4.785744e+001 2.767128e+001 -5.044246e+000 1.737043e+002
17310481250 -3.638008e+000 -9.440545e+001 -4.836022e+001 2.709681e+001 -4.790609e+001 2.634333e+001 -5.047899e+000 1.727840e+002
17329225000 -3.634721e+000 -9.491112e+001 -4.825360e+001 2.579785e+001 -4.788726e+001 2.538070e+001 -5.047427e+000 1.718242e+002
17347968750 -3.633084e+000 -9.542017e+001 -4.826484e+001 2.449525e+001 -4.790946e+001 2.430363e+001 -5.045877e+000 1.708890e+002
17366712500 -3.628877e+000 -9.591261e+001 -4.817282e+001 2.321965e+001 -4.772993e+001 2.356952e+001 -5.053232e+000 1.699312e+002
17385456250 -3.627481e+000 -9.640117e+001 -4.806573e+001 2.225946e+001 -4.775006e+001 2.312563e+001 -5.053989e+000 1.689251e+002
17404200000 -3.625227e+000 -9.692089e+001 -4.800091e+001 2.097144e+001 -4.761724e+001 2.184691e+001 -5.058022e+000 1.679457e+002
17422943750 -3.621169e+000 -9.742146e+001 -4.787363e+001 1.975184e+001 -4.760269e+001 2.140631e+001 -5.064654e+000 1.669275e+002
17441687500 -3.620314e+000 -9.792958e+001 -4.777990e+001 1.914667e+001 -4.743055e+001 2.026720e+001 -5.065629e+000 1.658762e+002
17460431250 -3.615443e+000 -9.842876e+001 -4.775869e+001 1.849425e+001 -4.745988e+001 1.933704e+001 -5.068966e+000 1.648793e+002
17479175000 -3.610724e+000 -9.893568e+001 -4.761881e+001 1.711337e+001 -4.741492e+001 1.810990e+001 -5.079499e+000 1.638369e+002
17497918750 -3.606607e+000 -9.943884e+001 -4.757494e+001 1.639752e+001 -4.734523e+001 1.712261e+001 -5.088354e+000 1.627624e+002
17516662500 -3.604280e+000 -9.997417e+001 -4.751539e+001 1.502214e+001 -4.727841e+001 1.647799e+001 -5.094725e+000 1.617137e+002
17535406250 -3.599709e+000 -1.004863e+002 -4.742948e+001 1.431466e+001 -4.716156e+001 1.535157e+001 -5.110517e+000 1.606363e+002
17554150000 -3.598144e+000 -1.009961e+002 -4.732226e+001 1.316856e+001 -4.716604e+001 1.355272e+001 -5.118281e+000 1.595091e+002
17572893750 -3.594301e+000 -1.015057e+002 -4.734922e+001 1.188614e+001 -4.715219e+001 1.242029e+001 -5.128750e+000 1.584252e+002
17591637500 -3.589246e+000 -1.019900e+002 -4.737439e+001 1.110577e+001 -4.698436e+001 1.201633e+001 -5.146896e+000 1.572839e+002
17610381250 -3.589505e+000 -1.024773e+002 -4.722753e+001 1.030822e+001 -4.703114e+001 1.075743e+001 -5.160896e+000 1.561264e+002
17629125000 -3.584182e+000 -1.029876e+002 -4.710102e+001 9.268910e+000 -4.699952e+001 9.840677e+000 -5.174541e+000 1.549947e+002
17647868750 -3.584575e+000 -1.034688e+002 -4.710482e+001 8.016439e+000 -4.698200e+001 9.041903e+000 -5.193491e+000 1.538067e+002
17666612500 -3.580425e+000 -1.039725e+002 -4.707518e+001 6.618118e+000 -4.694091e+001 7.455748e+000 -5.207420e+000 1.526049e+002
17685356250 -3.576015e+000 -1.044723e+002 -4.698164e+001 5.807057e+000 -4.690424e+001 5.606327e+000 -5.228844e+000 1.514584e+002
17704100000 -3.574232e+000 -1.049358e+002 -4.690705e+001 4.296892e+000 -4.687500e+001 5.191227e+000 -5.252767e+000 1.502281e+002
17722843750 -3.575310e+000 -1.054307e+002 -4.686393e+001 3.673346e+000 -4.694200e+001 4.154031e+000 -5.276478e+000 1.490055e+002
17741587500 -3.572387e+000 -1.059159e+002 -4.691509e+001 3.207648e+000 -4.685379e+001 3.235014e+000 -5.301938e+000 1.477818e+002
17760331250 -3.568677e+000 -1.063851e+002 -4.691608e+001 2.431123e+000 -4.678076e+001 2.374388e+000 -5.332447e+000 1.464878e+002
17779075000 -3.567454e+000 -1.068977e+002 -4.689871e+001 1.211446e+000 -4.671810e+001 1.343829e+000 -5.355165e+000 1.452078e+002
17797818750 -3.560130e+000 -1.073739e+002 -4.692373e+001 1.034312e+000 -4.685345e+001 1.310641e-001 -5.387903e+000 1.439449e+002
17816562500 -3.558986e+000 -1.078336e+002 -4.691895e+001 -5.203609e-001 -4.675942e+001 -1.111378e+000 -5.426155e+000 1.426311e+002
17835306250 -3.560061e+000 -1.083252e+002 -4.694912e+001 -1.647969e+000 -4.677045e+001 -2.638414e+000 -5.459149e+000 1.413002e+002
17854050000 -3.557350e+000 -1.088030e+002 -4.700007e+001 -3.014652e+000 -4.680578e+001 -3.768519e+000 -5.502811e+000 1.399854e+002
17872793750 -3.558357e+000 -1.092861e+002 -4.690700e+001 -4.499666e+000 -4.672834e+001 -5.544498e+000 -5.549578e+000 1.386040e+002
17891537500 -3.558917e+000 -1.097958e+002 -4.685287e+001 -6.594142e+000 -4.662136e+001 -6.802957e+000 -5.588796e+000 1.372122e+002
17910281250 -3.552642e+000 -1.102504e+002 -4.685252e+001 -7.244175e+000 -4.668524e+001 -8.256329e+000 -5.636624e+000 1.358458e+002
17929025000 -3.555015e+000 -1.107167e+002 -4.685578e+001 -9.174865e+000 -4.670244e+001 -9.668422e+000 -5.686707e+000 1.344059e+002
17947768750 -3.553639e+000 -1.111951e+002 -4.686678e+001 -1.023516e+001 -4.661575e+001 -1.077769e+001 -5.736270e+000 1.329319e+002
17966512500 -3.551618e+000 -1.116609e+002 -4.695325e+001 -1.134153e+001 -4.657222e+001 -1.232804e+001 -5.791186e+000 1.314570e+002
17985256250 -3.554408e+000 -1.121391e+002 -4.701338e+001 -1.292741e+001 -4.652940e+001 -1.276992e+001 -5.853535e+000 1.299456e+002
18004000000 -3.551440e+000 -1.126513e+002 -4.706183e+001 -1.404600e+001 -4.649615e+001 -1.385689e+001 -5.912571e+000 1.284299e+002
18022743750 -3.547300e+000 -1.131223e+002 -4.687225e+001 -1.554815e+001 -4.652304e+001 -1.516977e+001 -5.978642e+000 1.269233e+002
18041487500 -3.547595e+000 -1.135971e+002 -4.689842e+001 -1.672098e+001 -4.640653e+001 -1.673874e+001 -6.048402e+000 1.253552e+002
18060231250 -3.548234e+000 -1.140840e+002 -4.681556e+001 -1.787133e+001 -4.643123e+001 -1.906772e+001 -6.121679e+000 1.237907e+002
18078975000 -3.543367e+000 -1.145673e+002 -4.677832e+001 -1.940188e+001 -4.645434e+001 -2.061614e+001 -6.201215e+000 1.222068e+002
18097718750 -3.546997e+000 -1.150573e+002 -4.676236e+001 -2.087848e+001 -4.642779e+001 -2.152628e+001 -6.286022e+000 1.205575e+002
18116462500 -3.542459e+000 -1.155537e+002 -4.675566e+001 -2.303991e+001 -4.642912e+001 -2.317058e+001 -6.365545e+000 1.188935e+002
18135206250 -3.536233e+000 -1.160287e+002 -4.680206e+001 -2.514201e+001 -4.638016e+001 -2.476466e+001 -6.455427e+000 1.172319e+002
18153950000 -3.536845e+000 -1.164926e+002 -4.684383e+001 -2.734136e+001 -4.630257e+001 -2.705430e+001 -6.548580e+000 1.154716e+002
18172693750 -3.533210e+000 -1.169824e+002 -4.681190e+001 -2.921386e+001 -4.625411e+001 -2.792987e+001 -6.643588e+000 1.137401e+002
18191437500 -3.533707e+000 -1.174634e+002 -4.686878e+001 -3.057597e+001 -4.631636e+001 -2.981551e+001 -6.745677e+000 1.119946e+002
18210181250 -3.532551e+000 -1.179437e+002 -4.696656e+001 -3.187795e+001 -4.633497e+001 -3.154065e+001 -6.854084e+000 1.101781e+002
18228925000 -3.525890e+000 -1.184315e+002 -4.698026e+001 -3.375730e+001 -4.626876e+001 -3.376598e+001 -6.961168e+000 1.083730e+002
18247668750 -3.522542e+000 -1.188808e+002 -4.696396e+001 -3.470486e+001 -4.628961e+001 -3.534888e+001 -7.079476e+000 1.065235e+002
18266412500 -3.519910e+000 -1.193414e+002 -4.703297e+001 -3.599239e+001 -4.638700e+001 -3.723560e+001 -7.200063e+000 1.046164e+002
18285156250 -3.514409e+000 -1.198087e+002 -4.708503e+001 -3.787084e+001 -4.646703e+001 -3.901789e+001 -7.318223e+000 1.027118e+002
18303900000 -3.510904e+000 -1.202665e+002 -4.723492e+001 -3.950724e+001 -4.657220e+001 -4.072050e+001 -7.448656e+000 1.007727e+002
18322643750 -3.508083e+000 -1.207495e+002 -4.721942e+001 -4.040795e+001 -4.663338e+001 -4.183364e+001 -7.584214e+000 9.873919e+001
18341387500 -3.499961e+000 -1.212125e+002 -4.725362e+001 -4.184300e+001 -4.662281e+001 -4.316825e+001 -7.718944e+000 9.669168e+001
18360131250 -3.496275e+000 -1.216452e+002 -4.734999e+001 -4.358797e+001 -4.669947e+001 -4.430887e+001 -7.865650e+000 9.462724e+001
18378875000 -3.496071e+000 -1.220907e+002 -4.749863e+001 -4.578178e+001 -4.686595e+001 -4.679628e+001 -8.016710e+000 9.248978e+001
18397618750 -3.490238e+000 -1.225508e+002 -4.744114e+001 -4.780518e+001 -4.688467e+001 -4.794195e+001 -8.165448e+000 9.037343e+001
18416362500 -3.486341e+000 -1.230053e+002 -4.753952e+001 -4.958710e+001 -4.698139e+001 -5.044656e+001 -8.328172e+000 8.819315e+001
18435106250 -3.482003e+000 -1.234707e+002 -4.752765e+001 -5.098211e+001 -4.719082e+001 -5.250789e+001 -8.491825e+000 8.589777e+001
18453850000 -3.475104e+000 -1.239335e+002 -4.769307e+001 -5.288104e+001 -4.734421e+001 -5.411837e+001 -8.656504e+000 8.360688e+001
18472593750 -3.471111e+000 -1.243616e+002 -4.781141e+001 -5.536681e+001 -4.752786e+001 -5.492778e+001 -8.839532e+000 8.123319e+001
18491337500 -3.468431e+000 -1.248180e+002 -4.809211e+001 -5.702028e+001 -4.772831e+001 -5.596885e+001 -9.010014e+000 7.872382e+001
18510081250 -3.464018e+000 -1.252579e+002 -4.817941e+001 -5.891329e+001 -4.795317e+001 -5.712373e+001 -9.187778e+000 7.627036e+001
18528825000 -3.462336e+000 -1.257045e+002 -4.832024e+001 -6.098346e+001 -4.813930e+001 -5.835891e+001 -9.377319e+000 7.370034e+001
18547568750 -3.458822e+000 -1.261752e+002 -4.851175e+001 -6.272515e+001 -4.833325e+001 -5.975622e+001 -9.563956e+000 7.103067e+001
18566312500 -3.452092e+000 -1.266296e+002 -4.859441e+001 -6.329766e+001 -4.844807e+001 -6.153170e+001 -9.754967e+000 6.840276e+001
18585056250 -3.450008e+000 -1.270667e+002 -4.873406e+001 -6.469848e+001 -4.876242e+001 -6.209066e+001 -9.953747e+000 6.565314e+001
18603800000 -3.447055e+000 -1.275170e+002 -4.898287e+001 -6.571157e+001 -4.893183e+001 -6.438818e+001 -1.014531e+001 6.278123e+001
18622543750 -3.442833e+000 -1.279797e+002 -4.926718e+001 -6.732197e+001 -4.902925e+001 -6.492585e+001 -1.034313e+001 5.988715e+001
18641287500 -3.440981e+000 -1.284416e+002 -4.938153e+001 -6.773773e+001 -4.914770e+001 -6.606986e+001 -1.054698e+001 5.683372e+001
18660031250 -3.439608e+000 -1.289384e+002 -4.966327e+001 -6.987172e+001 -4.946453e+001 -6.696747e+001 -1.073430e+001 5.372364e+001
18678775000 -3.431633e+000 -1.293985e+002 -4.978901e+001 -7.104807e+001 -4.960617e+001 -6.793806e+001 -1.092750e+001 5.060106e+001
18697518750 -3.428641e+000 -1.298562e+002 -4.988077e+001 -7.200259e+001 -4.984903e+001 -6.958712e+001 -1.112528e+001 4.730060e+001
18716262500 -3.425884e+000 -1.303208e+002 -5.011139e+001 -7.342419e+001 -5.003810e+001 -6.981461e+001 -1.130789e+001 4.393333e+001
18735006250 -3.422837e+000 -1.307745e+002 -5.048042e+001 -7.474311e+001 -5.022575e+001 -7.040150e+001 -1.149311e+001 4.053124e+001
18753750000 -3.420859e+000 -1.312429e+002 -5.100577e+001 -7.384151e+001 -5.059480e+001 -7.152356e+001 -1.166755e+001 3.698112e+001
18772493750 -3.416450e+000 -1.317459e+002 -5.144949e+001 -7.606260e+001 -5.090833e+001 -7.259898e+001 -1.183250e+001 3.344942e+001
18791237500 -3.409530e+000 -1.322122e+002 -5.179847e+001 -7.710959e+001 -5.131860e+001 -7.420188e+001 -1.200051e+001 2.980337e+001
18809981250 -3.404895e+000 -1.326799e+002 -5.201939e+001 -7.631346e+001 -5.168267e+001 -7.528016e+001 -1.214937e+001 2.602964e+001
18828725000 -3.398497e+000 -1.331509e+002 -5.254309e+001 -7.532272e+001 -5.228491e+001 -7.552202e+001 -1.228822e+001 2.223083e+001
18847468750 -3.394394e+000 -1.336026e+002 -5.275630e+001 -7.535121e+001 -5.257944e+001 -7.350806e+001 -1.242104e+001 1.833369e+001
18866212500 -3.394516e+000 -1.340726e+002 -5.317421e+001 -7.618078e+001 -5.288254e+001 -7.484962e+001 -1.253319e+001 1.440000e+001
18884956250 -3.387191e+000 -1.345593e+002 -5.352476e+001 -7.690057e+001 -5.332681e+001 -7.500244e+001 -1.263596e+001 1.050438e+001
18903700000 -3.379177e+000 -1.350126e+002 -5.394670e+001 -7.704996e+001 -5.350198e+001 -7.618143e+001 -1.272278e+001 6.497586e+000
18922443750 -3.375036e+000 -1.354673e+002 -5.423053e+001 -7.730254e+001 -5.387271e+001 -7.819729e+001 -1.279706e+001 2.515354e+000
18941187500 -3.368335e+000 -1.359307e+002 -5.488043e+001 -7.742028e+001 -5.434649e+001 -7.880332e+001 -1.286109e+001 -1.515250e+000
18959931250 -3.362995e+000 -1.363922e+002 -5.520468e+001 -7.515285e+001 -5.477084e+001 -7.937962e+001 -1.290303e+001 -5.582187e+000
18978675000 -3.359810e+000 -1.368658e+002 -5.586166e+001 -7.655296e+001 -5.496726e+001 -7.898059e+001 -1.292678e+001 -9.589797e+000
18997418750 -3.352185e+000 -1.373495e+002 -5.636643e+001 -7.922079e+001 -5.566244e+001 -7.626910e+001 -1.294765e+001 -1.364255e+001
19016162500 -3.342906e+000 -1.377979e+002 -5.704519e+001 -7.779342e+001 -5.590694e+001 -7.838039e+001 -1.294332e+001 -1.772449e+001
19034906250 -3.337807e+000 -1.382681e+002 -5.739050e+001 -7.935590e+001 -5.665295e+001 -7.732224e+001 -1.292734e+001 -2.169575e+001
19053650000 -3.330643e+000 -1.387112e+002 -5.774066e+001 -7.781541e+001 -5.762564e+001 -7.959860e+001 -1.289524e+001 -2.567615e+001
19072393750 -3.326121e+000 -1.391533e+002 -5.812778e+001 -7.400548e+001 -5.828190e+001 -7.812403e+001 -1.283983e+001 -2.958440e+001
19091137500 -3.322071e+000 -1.396120e+002 -5.884947e+001 -6.901618e+001 -5.864934e+001 -8.074928e+001 -1.278368e+001 -3.341234e+001
19109881250 -3.315830e+000 -1.400913e+002 -5.908611e+001 -6.476285e+001 -5.918837e+001 -9.032516e+001 -1.271620e+001 -3.725715e+001
19128625000 -3.310695e+000 -1.405389e+002 -5.971545e+001 -6.691775e+001 -5.948610e+001 -9.986182e+001 -1.262478e+001 -4.099383e+001
19147368750 -3.306687e+000 -1.409967e+002 -5.994225e+001 -6.472911e+001 -5.978817e+001 -1.119161e+002 -1.253199e+001 -4.466523e+001
19166112500 -3.300457e+000 -1.414590e+002 -6.019240e+001 -5.954481e+001 -6.021663e+001 -1.257509e+002 -1.242393e+001 -4.829055e+001
19184856250 -3.297039e+000 -1.419012e+002 -6.035569e+001 -5.395391e+001 -6.048978e+001 -1.385392e+002 -1.230997e+001 -5.175233e+001
19203600000 -3.296666e+000 -1.423714e+002 -6.045474e+001 -4.918942e+001 -6.065763e+001 -1.493231e+002 -1.219588e+001 -5.516935e+001
19222343750 -3.291635e+000 -1.428481e+002 -6.043432e+001 -4.208899e+001 -6.115963e+001 -1.649530e+002 -1.206393e+001 -5.852733e+001
19241087500 -3.287408e+000 -1.433071e+002 -6.059803e+001 -3.692844e+001 -6.115594e+001 -1.761219e+002 -1.193606e+001 -6.175325e+001
19259831250 -3.285141e+000 -1.437816e+002 -6.044474e+001 -3.421028e+001 -6.170902e+001 1.759874e+002 -1.179995e+001 -6.492695e+001
19278575000 -3.280182e+000 -1.442354e+002 -6.063214e+001 -3.108268e+001 -6.186315e+001 1.644304e+002 -1.164987e+001 -6.797736e+001
19297318750 -3.277122e+000 -1.446977e+002 -6.055587e+001 -2.492005e+001 -6.202442e+001 1.580172e+002 -1.150863e+001 -7.087417e+001
19316062500 -3.277273e+000 -1.451790e+002 -6.054104e+001 -1.911907e+001 -6.184721e+001 1.487720e+002 -1.136893e+001 -7.380383e+001
19334806250 -3.273737e+000 -1.456694e+002 -6.071396e+001 -1.374891e+001 -6.195919e+001 1.382590e+002 -1.122666e+001 -7.659398e+001
19353550000 -3.270835e+000 -1.461390e+002 -6.044436e+001 -8.733153e+000 -6.221025e+001 1.295326e+002 -1.108852e+001 -7.931976e+001
19372293750 -3.266835e+000 -1.466235e+002 -6.003715e+001 -3.538868e+000 -6.196365e+001 1.200519e+002 -1.094255e+001 -8.199428e+001
19391037500 -3.263335e+000 -1.470626e+002 -5.988165e+001 -5.237655e-002 -6.155089e+001 1.093687e+002 -1.079676e+001 -8.451434e+001
19409781250 -3.262815e+000 -1.475256e+002 -5.934018e+001 7.076080e+000 -6.149337e+001 9.900812e+001 -1.066142e+001 -8.698425e+001
19428525000 -3.261699e+000 -1.480172e+002 -5.907579e+001 1.481655e+001 -6.093651e+001 8.579646e+001 -1.052314e+001 -8.941801e+001
19447268750 -3.257968e+000 -1.485021e+002 -5.838756e+001 1.795120e+001 -6.065926e+001 7.667212e+001 -1.038994e+001 -9.171913e+001
19466012500 -3.255789e+000 -1.489641e+002 -5.792845e+001 2.568427e+001 -6.029438e+001 6.367311e+001 -1.026507e+001 -9.401162e+001
19484756250 -3.252576e+000 -1.494394e+002 -5.743530e+001 2.854624e+001 -5.939761e+001 5.511897e+001 -1.013907e+001 -9.624979e+001
19503500000 -3.251152e+000 -1.499014e+002 -5.698955e+001 2.924553e+001 -5.885352e+001 4.278000e+001 -1.002179e+001 -9.837833e+001
19522243750 -3.251197e+000 -1.503628e+002 -5.608921e+001 3.038591e+001 -5.841674e+001 3.479661e+001 -9.909671e+000 -1.005017e+002
19540987500 -3.249500e+000 -1.508531e+002 -5.598518e+001 3.162286e+001 -5.808068e+001 3.405850e+001 -9.797880e+000 -1.025607e+002
19559731250 -3.243146e+000 -1.513248e+002 -5.521759e+001 3.869584e+001 -5.762353e+001 3.416714e+001 -9.696004e+000 -1.045379e+002
19578475000 -3.237962e+000 -1.517882e+002 -5.472911e+001 4.281255e+001 -5.718292e+001 3.517262e+001 -9.600163e+000 -1.064778e+002
19597218750 -3.233069e+000 -1.522382e+002 -5.413905e+001 4.382732e+001 -5.665254e+001 3.808309e+001 -9.505320e+000 -1.083796e+002
19615962500 -3.229333e+000 -1.526786e+002 -5.363487e+001 4.177046e+001 -5.594031e+001 4.071597e+001 -9.420220e+000 -1.102295e+002
19634706250 -3.228153e+000 -1.531386e+002 -5.317505e+001 4.298259e+001 -5.545613e+001 4.156463e+001 -9.339480e+000 -1.120962e+002
19653450000 -3.225123e+000 -1.536247e+002 -5.288940e+001 4.166950e+001 -5.453790e+001 4.691359e+001 -9.260524e+000 -1.139021e+002
19672193750 -3.219603e+000 -1.540844e+002 -5.248082e+001 4.043338e+001 -5.411668e+001 4.915573e+001 -9.188432e+000 -1.156472e+002
19690937500 -3.216115e+000 -1.545364e+002 -5.206597e+001 4.167146e+001 -5.296969e+001 4.539857e+001 -9.119938e+000 -1.173784e+002
19709681250 -3.212601e+000 -1.549925e+002 -5.148270e+001 4.419764e+001 -5.248636e+001 4.474242e+001 -9.061515e+000 -1.190419e+002
19728425000 -3.210217e+000 -1.554310e+002 -5.098452e+001 4.287393e+001 -5.174593e+001 4.223552e+001 -9.011399e+000 -1.206692e+002
19747168750 -3.212226e+000 -1.558882e+002 -5.052374e+001 4.266046e+001 -5.132988e+001 4.107563e+001 -8.965335e+000 -1.222858e+002
19765912500 -3.209521e+000 -1.563646e+002 -4.972511e+001 4.299129e+001 -5.083882e+001 4.163726e+001 -8.921810e+000 -1.238534e+002
19784656250 -3.205515e+000 -1.568192e+002 -4.937449e+001 4.235857e+001 -4.991391e+001 4.192043e+001 -8.888227e+000 -1.253755e+002
19803400000 -3.202744e+000 -1.572654e+002 -4.903859e+001 4.237058e+001 -4.947391e+001 4.021782e+001 -8.861593e+000 -1.268691e+002
19822143750 -3.197021e+000 -1.577272e+002 -4.863366e+001 4.279528e+001 -4.916053e+001 3.955836e+001 -8.837128e+000 -1.283127e+002
19840887500 -3.195243e+000 -1.581525e+002 -4.814006e+001 4.188469e+001 -4.860210e+001 3.895246e+001 -8.818715e+000 -1.296871e+002
19859631250 -3.195720e+000 -1.586018e+002 -4.765913e+001 4.135996e+001 -4.818898e+001 3.901487e+001 -8.801617e+000 -1.310080e+002
19878375000 -3.195408e+000 -1.590887e+002 -4.723361e+001 4.161143e+001 -4.773633e+001 3.898349e+001 -8.800756e+000 -1.323106e+002
19897118750 -3.192397e+000 -1.595650e+002 -4.681913e+001 4.030271e+001 -4.698643e+001 4.012420e+001 -8.804949e+000 -1.335688e+002
19915862500 -3.189830e+000 -1.600191e+002 -4.639225e+001 4.039611e+001 -4.654821e+001 4.006654e+001 -8.812214e+000 -1.347636e+002
19934606250 -3.186798e+000 -1.604724e+002 -4.612313e+001 3.959601e+001 -4.599733e+001 3.946601e+001 -8.823740e+000 -1.358958e+002
19953350000 -3.187550e+000 -1.609452e+002 -4.581001e+001 3.894337e+001 -4.560275e+001 3.849224e+001 -8.845313e+000 -1.369396e+002
19972093750 -3.188410e+000 -1.614171e+002 -4.528222e+001 3.753942e+001 -4.500295e+001 3.694770e+001 -8.871693e+000 -1.379248e+002
19990837500 -3.187103e+000 -1.619141e+002 -4.506723e+001 3.527809e+001 -4.453857e+001 3.579508e+001 -8.897295e+000 -1.388457e+002
20009581250 -3.185604e+000 -1.623952e+002 -4.479104e+001 3.351623e+001 -4.415608e+001 3.514404e+001 -8.930520e+000 -1.397076e+002
20028325000 -3.182678e+000 -1.628846e+002 -4.441409e+001 3.235989e+001 -4.376563e+001 3.468304e+001 -8.957721e+000 -1.404975e+002
20047068750 -3.179242e+000 -1.633762e+002 -4.398392e+001 3.076154e+001 -4.361390e+001 3.331213e+001 -8.989193e+000 -1.412078e+002
20065812500 -3.179968e+000 -1.638435e+002 -4.352953e+001 2.971343e+001 -4.323441e+001 3.208120e+001 -9.025790e+000 -1.418389e+002
20084556250 -3.179787e+000 -1.643213e+002 -4.324260e+001 2.804183e+001 -4.279490e+001 3.060543e+001 -9.063192e+000 -1.423698e+002
20103300000 -3.178257e+000 -1.648304e+002 -4.286728e+001 2.707922e+001 -4.246438e+001 2.884144e+001 -9.093256e+000 -1.428340e+002
20122043750 -3.177797e+000 -1.653396e+002 -4.252972e+001 2.523414e+001 -4.221870e+001 2.743832e+001 -9.130550e+000 -1.432613e+002
20140787500 -3.176255e+000 -1.658365e+002 -4.232428e+001 2.338142e+001 -4.180699e+001 2.561776e+001 -9.154005e+000 -1.436569e+002
20159531250 -3.176564e+000 -1.663041e+002 -4.205597e+001 2.272519e+001 -4.160715e+001 2.359300e+001 -9.169630e+000 -1.439572e+002
20178275000 -3.174296e+000 -1.667890e+002 -4.180436e+001 2.155237e+001 -4.130243e+001 2.210628e+001 -9.185056e+000 -1.441823e+002
20197018750 -3.179518e+000 -1.672801e+002 -4.157122e+001 1.996720e+001 -4.107961e+001 2.033263e+001 -9.194194e+000 -1.443724e+002
20215762500 -3.182503e+000 -1.678029e+002 -4.131972e+001 1.883599e+001 -4.080941e+001 1.873138e+001 -9.195295e+000 -1.445168e+002
20234506250 -3.183805e+000 -1.683092e+002 -4.093278e+001 1.710634e+001 -4.046439e+001 1.780215e+001 -9.191500e+000 -1.446342e+002
20253250000 -3.184364e+000 -1.687963e+002 -4.068263e+001 1.504105e+001 -4.021284e+001 1.711366e+001 -9.178675e+000 -1.447376e+002
20271993750 -3.188119e+000 -1.692995e+002 -4.046643e+001 1.415472e+001 -4.003905e+001 1.551608e+001 -9.158257e+000 -1.447815e+002
20290737500 -3.194486e+000 -1.697866e+002 -4.016044e+001 1.285485e+001 -3.986082e+001 1.418265e+001 -9.130596e+000 -1.448332e+002
20309481250 -3.199425e+000 -1.702763e+002 -3.997747e+001 1.112800e+001 -3.968613e+001 1.296567e+001 -9.088381e+000 -1.448489e+002
20328225000 -3.203098e+000 -1.707983e+002 -3.977718e+001 9.657262e+000 -3.960901e+001 1.131776e+001 -9.031469e+000 -1.448330e+002
20346968750 -3.206602e+000 -1.713282e+002 -3.953218e+001 8.519549e+000 -3.937975e+001 9.165746e+000 -8.975119e+000 -1.448679e+002
20365712500 -3.209322e+000 -1.718159e+002 -3.920827e+001 6.798838e+000 -3.926149e+001 8.152974e+000 -8.901909e+000 -1.449028e+002
20384456250 -3.211570e+000 -1.722814e+002 -3.898934e+001 5.479476e+000 -3.894971e+001 7.632818e+000 -8.820380e+000 -1.449517e+002
20403200000 -3.223289e+000 -1.727585e+002 -3.880191e+001 4.483538e+000 -3.877551e+001 6.975450e+000 -8.731723e+000 -1.450156e+002
20421943750 -3.232026e+000 -1.732463e+002 -3.852537e+001 4.556970e+000 -3.858565e+001 6.444658e+000 -8.638515e+000 -1.451403e+002
20440687500 -3.238680e+000 -1.737640e+002 -3.828170e+001 4.088299e+000 -3.837721e+001 4.885458e+000 -8.539412e+000 -1.452906e+002
20459431250 -3.244585e+000 -1.742440e+002 -3.808722e+001 2.918633e+000 -3.817668e+001 3.848193e+000 -8.439734e+000 -1.454876e+002
20478175000 -3.252852e+000 -1.747349e+002 -3.782349e+001 2.411874e+000 -3.786652e+001 2.945064e+000 -8.323455e+000 -1.457210e+002
20496918750 -3.260355e+000 -1.752096e+002 -3.764612e+001 1.253512e+000 -3.781690e+001 2.181286e+000 -8.200566e+000 -1.459422e+002
20515662500 -3.273490e+000 -1.757046e+002 -3.731945e+001 1.154560e+000 -3.760461e+001 2.103190e+000 -8.076610e+000 -1.462651e+002
20534406250 -3.285056e+000 -1.762103e+002 -3.704462e+001 6.132507e-001 -3.744147e+001 1.328367e+000 -7.957029e+000 -1.466250e+002
20553150000 -3.294622e+000 -1.767284e+002 -3.686123e+001 1.298981e-001 -3.716346e+001 1.311512e+000 -7.835241e+000 -1.470163e+002
20571893750 -3.302610e+000 -1.772298e+002 -3.653799e+001 -3.827698e-001 -3.699160e+001 9.222361e-001 -7.717004e+000 -1.474682e+002
20590637500 -3.308595e+000 -1.777283e+002 -3.629841e+001 -1.142062e+000 -3.668093e+001 8.679401e-001 -7.594667e+000 -1.480028e+002
20609381250 -3.318772e+000 -1.782155e+002 -3.599809e+001 -1.664459e+000 -3.642344e+001 5.584352e-001 -7.469002e+000 -1.485285e+002
20628125000 -3.330471e+000 -1.787197e+002 -3.568683e+001 -2.220728e+000 -3.615157e+001 1.702334e-001 -7.349628e+000 -1.491165e+002
20646868750 -3.340021e+000 -1.792402e+002 -3.538197e+001 -2.612849e+000 -3.590742e+001 -4.349311e-001 -7.230326e+000 -1.497185e+002
20665612500 -3.353372e+000 -1.797645e+002 -3.509804e+001 -3.074761e+000 -3.557180e+001 -9.681309e-001 -7.117288e+000 -1.503499e+002
20684356250 -3.365500e+000 1.797097e+002 -3.480199e+001 -3.561831e+000 -3.536734e+001 -1.661714e+000 -7.009199e+000 -1.510415e+002
20703100000 -3.372974e+000 1.791942e+002 -3.455246e+001 -4.367017e+000 -3.506939e+001 -2.178865e+000 -6.897408e+000 -1.517671e+002
20721843750 -3.385990e+000 1.787050e+002 -3.426295e+001 -4.619370e+000 -3.473573e+001 -2.906954e+000 -6.799687e+000 -1.524938e+002
20740587500 -3.404503e+000 1.781814e+002 -3.396748e+001 -5.108357e+000 -3.444613e+001 -3.497771e+000 -6.706613e+000 -1.532400e+002
20759331250 -3.420434e+000 1.776591e+002 -3.365896e+001 -5.565690e+000 -3.407129e+001 -3.587012e+000 -6.621868e+000 -1.539976e+002
20778075000 -3.437129e+000 1.771531e+002 -3.337661e+001 -5.961408e+000 -3.379356e+001 -3.979246e+000 -6.542998e+000 -1.547770e+002
20796818750 -3.449157e+000 1.766256e+002 -3.306800e+001 -6.399082e+000 -3.343633e+001 -4.748538e+000 -6.468103e+000 -1.555928e+002
20815562500 -3.465845e+000 1.761397e+002 -3.269210e+001 -7.091743e+000 -3.309994e+001 -5.493293e+000 -6.388558e+000 -1.563943e+002
20834306250 -3.480332e+000 1.756725e+002 -3.234744e+001 -7.940746e+000 -3.275592e+001 -6.464908e+000 -6.319578e+000 -1.572174e+002
20853050000 -3.501174e+000 1.751873e+002 -3.196125e+001 -8.718220e+000 -3.241721e+001 -7.627995e+000 -6.251689e+000 -1.580064e+002
20871793750 -3.523957e+000 1.746822e+002 -3.159200e+001 -9.742858e+000 -3.202420e+001 -8.677194e+000 -6.188337e+000 -1.587876e+002
20890537500 -3.548009e+000 1.741821e+002 -3.121737e+001 -1.067906e+001 -3.164544e+001 -9.497731e+000 -6.135581e+000 -1.596049e+002
20909281250 -3.563033e+000 1.736677e+002 -3.085678e+001 -1.202312e+001 -3.123297e+001 -1.074842e+001 -6.082704e+000 -1.604266e+002
20928025000 -3.580050e+000 1.731823e+002 -3.046046e+001 -1.312477e+001 -3.076615e+001 -1.208649e+001 -6.037509e+000 -1.612141e+002
20946768750 -3.605536e+000 1.727493e+002 -3.004211e+001 -1.441487e+001 -3.040217e+001 -1.351831e+001 -6.001737e+000 -1.620149e+002
20965512500 -3.631902e+000 1.722838e+002 -2.966634e+001 -1.605769e+001 -2.995732e+001 -1.490376e+001 -5.959919e+000 -1.627812e+002
20984256250 -3.655898e+000 1.718568e+002 -2.927593e+001 -1.728978e+001 -2.955414e+001 -1.639301e+001 -5.928591e+000 -1.635355e+002
21003000000 -3.682248e+000 1.713817e+002 -2.891850e+001 -1.900638e+001 -2.915291e+001 -1.802517e+001 -5.898515e+000 -1.643202e+002
21021743750 -3.707253e+000 1.709293e+002 -2.852149e+001 -2.080857e+001 -2.877912e+001 -1.975772e+001 -5.865697e+000 -1.650557e+002
21040487500 -3.727911e+000 1.705228e+002 -2.812861e+001 -2.294746e+001 -2.836931e+001 -2.183652e+001 -5.838832e+000 -1.657630e+002
21059231250 -3.754471e+000 1.701482e+002 -2.776019e+001 -2.497122e+001 -2.796694e+001 -2.373260e+001 -5.813902e+000 -1.664674e+002
21077975000 -3.783470e+000 1.697637e+002 -2.739076e+001 -2.701202e+001 -2.758526e+001 -2.576250e+001 -5.790637e+000 -1.671285e+002
21096718750 -3.806093e+000 1.693587e+002 -2.700770e+001 -2.887156e+001 -2.722226e+001 -2.778444e+001 -5.773549e+000 -1.677826e+002
21115462500 -3.829523e+000 1.689575e+002 -2.661541e+001 -3.119831e+001 -2.683318e+001 -2.999370e+001 -5.754095e+000 -1.684428e+002
21134206250 -3.849002e+000 1.685556e+002 -2.622514e+001 -3.344143e+001 -2.647032e+001 -3.215203e+001 -5.737144e+000 -1.690771e+002
21152950000 -3.866071e+000 1.681930e+002 -2.586580e+001 -3.591887e+001 -2.608408e+001 -3.451588e+001 -5.714907e+000 -1.696760e+002
21171693750 -3.884223e+000 1.678701e+002 -2.552199e+001 -3.838820e+001 -2.569873e+001 -3.704213e+001 -5.693486e+000 -1.702938e+002
21190437500 -3.903558e+000 1.675182e+002 -2.516132e+001 -4.094161e+001 -2.534546e+001 -3.946202e+001 -5.672016e+000 -1.709029e+002
21209181250 -3.925580e+000 1.671535e+002 -2.479649e+001 -4.368713e+001 -2.498107e+001 -4.208487e+001 -5.654429e+000 -1.714713e+002
21227925000 -3.944874e+000 1.667584e+002 -2.445342e+001 -4.624408e+001 -2.462901e+001 -4.463174e+001 -5.634271e+000 -1.720771e+002
21246668750 -3.954253e+000 1.663404e+002 -2.412000e+001 -4.896600e+001 -2.432790e+001 -4.735499e+001 -5.612029e+000 -1.726520e+002
21265412500 -3.966615e+000 1.659822e+002 -2.380441e+001 -5.158727e+001 -2.401460e+001 -5.001006e+001 -5.590230e+000 -1.731918e+002
21284156250 -3.983432e+000 1.656361e+002 -2.352991e+001 -5.423499e+001 -2.373121e+001 -5.271764e+001 -5.570243e+000 -1.737351e+002
21302900000 -3.996388e+000 1.652658e+002 -2.327182e+001 -5.716109e+001 -2.346186e+001 -5.561115e+001 -5.547563e+000 -1.742670e+002
21321643750 -4.007019e+000 1.648765e+002 -2.300785e+001 -6.007026e+001 -2.319675e+001 -5.853105e+001 -5.525098e+000 -1.747993e+002
21340387500 -4.022126e+000 1.645079e+002 -2.273932e+001 -6.278228e+001 -2.297523e+001 -6.124828e+001 -5.502588e+000 -1.753745e+002
21359131250 -4.022757e+000 1.641097e+002 -2.251644e+001 -6.537046e+001 -2.271477e+001 -6.396823e+001 -5.469977e+000 -1.759466e+002
21377875000 -4.017900e+000 1.637574e+002 -2.227502e+001 -6.835138e+001 -2.246144e+001 -6.694771e+001 -5.439224e+000 -1.764786e+002
21396618750 -4.023718e+000 1.633896e+002 -2.205211e+001 -7.108570e+001 -2.224783e+001 -6.979462e+001 -5.409817e+000 -1.770604e+002
21415362500 -4.029098e+000 1.629733e+002 -2.183811e+001 -7.393886e+001 -2.204605e+001 -7.250191e+001 -5.378057e+000 -1.775922e+002
21434106250 -4.034955e+000 1.625611e+002 -2.163117e+001 -7.675952e+001 -2.185992e+001 -7.517369e+001 -5.353088e+000 -1.781537e+002
21452850000 -4.033106e+000 1.620816e+002 -2.145118e+001 -7.948414e+001 -2.167844e+001 -7.794366e+001 -5.322875e+000 -1.787768e+002
21471593750 -4.028737e+000 1.616256e+002 -2.127353e+001 -8.221378e+001 -2.149798e+001 -8.072816e+001 -5.293214e+000 -1.793526e+002
21490337500 -4.020491e+000 1.612071e+002 -2.109263e+001 -8.486737e+001 -2.133362e+001 -8.332834e+001 -5.268043e+000 -1.799427e+002
21509081250 -4.020630e+000 1.607637e+002 -2.093284e+001 -8.751592e+001 -2.116203e+001 -8.610292e+001 -5.233973e+000 1.794089e+002
21527825000 -4.022552e+000 1.603159e+002 -2.080986e+001 -9.018968e+001 -2.100606e+001 -8.887199e+001 -5.206331e+000 1.787753e+002
21546568750 -4.025353e+000 1.598552e+002 -2.066428e+001 -9.283514e+001 -2.084598e+001 -9.150889e+001 -5.185506e+000 1.780879e+002
21565312500 -4.030634e+000 1.593296e+002 -2.052950e+001 -9.535787e+001 -2.070482e+001 -9.410358e+001 -5.155904e+000 1.773522e+002
21584056250 -4.025629e+000 1.588144e+002 -2.040732e+001 -9.789219e+001 -2.059347e+001 -9.670269e+001 -5.130593e+000 1.766886e+002
21602800000 -4.023873e+000 1.583419e+002 -2.028020e+001 -1.003194e+002 -2.046908e+001 -9.922637e+001 -5.111473e+000 1.759791e+002
21621543750 -4.028705e+000 1.578273e+002 -2.017045e+001 -1.027225e+002 -2.034254e+001 -1.016950e+002 -5.085484e+000 1.752665e+002
21640287500 -4.029536e+000 1.572975e+002 -2.004993e+001 -1.051646e+002 -2.021988e+001 -1.041163e+002 -5.066481e+000 1.745642e+002
21659031250 -4.039129e+000 1.567775e+002 -1.993129e+001 -1.075428e+002 -2.011931e+001 -1.064397e+002 -5.056260e+000 1.738081e+002
21677775000 -4.044665e+000 1.562171e+002 -1.983353e+001 -1.099739e+002 -1.999932e+001 -1.089056e+002 -5.035368e+000 1.730374e+002
21696518750 -4.040937e+000 1.556523e+002 -1.972867e+001 -1.123496e+002 -1.987807e+001 -1.112198e+002 -5.016434e+000 1.722874e+002
21715262500 -4.042670e+000 1.551204e+002 -1.961168e+001 -1.146525e+002 -1.977138e+001 -1.134356e+002 -5.007330e+000 1.714836e+002
21734006250 -4.054405e+000 1.545732e+002 -1.948685e+001 -1.168303e+002 -1.965831e+001 -1.156266e+002 -4.993462e+000 1.707054e+002
21752750000 -4.068278e+000 1.540051e+002 -1.937928e+001 -1.190915e+002 -1.954605e+001 -1.178347e+002 -4.990680e+000 1.699397e+002
21771493750 -4.082837e+000 1.534042e+002 -1.927388e+001 -1.212376e+002 -1.944167e+001 -1.201004e+002 -4.996221e+000 1.691101e+002
21790237500 -4.101827e+000 1.527774e+002 -1.915986e+001 -1.234518e+002 -1.933504e+001 -1.222521e+002 -4.989922e+000 1.683069e+002
21808981250 -4.110635e+000 1.521599e+002 -1.906179e+001 -1.255826e+002 -1.922794e+001 -1.243628e+002 -4.992450e+000 1.675337e+002
21827725000 -4.125669e+000 1.516330e+002 -1.896878e+001 -1.277446e+002 -1.911841e+001 -1.264362e+002 -5.003407e+000 1.667163e+002
21846468750 -4.145250e+000 1.510380e+002 -1.887368e+001 -1.298675e+002 -1.900561e+001 -1.285912e+002 -5.005842e+000 1.658899e+002
21865212500 -4.166107e+000 1.504514e+002 -1.876898e+001 -1.319030e+002 -1.888114e+001 -1.307081e+002 -5.017289e+000 1.650854e+002
21883956250 -4.197063e+000 1.498294e+002 -1.866833e+001 -1.339786e+002 -1.877110e+001 -1.327558e+002 -5.033943e+000 1.642451e+002
21902700000 -4.225231e+000 1.491589e+002 -1.855871e+001 -1.361208e+002 -1.865294e+001 -1.348581e+002 -5.043391e+000 1.634069e+002
21921443750 -4.249406e+000 1.485090e+002 -1.845188e+001 -1.381865e+002 -1.853264e+001 -1.369722e+002 -5.062095e+000 1.626175e+002
21940187500 -4.278666e+000 1.479271e+002 -1.835047e+001 -1.402124e+002 -1.842396e+001 -1.390051e+002 -5.088616e+000 1.617889e+002
21958931250 -4.313831e+000 1.472963e+002 -1.823399e+001 -1.422202e+002 -1.830602e+001 -1.410826e+002 -5.107673e+000 1.610175e+002
21977675000 -4.351911e+000 1.466610e+002 -1.811279e+001 -1.442162e+002 -1.819901e+001 -1.430587e+002 -5.139956e+000 1.602452e+002
21996418750 -4.393138e+000 1.460117e+002 -1.799196e+001 -1.462477e+002 -1.808584e+001 -1.450924e+002 -5.175760e+000 1.594137e+002
22015162500 -4.429356e+000 1.453263e+002 -1.787239e+001 -1.483495e+002 -1.795905e+001 -1.470997e+002 -5.207082e+000 1.585882e+002
22033906250 -4.467446e+000 1.446978e+002 -1.775338e+001 -1.503162e+002 -1.784639e+001 -1.490502e+002 -5.250185e+000 1.578207e+002
22052650000 -4.510742e+000 1.441250e+002 -1.763091e+001 -1.523206e+002 -1.772035e+001 -1.510750e+002 -5.293497e+000 1.569931e+002
22071393750 -4.559563e+000 1.435434e+002 -1.752027e+001 -1.543167e+002 -1.758512e+001 -1.530587e+002 -5.334302e+000 1.562171e+002
22090137500 -4.610362e+000 1.429450e+002 -1.739948e+001 -1.563152e+002 -1.744929e+001 -1.550897e+002 -5.384215e+000 1.554590e+002
22108881250 -4.668203e+000 1.422988e+002 -1.727632e+001 -1.582653e+002 -1.732137e+001 -1.571397e+002 -5.439415e+000 1.546593e+002
22127625000 -4.718991e+000 1.416489e+002 -1.714419e+001 -1.602872e+002 -1.718970e+001 -1.591423e+002 -5.498425e+000 1.539148e+002
22146368750 -4.771444e+000 1.410412e+002 -1.701724e+001 -1.623480e+002 -1.705062e+001 -1.612068e+002 -5.564741e+000 1.531734e+002
22165112500 -4.829159e+000 1.404811e+002 -1.689752e+001 -1.644169e+002 -1.692039e+001 -1.633064e+002 -5.630236e+000 1.523835e+002
22183856250 -4.891830e+000 1.398937e+002 -1.676496e+001 -1.664733e+002 -1.677817e+001 -1.653406e+002 -5.696581e+000 1.516459e+002
22202600000 -4.964283e+000 1.393255e+002 -1.663950e+001 -1.685431e+002 -1.664219e+001 -1.673167e+002 -5.766403e+000 1.509276e+002
22221343750 -5.040926e+000 1.386879e+002 -1.650614e+001 -1.706335e+002 -1.651094e+001 -1.694229e+002 -5.838949e+000 1.501602e+002
22240087500 -5.114296e+000 1.380979e+002 -1.637152e+001 -1.727506e+002 -1.637667e+001 -1.715140e+002 -5.910495e+000 1.494962e+002
22258831250 -5.186307e+000 1.375285e+002 -1.624051e+001 -1.748309e+002 -1.624813e+001 -1.736407e+002 -5.993532e+000 1.488328e+002
22277575000 -5.266614e+000 1.370107e+002 -1.610767e+001 -1.769233e+002 -1.610911e+001 -1.757589e+002 -6.079709e+000 1.481641e+002
22296318750 -5.351320e+000 1.365062e+002 -1.596956e+001 -1.790908e+002 -1.597425e+001 -1.778802e+002 -6.168170e+000 1.475707e+002
22315062500 -5.444017e+000 1.360173e+002 -1.582694e+001 1.787932e+002 -1.584912e+001 1.799551e+002 -6.265936e+000 1.469254e+002
22333806250 -5.532960e+000 1.354931e+002 -1.569056e+001 1.767225e+002 -1.571212e+001 1.778283e+002 -6.359236e+000 1.462822e+002
22352550000 -5.617086e+000 1.349922e+002 -1.556009e+001 1.746219e+002 -1.556759e+001 1.756799e+002 -6.457094e+000 1.457428e+002
22371293750 -5.706557e+000 1.345639e+002 -1.543054e+001 1.724225e+002 -1.543825e+001 1.735112e+002 -6.565144e+000 1.451884e+002
22390037500 -5.802582e+000 1.341649e+002 -1.530182e+001 1.702676e+002 -1.530511e+001 1.713297e+002 -6.666637e+000 1.446407e+002
22408781250 -5.901568e+000 1.337944e+002 -1.517218e+001 1.680843e+002 -1.516370e+001 1.691291e+002 -6.771908e+000 1.441496e+002
22427525000 -6.009037e+000 1.334529e+002 -1.503864e+001 1.658654e+002 -1.502870e+001 1.668801e+002 -6.885068e+000 1.436891e+002
22446268750 -6.117285e+000 1.330581e+002 -1.490532e+001 1.636761e+002 -1.488949e+001 1.646409e+002 -6.996981e+000 1.432782e+002
22465012500 -6.216039e+000 1.327202e+002 -1.477555e+001 1.613458e+002 -1.476289e+001 1.623523e+002 -7.108160e+000 1.429437e+002
22483756250 -6.321672e+000 1.324708e+002 -1.464920e+001 1.590772e+002 -1.464686e+001 1.600720e+002 -7.233159e+000 1.426171e+002
22502500000 -6.432349e+000 1.322052e+002 -1.451361e+001 1.567981e+002 -1.452729e+001 1.577627e+002 -7.348339e+000 1.423274e+002
22521243750 -6.546677e+000 1.320108e+002 -1.439188e+001 1.544923e+002 -1.440235e+001 1.554558e+002 -7.470534e+000 1.420860e+002
22539987500 -6.669302e+000 1.318243e+002 -1.426790e+001 1.521499e+002 -1.428169e+001 1.531462e+002 -7.593955e+000 1.418903e+002
22558731250 -6.789409e+000 1.316233e+002 -1.414797e+001 1.498252e+002 -1.416899e+001 1.507828e+002 -7.705942e+000 1.417327e+002
22577475000 -6.900287e+000 1.315144e+002 -1.403243e+001 1.475316e+002 -1.406021e+001 1.484380e+002 -7.825660e+000 1.416871e+002
22596218750 -7.005092e+000 1.314697e+002 -1.391183e+001 1.452257e+002 -1.394562e+001 1.461263e+002 -7.951639e+000 1.416771e+002
22614962500 -7.120838e+000 1.314984e+002 -1.380244e+001 1.429165e+002 -1.384129e+001 1.437565e+002 -8.072104e+000 1.416302e+002
22633706250 -7.236717e+000 1.315125e+002 -1.368798e+001 1.405167e+002 -1.372615e+001 1.413507e+002 -8.189376e+000 1.416926e+002
22652450000 -7.344993e+000 1.316101e+002 -1.357383e+001 1.381601e+002 -1.361909e+001 1.389960e+002 -8.309791e+000 1.417482e+002
22671193750 -7.461928e+000 1.316260e+002 -1.347565e+001 1.357756e+002 -1.351960e+001 1.365756e+002 -8.416826e+000 1.417835e+002
22689937500 -7.551264e+000 1.317083e+002 -1.337008e+001 1.333454e+002 -1.341708e+001 1.341733e+002 -8.513988e+000 1.420019e+002
22708681250 -7.646393e+000 1.319640e+002 -1.326747e+001 1.309651e+002 -1.332243e+001 1.317828e+002 -8.627635e+000 1.422166e+002
22727425000 -7.743211e+000 1.322231e+002 -1.318947e+001 1.285778e+002 -1.323474e+001 1.293457e+002 -8.726677e+000 1.424177e+002
22746168750 -7.835468e+000 1.324879e+002 -1.309268e+001 1.261102e+002 -1.314331e+001 1.269196e+002 -8.824468e+000 1.427089e+002
22764912500 -7.935004e+000 1.328221e+002 -1.300199e+001 1.236774e+002 -1.306070e+001 1.245160e+002 -8.926831e+000 1.429899e+002
22783656250 -8.028311e+000 1.330749e+002 -1.292252e+001 1.212173e+002 -1.298249e+001 1.220626e+002 -8.999879e+000 1.432259e+002
22802400000 -8.095219e+000 1.333575e+002 -1.283667e+001 1.187765e+002 -1.289697e+001 1.196312e+002 -9.075155e+000 1.436237e+002
22821143750 -8.163592e+000 1.337853e+002 -1.275177e+001 1.163368e+002 -1.282196e+001 1.171839e+002 -9.164588e+000 1.439513e+002
22839887500 -8.237772e+000 1.341591e+002 -1.268522e+001 1.138637e+002 -1.275670e+001 1.147070e+002 -9.231947e+000 1.443034e+002
22858631250 -8.295006e+000 1.346287e+002 -1.261438e+001 1.113943e+002 -1.268407e+001 1.122819e+002 -9.295191e+000 1.447362e+002
22877375000 -8.360624e+000 1.350767e+002 -1.254526e+001 1.089552e+002 -1.262324e+001 1.098497e+002 -9.359977e+000 1.450943e+002
22896118750 -8.415905e+000 1.354191e+002 -1.248498e+001 1.065243e+002 -1.256118e+001 1.073978e+002 -9.397031e+000 1.454322e+002
22914862500 -8.443911e+000 1.358167e+002 -1.242583e+001 1.040758e+002 -1.249435e+001 1.049268e+002 -9.441274e+000 1.459017e+002
22933606250 -8.473615e+000 1.363598e+002 -1.237126e+001 1.016535e+002 -1.243680e+001 1.025039e+002 -9.490972e+000 1.462394e+002
22952350000 -8.499517e+000 1.368112e+002 -1.231872e+001 9.926532e+001 -1.238232e+001 1.000588e+002 -9.522532e+000 1.465932e+002
22971093750 -8.514648e+000 1.373625e+002 -1.227143e+001 9.686209e+001 -1.233823e+001 9.762960e+001 -9.558669e+000 1.469590e+002
22989837500 -8.542089e+000 1.378478e+002 -1.222166e+001 9.449370e+001 -1.229228e+001 9.522942e+001 -9.587188e+000 1.471757e+002
23008581250 -8.554537e+000 1.381938e+002 -1.217896e+001 9.205392e+001 -1.223933e+001 9.283810e+001 -9.594167e+000 1.474049e+002
23027325000 -8.550817e+000 1.385965e+002 -1.214304e+001 8.963314e+001 -1.220072e+001 9.040215e+001 -9.608348e+000 1.477143e+002
23046068750 -8.547354e+000 1.390180e+002 -1.210236e+001 8.722543e+001 -1.216298e+001 8.802271e+001 -9.626989e+000 1.479832e+002
23064812500 -8.533574e+000 1.394492e+002 -1.207086e+001 8.485441e+001 -1.213340e+001 8.564745e+001 -9.640920e+000 1.481872e+002
23083556250 -8.525495e+000 1.398912e+002 -1.204221e+001 8.243586e+001 -1.209960e+001 8.320919e+001 -9.660061e+000 1.484187e+002
23102300000 -8.516997e+000 1.402816e+002 -1.200491e+001 8.010930e+001 -1.207165e+001 8.085198e+001 -9.673432e+000 1.485834e+002
23121043750 -8.506660e+000 1.405704e+002 -1.198333e+001 7.776754e+001 -1.205273e+001 7.855684e+001 -9.681885e+000 1.487007e+002
23139787500 -8.474253e+000 1.408180e+002 -1.195480e+001 7.542258e+001 -1.203276e+001 7.620984e+001 -9.686035e+000 1.488826e+002
23158531250 -8.445946e+000 1.410926e+002 -1.192382e+001 7.311405e+001 -1.200838e+001 7.385903e+001 -9.702830e+000 1.490114e+002
23177275000 -8.410278e+000 1.413773e+002 -1.190751e+001 7.081924e+001 -1.198668e+001 7.152717e+001 -9.713245e+000 1.491287e+002
23196018750 -8.375854e+000 1.416329e+002 -1.188434e+001 6.849437e+001 -1.196537e+001 6.918925e+001 -9.723121e+000 1.491854e+002
23214762500 -8.353494e+000 1.418520e+002 -1.186444e+001 6.622896e+001 -1.194809e+001 6.688794e+001 -9.745776e+000 1.492296e+002
23233506250 -8.324155e+000 1.419580e+002 -1.184889e+001 6.394356e+001 -1.194294e+001 6.463326e+001 -9.760588e+000 1.492495e+002
23252250000 -8.271343e+000 1.420502e+002 -1.182982e+001 6.164885e+001 -1.193077e+001 6.233978e+001 -9.777775e+000 1.493437e+002
23270993750 -8.222348e+000 1.422068e+002 -1.181516e+001 5.940522e+001 -1.191435e+001 6.011055e+001 -9.809002e+000 1.493894e+002
23289737500 -8.180066e+000 1.422672e+002 -1.180815e+001 5.714893e+001 -1.190984e+001 5.782773e+001 -9.837064e+000 1.493744e+002
23308481250 -8.140546e+000 1.424162e+002 -1.179890e+001 5.488937e+001 -1.190171e+001 5.556681e+001 -9.860778e+000 1.493566e+002
23327225000 -8.105577e+000 1.424276e+002 -1.178665e+001 5.271506e+001 -1.189103e+001 5.333723e+001 -9.899416e+000 1.493587e+002
23345968750 -8.071991e+000 1.423515e+002 -1.177933e+001 5.043980e+001 -1.189126e+001 5.115332e+001 -9.927926e+000 1.493277e+002
23364712500 -8.029253e+000 1.422839e+002 -1.177542e+001 4.822549e+001 -1.189017e+001 4.893124e+001 -9.968473e+000 1.494152e+002
23383456250 -7.984359e+000 1.422835e+002 -1.177419e+001 4.603795e+001 -1.189403e+001 4.675399e+001 -1.002068e+001 1.494520e+002
23402200000 -7.943621e+000 1.421950e+002 -1.176629e+001 4.380441e+001 -1.189527e+001 4.457706e+001 -1.008119e+001 1.494121e+002
23420943750 -7.901103e+000 1.421326e+002 -1.176173e+001 4.158154e+001 -1.189697e+001 4.238538e+001 -1.014928e+001 1.494723e+002
23439687500 -7.875860e+000 1.420425e+002 -1.175893e+001 3.940808e+001 -1.190043e+001 4.020413e+001 -1.020949e+001 1.495240e+002
23458431250 -7.841601e+000 1.418714e+002 -1.175708e+001 3.720055e+001 -1.190331e+001 3.807394e+001 -1.026793e+001 1.495972e+002
23477175000 -7.792255e+000 1.417365e+002 -1.175219e+001 3.508042e+001 -1.190654e+001 3.591545e+001 -1.033188e+001 1.497985e+002
23495918750 -7.753879e+000 1.416361e+002 -1.175589e+001 3.294545e+001 -1.191121e+001 3.379874e+001 -1.041139e+001 1.499823e+002
23514662500 -7.715055e+000 1.414997e+002 -1.175727e+001 3.078041e+001 -1.191578e+001 3.166038e+001 -1.049281e+001 1.501440e+002
23533406250 -7.680094e+000 1.413745e+002 -1.175634e+001 2.861987e+001 -1.191442e+001 2.951966e+001 -1.058333e+001 1.503423e+002
23552150000 -7.658175e+000 1.411697e+002 -1.176159e+001 2.650451e+001 -1.191688e+001 2.736678e+001 -1.066424e+001 1.505339e+002
23570893750 -7.628064e+000 1.409668e+002 -1.176421e+001 2.435835e+001 -1.192103e+001 2.521683e+001 -1.074367e+001 1.508367e+002
23589637500 -7.585360e+000 1.408199e+002 -1.176935e+001 2.228269e+001 -1.192553e+001 2.313256e+001 -1.082981e+001 1.512431e+002
23608381250 -7.557115e+000 1.406594e+002 -1.177432e+001 2.018149e+001 -1.193689e+001 2.103844e+001 -1.092305e+001 1.516133e+002
23627125000 -7.524967e+000 1.404929e+002 -1.178181e+001 1.803107e+001 -1.194775e+001 1.890989e+001 -1.101902e+001 1.520434e+002
23645868750 -7.497820e+000 1.403525e+002 -1.178893e+001 1.595237e+001 -1.196369e+001 1.679628e+001 -1.111336e+001 1.524943e+002
23664612500 -7.479222e+000 1.401704e+002 -1.179876e+001 1.383348e+001 -1.197074e+001 1.470049e+001 -1.119714e+001 1.529528e+002
23683356250 -7.457307e+000 1.399131e+002 -1.180929e+001 1.177485e+001 -1.198101e+001 1.262201e+001 -1.126732e+001 1.535395e+002
23702100000 -7.426255e+000 1.397301e+002 -1.182052e+001 9.711480e+000 -1.199393e+001 1.052772e+001 -1.134321e+001 1.542569e+002
23720843750 -7.402542e+000 1.395620e+002 -1.183215e+001 7.634872e+000 -1.200916e+001 8.440997e+000 -1.142726e+001 1.549971e+002
23739587500 -7.378129e+000 1.393669e+002 -1.184020e+001 5.598207e+000 -1.202711e+001 6.403340e+000 -1.151149e+001 1.557886e+002
23758331250 -7.360512e+000 1.392524e+002 -1.185691e+001 3.522452e+000 -1.204421e+001 4.297236e+000 -1.159302e+001 1.565839e+002
23777075000 -7.348116e+000 1.390275e+002 -1.187335e+001 1.531226e+000 -1.205545e+001 2.252751e+000 -1.165714e+001 1.573708e+002
23795818750 -7.317213e+000 1.387623e+002 -1.188136e+001 -5.245181e-001 -1.207429e+001 2.191983e-001 -1.169982e+001 1.582989e+002
23814562500 -7.296006e+000 1.385556e+002 -1.189733e+001 -2.581547e+000 -1.208842e+001 -1.854062e+000 -1.174994e+001 1.593271e+002
23833306250 -7.274770e+000 1.383621e+002 -1.191713e+001 -4.605549e+000 -1.209992e+001 -3.871534e+000 -1.178919e+001 1.603889e+002
23852050000 -7.251995e+000 1.381856e+002 -1.193475e+001 -6.638786e+000 -1.211355e+001 -5.880485e+000 -1.181498e+001 1.614485e+002
23870793750 -7.232345e+000 1.380017e+002 -1.195251e+001 -8.624655e+000 -1.213038e+001 -7.898182e+000 -1.184793e+001 1.624795e+002
23889537500 -7.223324e+000 1.377402e+002 -1.197346e+001 -1.064914e+001 -1.215108e+001 -9.912157e+000 -1.184953e+001 1.634798e+002
23908281250 -7.197340e+000 1.374603e+002 -1.199145e+001 -1.265271e+001 -1.217268e+001 -1.187740e+001 -1.183584e+001 1.646167e+002
23927025000 -7.174027e+000 1.372591e+002 -1.200901e+001 -1.464712e+001 -1.219300e+001 -1.390929e+001 -1.182276e+001 1.658169e+002
23945768750 -7.156895e+000 1.370137e+002 -1.202501e+001 -1.663155e+001 -1.221796e+001 -1.588214e+001 -1.179720e+001 1.669767e+002
23964512500 -7.129966e+000 1.367814e+002 -1.204659e+001 -1.862251e+001 -1.225127e+001 -1.783196e+001 -1.175713e+001 1.681420e+002
23983256250 -7.115833e+000 1.366163e+002 -1.206571e+001 -2.062595e+001 -1.227358e+001 -1.978958e+001 -1.172078e+001 1.692322e+002
24002000000 -7.104514e+000 1.362880e+002 -1.209052e+001 -2.258561e+001 -1.229446e+001 -2.170954e+001 -1.164807e+001 1.702224e+002
24020743750 -7.083872e+000 1.359465e+002 -1.211155e+001 -2.459198e+001 -1.232599e+001 -2.364785e+001 -1.156081e+001 1.713029e+002
24039487500 -7.060434e+000 1.357015e+002 -1.213733e+001 -2.655563e+001 -1.234703e+001 -2.556622e+001 -1.148053e+001 1.724247e+002
24058231250 -7.039682e+000 1.353772e+002 -1.216183e+001 -2.847429e+001 -1.237237e+001 -2.748672e+001 -1.138363e+001 1.734964e+002
24076975000 -7.007081e+000 1.351481e+002 -1.218897e+001 -3.045129e+001 -1.240340e+001 -2.941836e+001 -1.128156e+001 1.745274e+002
24095718750 -6.998273e+000 1.348908e+002 -1.221366e+001 -3.240793e+001 -1.242783e+001 -3.137361e+001 -1.117798e+001 1.754982e+002
24114462500 -6.994090e+000 1.345684e+002 -1.224295e+001 -3.438445e+001 -1.245923e+001 -3.326182e+001 -1.105871e+001 1.763189e+002
24133206250 -6.969515e+000 1.342380e+002 -1.226859e+001 -3.629191e+001 -1.249396e+001 -3.515596e+001 -1.092452e+001 1.771793e+002
24151950000 -6.948244e+000 1.339413e+002 -1.229712e+001 -3.819662e+001 -1.252071e+001 -3.701702e+001 -1.078676e+001 1.780073e+002
24170693750 -6.922452e+000 1.336328e+002 -1.232566e+001 -4.011570e+001 -1.255065e+001 -3.891308e+001 -1.064245e+001 1.787271e+002
24189437500 -6.899206e+000 1.334021e+002 -1.235911e+001 -4.202817e+001 -1.259241e+001 -4.078579e+001 -1.049274e+001 1.794502e+002
24208181250 -6.887425e+000 1.331681e+002 -1.238851e+001 -4.397852e+001 -1.262527e+001 -4.268998e+001 -1.034591e+001 -1.799447e+002
24226925000 -6.876569e+000 1.328031e+002 -1.242271e+001 -4.587635e+001 -1.265919e+001 -4.452612e+001 -1.018408e+001 -1.794550e+002
24245668750 -6.850624e+000 1.324703e+002 -1.245146e+001 -4.778972e+001 -1.269226e+001 -4.633938e+001 -1.001631e+001 -1.789496e+002
24264412500 -6.831728e+000 1.321518e+002 -1.247823e+001 -4.964973e+001 -1.272635e+001 -4.818074e+001 -9.849902e+000 -1.784993e+002
24283156250 -6.813594e+000 1.318085e+002 -1.251213e+001 -5.149987e+001 -1.276887e+001 -5.002320e+001 -9.682014e+000 -1.781087e+002
24301900000 -6.789217e+000 1.315396e+002 -1.254041e+001 -5.342215e+001 -1.281222e+001 -5.186272e+001 -9.519436e+000 -1.777302e+002
24320643750 -6.781165e+000 1.312668e+002 -1.257092e+001 -5.526511e+001 -1.284105e+001 -5.370603e+001 -9.367856e+000 -1.775052e+002
24339387500 -6.773579e+000 1.309104e+002 -1.261377e+001 -5.714189e+001 -1.288309e+001 -5.548236e+001 -9.198266e+000 -1.773788e+002
24358131250 -6.753998e+000 1.305440e+002 -1.264333e+001 -5.902073e+001 -1.292513e+001 -5.729776e+001 -9.027689e+000 -1.772467e+002
24376875000 -6.738722e+000 1.302208e+002 -1.268490e+001 -6.083821e+001 -1.296388e+001 -5.903346e+001 -8.862563e+000 -1.771581e+002
24395618750 -6.721731e+000 1.298843e+002 -1.273021e+001 -6.267273e+001 -1.300385e+001 -6.080994e+001 -8.698198e+000 -1.771107e+002
24414362500 -6.701509e+000 1.295538e+002 -1.276440e+001 -6.449766e+001 -1.303781e+001 -6.262228e+001 -8.541571e+000 -1.770660e+002
24433106250 -6.693697e+000 1.291727e+002 -1.279627e+001 -6.631221e+001 -1.306999e+001 -6.438452e+001 -8.392550e+000 -1.771396e+002
24451850000 -6.683139e+000 1.288044e+002 -1.283548e+001 -6.814645e+001 -1.310668e+001 -6.611983e+001 -8.236592e+000 -1.772614e+002
24470593750 -6.669928e+000 1.284371e+002 -1.287166e+001 -6.994309e+001 -1.313955e+001 -6.797301e+001 -8.082149e+000 -1.773712e+002
24489337500 -6.667161e+000 1.280965e+002 -1.290932e+001 -7.169627e+001 -1.318113e+001 -6.969332e+001 -7.933369e+000 -1.775465e+002
24508081250 -6.660988e+000 1.276865e+002 -1.295043e+001 -7.353423e+001 -1.321779e+001 -7.140688e+001 -7.785159e+000 -1.776936e+002
24526825000 -6.647848e+000 1.273609e+002 -1.298726e+001 -7.530176e+001 -1.325689e+001 -7.312573e+001 -7.646718e+000 -1.779028e+002
24545568750 -6.643710e+000 1.269508e+002 -1.302634e+001 -7.706693e+001 -1.328275e+001 -7.482632e+001 -7.506814e+000 -1.781863e+002
24564312500 -6.637023e+000 1.264953e+002 -1.306327e+001 -7.889719e+001 -1.331776e+001 -7.662435e+001 -7.365979e+000 -1.784747e+002
24583056250 -6.633466e+000 1.261093e+002 -1.309447e+001 -8.069893e+001 -1.335402e+001 -7.833105e+001 -7.233689e+000 -1.788132e+002
24601800000 -6.633570e+000 1.256436e+002 -1.314143e+001 -8.246722e+001 -1.337752e+001 -8.001276e+001 -7.100109e+000 -1.791666e+002
24620543750 -6.623915e+000 1.251669e+002 -1.317276e+001 -8.427556e+001 -1.341212e+001 -8.169466e+001 -6.972889e+000 -1.795453e+002
24639287500 -6.619845e+000 1.247706e+002 -1.320401e+001 -8.597916e+001 -1.343966e+001 -8.340842e+001 -6.854561e+000 -1.798911e+002
24658031250 -6.623809e+000 1.242966e+002 -1.323983e+001 -8.768594e+001 -1.347069e+001 -8.512869e+001 -6.740177e+000 1.796495e+002
24676775000 -6.620022e+000 1.238591e+002 -1.327323e+001 -8.943990e+001 -1.350969e+001 -8.689291e+001 -6.621352e+000 1.792067e+002
24695518750 -6.627161e+000 1.234454e+002 -1.330986e+001 -9.114835e+001 -1.354072e+001 -8.861549e+001 -6.506641e+000 1.787559e+002
24714262500 -6.633763e+000 1.229827e+002 -1.334951e+001 -9.287473e+001 -1.356560e+001 -9.025455e+001 -6.396528e+000 1.782795e+002
24733006250 -6.633990e+000 1.225249e+002 -1.338550e+001 -9.458035e+001 -1.359700e+001 -9.195626e+001 -6.286864e+000 1.778460e+002
24751750000 -6.638346e+000 1.220773e+002 -1.341876e+001 -9.627863e+001 -1.362734e+001 -9.360509e+001 -6.184937e+000 1.774055e+002
24770493750 -6.641881e+000 1.215432e+002 -1.346243e+001 -9.801663e+001 -1.366056e+001 -9.529610e+001 -6.087875e+000 1.769202e+002
24789237500 -6.642153e+000 1.211001e+002 -1.349765e+001 -9.970700e+001 -1.368712e+001 -9.698197e+001 -5.988417e+000 1.764316e+002
24807981250 -6.659996e+000 1.206559e+002 -1.352764e+001 -1.013952e+002 -1.371386e+001 -9.867044e+001 -5.897300e+000 1.759480e+002
24826725000 -6.671010e+000 1.201669e+002 -1.356264e+001 -1.031088e+002 -1.374281e+001 -1.003440e+002 -5.808157e+000 1.754581e+002
24845468750 -6.680559e+000 1.197384e+002 -1.359754e+001 -1.048246e+002 -1.377631e+001 -1.020208e+002 -5.722212e+000 1.749850e+002
24864212500 -6.698761e+000 1.193484e+002 -1.363295e+001 -1.064827e+002 -1.380334e+001 -1.036915e+002 -5.641643e+000 1.744674e+002
24882956250 -6.714815e+000 1.188453e+002 -1.366811e+001 -1.082014e+002 -1.383155e+001 -1.053565e+002 -5.556536e+000 1.739418e+002
24901700000 -6.721866e+000 1.184300e+002 -1.369140e+001 -1.098904e+002 -1.386325e+001 -1.069521e+002 -5.469409e+000 1.734380e+002
24920443750 -6.742794e+000 1.179895e+002 -1.372647e+001 -1.115567e+002 -1.388425e+001 -1.085762e+002 -5.389262e+000 1.728984e+002
24939187500 -6.758922e+000 1.175559e+002 -1.376213e+001 -1.132231e+002 -1.390996e+001 -1.102026e+002 -5.307785e+000 1.723658e+002
24957931250 -6.774520e+000 1.171238e+002 -1.379217e+001 -1.148746e+002 -1.393074e+001 -1.118706e+002 -5.230620e+000 1.718225e+002
24976675000 -6.800111e+000 1.167037e+002 -1.381477e+001 -1.165039e+002 -1.395927e+001 -1.135303e+002 -5.161273e+000 1.712926e+002
24995418750 -6.822514e+000 1.162814e+002 -1.385168e+001 -1.182130e+002 -1.398367e+001 -1.151137e+002 -5.086818e+000 1.707249e+002
25014162500 -6.843141e+000 1.158939e+002 -1.387419e+001 -1.198276e+002 -1.400431e+001 -1.167801e+002 -5.022298e+000 1.701852e+002
25032906250 -6.874358e+000 1.155157e+002 -1.390168e+001 -1.214532e+002 -1.403409e+001 -1.184631e+002 -4.957252e+000 1.696056e+002
25051650000 -6.907696e+000 1.150594e+002 -1.393295e+001 -1.231714e+002 -1.404991e+001 -1.201600e+002 -4.887935e+000 1.690145e+002
25070393750 -6.932701e+000 1.146587e+002 -1.394989e+001 -1.248763e+002 -1.407703e+001 -1.218531e+002 -4.828053e+000 1.684702e+002
25089137500 -6.968558e+000 1.142906e+002 -1.397943e+001 -1.265680e+002 -1.408891e+001 -1.234838e+002 -4.766979e+000 1.679060e+002
25107881250 -6.997171e+000 1.138359e+002 -1.400056e+001 -1.283292e+002 -1.411464e+001 -1.251268e+002 -4.703797e+000 1.673597e+002
25126625000 -7.027397e+000 1.134712e+002 -1.401689e+001 -1.299752e+002 -1.413570e+001 -1.267964e+002 -4.655263e+000 1.668189e+002
25145368750 -7.068839e+000 1.130996e+002 -1.404023e+001 -1.316363e+002 -1.414954e+001 -1.285116e+002 -4.606113e+000 1.662395e+002
25164112500 -7.105060e+000 1.126708e+002 -1.406013e+001 -1.333843e+002 -1.417111e+001 -1.302651e+002 -4.554620e+000 1.656470e+002
25182856250 -7.144960e+000 1.123202e+002 -1.407960e+001 -1.350536e+002 -1.419361e+001 -1.319964e+002 -4.512986e+000 1.650648e+002
25201600000 -7.198681e+000 1.119484e+002 -1.410309e+001 -1.367208e+002 -1.419642e+001 -1.336991e+002 -4.466603e+000 1.644631e+002
25220343750 -7.236433e+000 1.114795e+002 -1.411919e+001 -1.384462e+002 -1.420792e+001 -1.353813e+002 -4.420829e+000 1.639086e+002
25239087500 -7.271608e+000 1.111673e+002 -1.413633e+001 -1.401049e+002 -1.421689e+001 -1.371248e+002 -4.379668e+000 1.633533e+002
25257831250 -7.329343e+000 1.108339e+002 -1.415855e+001 -1.418018e+002 -1.423004e+001 -1.388202e+002 -4.340227e+000 1.627939e+002
25276575000 -7.373981e+000 1.104977e+002 -1.417499e+001 -1.435174e+002 -1.424579e+001 -1.405513e+002 -4.299450e+000 1.622424e+002
25295318750 -7.426611e+000 1.101876e+002 -1.419409e+001 -1.452289e+002 -1.425633e+001 -1.422621e+002 -4.268174e+000 1.617029e+002
25314062500 -7.486099e+000 1.098435e+002 -1.421463e+001 -1.469215e+002 -1.426882e+001 -1.440066e+002 -4.238524e+000 1.611313e+002
25332806250 -7.532208e+000 1.094575e+002 -1.423053e+001 -1.486685e+002 -1.428939e+001 -1.457819e+002 -4.206281e+000 1.605910e+002
25351550000 -7.582097e+000 1.091939e+002 -1.424751e+001 -1.503927e+002 -1.430021e+001 -1.475464e+002 -4.184791e+000 1.600828e+002
25370293750 -7.642516e+000 1.088175e+002 -1.426102e+001 -1.521566e+002 -1.430457e+001 -1.492528e+002 -4.158439e+000 1.595629e+002
25389037500 -7.705314e+000 1.084898e+002 -1.427834e+001 -1.539084e+002 -1.431608e+001 -1.510477e+002 -4.137504e+000 1.590725e+002
25407781250 -7.757954e+000 1.082608e+002 -1.429923e+001 -1.556934e+002 -1.432717e+001 -1.527865e+002 -4.115663e+000 1.586228e+002
25426525000 -7.830122e+000 1.079892e+002 -1.431030e+001 -1.573906e+002 -1.434501e+001 -1.545950e+002 -4.109413e+000 1.581131e+002
25445268750 -7.886397e+000 1.076558e+002 -1.433560e+001 -1.591824e+002 -1.435428e+001 -1.563422e+002 -4.086914e+000 1.576282e+002
25464012500 -7.938852e+000 1.074545e+002 -1.435008e+001 -1.609510e+002 -1.437296e+001 -1.581176e+002 -4.073518e+000 1.572262e+002
25482756250 -7.994752e+000 1.073381e+002 -1.436009e+001 -1.626411e+002 -1.438812e+001 -1.599140e+002 -4.072443e+000 1.567991e+002
25501500000 -8.069514e+000 1.071919e+002 -1.438634e+001 -1.643667e+002 -1.439698e+001 -1.615973e+002 -4.055346e+000 1.562875e+002
25520243750 -8.136122e+000 1.069798e+002 -1.440242e+001 -1.661877e+002 -1.442086e+001 -1.633983e+002 -4.045388e+000 1.559308e+002
25538987500 -8.204790e+000 1.068576e+002 -1.441405e+001 -1.678951e+002 -1.441638e+001 -1.652234e+002 -4.045828e+000 1.554954e+002
25557731250 -8.271209e+000 1.067247e+002 -1.443483e+001 -1.696931e+002 -1.442206e+001 -1.669536e+002 -4.029717e+000 1.550745e+002
25576475000 -8.325859e+000 1.066313e+002 -1.445636e+001 -1.715297e+002 -1.444850e+001 -1.687787e+002 -4.018713e+000 1.547837e+002
25595218750 -8.388292e+000 1.066725e+002 -1.447387e+001 -1.732740e+002 -1.444837e+001 -1.705911e+002 -4.024661e+000 1.544098e+002
25613962500 -8.461180e+000 1.066663e+002 -1.449879e+001 -1.750509e+002 -1.446729e+001 -1.723525e+002 -4.014835e+000 1.540294e+002
25632706250 -8.514161e+000 1.066599e+002 -1.450269e+001 -1.768737e+002 -1.449124e+001 -1.742247e+002 -4.013855e+000 1.536989e+002
25651450000 -8.582674e+000 1.067392e+002 -1.451964e+001 -1.786722e+002 -1.450298e+001 -1.760921e+002 -4.020564e+000 1.533204e+002
25670193750 -8.646991e+000 1.067455e+002 -1.454460e+001 1.794460e+002 -1.452442e+001 -1.779297e+002 -4.011971e+000 1.529446e+002
25688937500 -8.701754e+000 1.067897e+002 -1.455880e+001 1.776529e+002 -1.454292e+001 -1.798207e+002 -4.011926e+000 1.526694e+002
25707681250 -8.762967e+000 1.069140e+002 -1.457232e+001 1.758279e+002 -1.455258e+001 1.783497e+002 -4.018864e+000 1.523093e+002
25726425000 -8.829151e+000 1.070633e+002 -1.458338e+001 1.739240e+002 -1.458315e+001 1.764945e+002 -4.016922e+000 1.519924e+002
25745168750 -8.884960e+000 1.071850e+002 -1.459138e+001 1.720800e+002 -1.460273e+001 1.745306e+002 -4.025600e+000 1.517280e+002
25763912500 -8.947317e+000 1.073758e+002 -1.461170e+001 1.702139e+002 -1.460342e+001 1.726622e+002 -4.035706e+000 1.513795e+002
25782656250 -9.006158e+000 1.075494e+002 -1.463065e+001 1.683002e+002 -1.463176e+001 1.707717e+002 -4.030159e+000 1.511019e+002
25801400000 -9.058024e+000 1.078132e+002 -1.464599e+001 1.664654e+002 -1.465503e+001 1.688074e+002 -4.041517e+000 1.508515e+002
25820143750 -9.097316e+000 1.081318e+002 -1.466331e+001 1.645578e+002 -1.466907e+001 1.669555e+002 -4.049901e+000 1.505694e+002
25838887500 -9.155842e+000 1.084042e+002 -1.468552e+001 1.626561e+002 -1.469521e+001 1.649945e+002 -4.054149e+000 1.502766e+002
25857631250 -9.191391e+000 1.086189e+002 -1.470584e+001 1.607409e+002 -1.470774e+001 1.630910e+002 -4.055223e+000 1.500464e+002
25876375000 -9.225862e+000 1.089303e+002 -1.472575e+001 1.588154e+002 -1.472629e+001 1.611707e+002 -4.063264e+000 1.497861e+002
25895118750 -9.269431e+000 1.092270e+002 -1.473969e+001 1.568191e+002 -1.474139e+001 1.592094e+002 -4.065691e+000 1.495339e+002
25913862500 -9.303098e+000 1.094772e+002 -1.475927e+001 1.549108e+002 -1.475620e+001 1.572995e+002 -4.066483e+000 1.493770e+002
25932606250 -9.317580e+000 1.098356e+002 -1.478110e+001 1.529398e+002 -1.478468e+001 1.552946e+002 -4.080892e+000 1.492109e+002
25951350000 -9.346428e+000 1.102590e+002 -1.480303e+001 1.510125e+002 -1.481417e+001 1.533516e+002 -4.092058e+000 1.489629e+002
25970093750 -9.362446e+000 1.105194e+002 -1.484265e+001 1.490323e+002 -1.485022e+001 1.513872e+002 -4.098217e+000 1.487839e+002
25988837500 -9.364627e+000 1.108541e+002 -1.487731e+001 1.469896e+002 -1.487545e+001 1.493809e+002 -4.108661e+000 1.485948e+002
26007581250 -9.375652e+000 1.112049e+002 -1.488991e+001 1.450469e+002 -1.489730e+001 1.473985e+002 -4.115267e+000 1.483754e+002
26026325000 -9.375733e+000 1.114962e+002 -1.492582e+001 1.430593e+002 -1.492431e+001 1.454727e+002 -4.115026e+000 1.482453e+002
26045068750 -9.360057e+000 1.119037e+002 -1.494695e+001 1.410329e+002 -1.494905e+001 1.434347e+002 -4.129878e+000 1.480975e+002
26063812500 -9.370649e+000 1.123023e+002 -1.497222e+001 1.390332e+002 -1.497919e+001 1.414256e+002 -4.138956e+000 1.479240e+002
26082556250 -9.359048e+000 1.125796e+002 -1.500768e+001 1.370232e+002 -1.501046e+001 1.394261e+002 -4.139076e+000 1.477915e+002
26101300000 -9.332917e+000 1.128969e+002 -1.503459e+001 1.350170e+002 -1.504322e+001 1.374079e+002 -4.151184e+000 1.476752e+002
26120043750 -9.308744e+000 1.132624e+002 -1.506666e+001 1.329762e+002 -1.506987e+001 1.353624e+002 -4.152415e+000 1.475198e+002
26138787500 -9.274263e+000 1.135219e+002 -1.510979e+001 1.309556e+002 -1.510426e+001 1.333061e+002 -4.154913e+000 1.474675e+002
26157531250 -9.229391e+000 1.138714e+002 -1.515196e+001 1.288754e+002 -1.513844e+001 1.311999e+002 -4.162322e+000 1.473605e+002
26176275000 -9.202765e+000 1.141756e+002 -1.519567e+001 1.268673e+002 -1.515952e+001 1.291978e+002 -4.162131e+000 1.472318e+002
26195018750 -9.161587e+000 1.143726e+002 -1.523580e+001 1.248073e+002 -1.519969e+001 1.271468e+002 -4.160999e+000 1.471781e+002
26213762500 -9.100003e+000 1.146387e+002 -1.526936e+001 1.227065e+002 -1.524402e+001 1.250595e+002 -4.167115e+000 1.470734e+002
26232506250 -9.049480e+000 1.148544e+002 -1.530889e+001 1.206559e+002 -1.527943e+001 1.229689e+002 -4.163266e+000 1.469861e+002
26251250000 -8.986117e+000 1.150240e+002 -1.534921e+001 1.186132e+002 -1.533007e+001 1.208904e+002 -4.167780e+000 1.469279e+002
26269993750 -8.925619e+000 1.152853e+002 -1.538894e+001 1.165482e+002 -1.537221e+001 1.187620e+002 -4.176597e+000 1.468358e+002
26288737500 -8.878076e+000 1.154577e+002 -1.543547e+001 1.144537e+002 -1.541502e+001 1.166889e+002 -4.175778e+000 1.467307e+002
26307481250 -8.818232e+000 1.155576e+002 -1.548409e+001 1.123022e+002 -1.546671e+001 1.145602e+002 -4.174664e+000 1.466842e+002
26326225000 -8.746533e+000 1.156799e+002 -1.552651e+001 1.102351e+002 -1.551364e+001 1.124351e+002 -4.175023e+000 1.465726e+002
26344968750 -8.684324e+000 1.157390e+002 -1.558215e+001 1.081390e+002 -1.555942e+001 1.103284e+002 -4.167309e+000 1.464591e+002
26363712500 -8.607435e+000 1.157767e+002 -1.563740e+001 1.060038e+002 -1.560575e+001 1.081937e+002 -4.168145e+000 1.464085e+002
26382456250 -8.541026e+000 1.158928e+002 -1.568128e+001 1.039058e+002 -1.564763e+001 1.060136e+002 -4.170969e+000 1.462970e+002
26401200000 -8.491312e+000 1.158608e+002 -1.573646e+001 1.018472e+002 -1.569153e+001 1.039573e+002 -4.158650e+000 1.461684e+002
26419943750 -8.420898e+000 1.157706e+002 -1.578838e+001 9.974913e+001 -1.575635e+001 1.018113e+002 -4.153544e+000 1.461006e+002
26438687500 -8.354470e+000 1.157403e+002 -1.583840e+001 9.764581e+001 -1.580232e+001 9.961143e+001 -4.148297e+000 1.459972e+002
26457431250 -8.292747e+000 1.155923e+002 -1.589064e+001 9.551658e+001 -1.586815e+001 9.746887e+001 -4.136469e+000 1.459323e+002
26476175000 -8.216161e+000 1.154394e+002 -1.595170e+001 9.337287e+001 -1.593265e+001 9.536160e+001 -4.132755e+000 1.458716e+002
26494918750 -8.154685e+000 1.153662e+002 -1.601293e+001 9.126450e+001 -1.597975e+001 9.323250e+001 -4.127848e+000 1.457105e+002
26513662500 -8.103055e+000 1.151612e+002 -1.607313e+001 8.911069e+001 -1.604605e+001 9.109821e+001 -4.116283e+000 1.455695e+002
26532406250 -8.036079e+000 1.149428e+002 -1.613416e+001 8.694257e+001 -1.611392e+001 8.895872e+001 -4.104167e+000 1.454629e+002
26551150000 -7.982147e+000 1.147173e+002 -1.619455e+001 8.478960e+001 -1.616651e+001 8.690870e+001 -4.088682e+000 1.453189e+002
26569893750 -7.924911e+000 1.144166e+002 -1.626160e+001 8.264641e+001 -1.623230e+001 8.485574e+001 -4.075113e+000 1.452201e+002
26588637500 -7.858544e+000 1.141830e+002 -1.631639e+001 8.056386e+001 -1.628917e+001 8.275394e+001 -4.073992e+000 1.451419e+002
26607381250 -7.812094e+000 1.139816e+002 -1.637786e+001 7.842134e+001 -1.636051e+001 8.061485e+001 -4.066051e+000 1.449322e+002
26626125000 -7.768754e+000 1.136251e+002 -1.645368e+001 7.627328e+001 -1.643604e+001 7.851135e+001 -4.053570e+000 1.447530e+002
26644868750 -7.718668e+000 1.132526e+002 -1.652689e+001 7.414233e+001 -1.649322e+001 7.637970e+001 -4.041183e+000 1.445729e+002
26663612500 -7.673348e+000 1.129111e+002 -1.659936e+001 7.209088e+001 -1.655413e+001 7.431616e+001 -4.020222e+000 1.443748e+002
26682356250 -7.628702e+000 1.125325e+002 -1.667303e+001 6.988012e+001 -1.662910e+001 7.220764e+001 -3.998757e+000 1.442815e+002
26701100000 -7.576087e+000 1.122290e+002 -1.673746e+001 6.780366e+001 -1.669906e+001 7.012453e+001 -3.988233e+000 1.441267e+002
26719843750 -7.551347e+000 1.119160e+002 -1.681137e+001 6.575259e+001 -1.677808e+001 6.805066e+001 -3.974210e+000 1.438991e+002
26738587500 -7.522434e+000 1.114903e+002 -1.687901e+001 6.365450e+001 -1.685143e+001 6.596655e+001 -3.960085e+000 1.436992e+002
26757331250 -7.493575e+000 1.110912e+002 -1.696080e+001 6.153222e+001 -1.692083e+001 6.386816e+001 -3.946385e+000 1.434824e+002
26776075000 -7.463136e+000 1.107038e+002 -1.703555e+001 5.942125e+001 -1.699595e+001 6.180239e+001 -3.924326e+000 1.432817e+002
26794818750 -7.435441e+000 1.102477e+002 -1.710655e+001 5.730985e+001 -1.707591e+001 5.972376e+001 -3.900227e+000 1.431304e+002
26813562500 -7.405872e+000 1.098660e+002 -1.717931e+001 5.519306e+001 -1.714908e+001 5.764297e+001 -3.887224e+000 1.429404e+002
26832306250 -7.396545e+000 1.095262e+002 -1.725349e+001 5.302983e+001 -1.722292e+001 5.553604e+001 -3.871793e+000 1.426796e+002
26851050000 -7.385899e+000 1.090966e+002 -1.731430e+001 5.088121e+001 -1.729427e+001 5.342197e+001 -3.852630e+000 1.424477e+002
26869793750 -7.370810e+000 1.086802e+002 -1.739607e+001 4.874567e+001 -1.737177e+001 5.135862e+001 -3.835664e+000 1.422139e+002
26888537500 -7.363120e+000 1.082626e+002 -1.747580e+001 4.656876e+001 -1.745265e+001 4.925413e+001 -3.811395e+000 1.419636e+002
26907281250 -7.351984e+000 1.078221e+002 -1.755507e+001 4.444791e+001 -1.752082e+001 4.716413e+001 -3.790187e+000 1.417926e+002
26926025000 -7.346744e+000 1.075091e+002 -1.763191e+001 4.241671e+001 -1.759821e+001 4.502755e+001 -3.776162e+000 1.415819e+002
26944768750 -7.359129e+000 1.071390e+002 -1.771334e+001 4.029763e+001 -1.767549e+001 4.295856e+001 -3.757501e+000 1.413234e+002
26963512500 -7.368635e+000 1.067180e+002 -1.778443e+001 3.819435e+001 -1.774650e+001 4.084721e+001 -3.738055e+000 1.410833e+002
26982256250 -7.376562e+000 1.063334e+002 -1.785752e+001 3.613030e+001 -1.782803e+001 3.866619e+001 -3.724968e+000 1.408002e+002
27001000000 -7.392632e+000 1.059638e+002 -1.793424e+001 3.395587e+001 -1.791104e+001 3.648842e+001 -3.698347e+000 1.405614e+002
27019743750 -7.398088e+000 1.055866e+002 -1.802738e+001 3.181411e+001 -1.799569e+001 3.433024e+001 -3.676619e+000 1.403111e+002
27038487500 -7.413207e+000 1.053215e+002 -1.810499e+001 2.966007e+001 -1.807420e+001 3.223831e+001 -3.659329e+000 1.400938e+002
27057231250 -7.442286e+000 1.050284e+002 -1.818372e+001 2.753318e+001 -1.815698e+001 3.007797e+001 -3.633566e+000 1.398133e+002
27075975000 -7.464414e+000 1.047147e+002 -1.825969e+001 2.541530e+001 -1.823334e+001 2.793336e+001 -3.614177e+000 1.395742e+002
27094718750 -7.490988e+000 1.044314e+002 -1.834336e+001 2.318489e+001 -1.832624e+001 2.578745e+001 -3.594867e+000 1.392738e+002
27113462500 -7.519797e+000 1.040977e+002 -1.841688e+001 2.103679e+001 -1.840386e+001 2.364944e+001 -3.566312e+000 1.389892e+002
27132206250 -7.538694e+000 1.038046e+002 -1.850907e+001 1.883224e+001 -1.848908e+001 2.145761e+001 -3.551351e+000 1.387193e+002
27150950000 -7.562878e+000 1.036532e+002 -1.860504e+001 1.665594e+001 -1.856401e+001 1.931591e+001 -3.538281e+000 1.384230e+002
27169693750 -7.600347e+000 1.034123e+002 -1.868934e+001 1.450327e+001 -1.864494e+001 1.710629e+001 -3.511512e+000 1.381120e+002
27188437500 -7.625120e+000 1.031817e+002 -1.876777e+001 1.236710e+001 -1.873110e+001 1.487601e+001 -3.490121e+000 1.378586e+002
27207181250 -7.665750e+000 1.030300e+002 -1.884962e+001 1.010848e+001 -1.881281e+001 1.265693e+001 -3.464364e+000 1.375063e+002
27225925000 -7.705947e+000 1.028333e+002 -1.893884e+001 7.874049e+000 -1.889681e+001 1.047535e+001 -3.437905e+000 1.372145e+002
27244668750 -7.725793e+000 1.027211e+002 -1.904475e+001 5.696062e+000 -1.899229e+001 8.276463e+000 -3.418901e+000 1.369220e+002
27263412500 -7.763259e+000 1.027081e+002 -1.912805e+001 3.565536e+000 -1.908681e+001 6.129488e+000 -3.401064e+000 1.366117e+002
27282156250 -7.808449e+000 1.026058e+002 -1.923462e+001 1.396899e+000 -1.918447e+001 3.913757e+000 -3.375364e+000 1.362922e+002
27300900000 -7.840933e+000 1.025183e+002 -1.933543e+001 -8.579835e-001 -1.928306e+001 1.758723e+000 -3.355549e+000 1.359412e+002
27319643750 -7.884364e+000 1.025113e+002 -1.944118e+001 -2.945617e+000 -1.937130e+001 -4.532238e-001 -3.329615e+000 1.355769e+002
27338387500 -7.917811e+000 1.024584e+002 -1.953613e+001 -5.098294e+000 -1.946701e+001 -2.621805e+000 -3.298460e+000 1.352709e+002
27357131250 -7.934504e+000 1.024628e+002 -1.963322e+001 -7.337085e+000 -1.958826e+001 -4.782442e+000 -3.278655e+000 1.349791e+002
27375875000 -7.967322e+000 1.025673e+002 -1.973589e+001 -9.442333e+000 -1.968975e+001 -7.000517e+000 -3.253330e+000 1.346131e+002
27394618750 -8.000463e+000 1.025781e+002 -1.984876e+001 -1.163326e+001 -1.978960e+001 -9.267225e+000 -3.222940e+000 1.342772e+002
27413362500 -8.017469e+000 1.026639e+002 -1.996669e+001 -1.391149e+001 -1.989012e+001 -1.150325e+001 -3.202275e+000 1.339655e+002
27432106250 -8.045980e+000 1.027903e+002 -2.006768e+001 -1.598980e+001 -2.000078e+001 -1.370264e+001 -3.173456e+000 1.335707e+002
27450850000 -8.073916e+000 1.028429e+002 -2.017141e+001 -1.806750e+001 -2.010857e+001 -1.582207e+001 -3.146893e+000 1.332774e+002
27469593750 -8.070859e+000 1.030079e+002 -2.029502e+001 -2.024553e+001 -2.022041e+001 -1.807559e+001 -3.135916e+000 1.329170e+002
27488337500 -8.090918e+000 1.032107e+002 -2.039832e+001 -2.246980e+001 -2.033188e+001 -2.016073e+001 -3.117560e+000 1.325111e+002
27507081250 -8.105961e+000 1.033701e+002 -2.052308e+001 -2.464869e+001 -2.046096e+001 -2.232294e+001 -3.093442e+000 1.321666e+002
27525825000 -8.107798e+000 1.036338e+002 -2.063745e+001 -2.690401e+001 -2.057066e+001 -2.449363e+001 -3.076620e+000 1.317899e+002
27544568750 -8.126013e+000 1.038648e+002 -2.074578e+001 -2.901693e+001 -2.068168e+001 -2.658849e+001 -3.047297e+000 1.313772e+002
27563312500 -8.127255e+000 1.040155e+002 -2.087673e+001 -3.122252e+001 -2.081049e+001 -2.868822e+001 -3.015524e+000 1.310952e+002
27582056250 -8.111369e+000 1.042840e+002 -2.097578e+001 -3.347381e+001 -2.093397e+001 -3.089556e+001 -2.992784e+000 1.307681e+002
27600800000 -8.115548e+000 1.045604e+002 -2.109101e+001 -3.557566e+001 -2.106676e+001 -3.299630e+001 -2.968283e+000 1.303872e+002
27619543750 -8.104703e+000 1.047428e+002 -2.122977e+001 -3.768790e+001 -2.119982e+001 -3.507233e+001 -2.942794e+000 1.300412e+002
27638287500 -8.076008e+000 1.050484e+002 -2.135961e+001 -3.973215e+001 -2.132337e+001 -3.713862e+001 -2.929732e+000 1.296616e+002
27657031250 -8.068902e+000 1.052733e+002 -2.147375e+001 -4.172460e+001 -2.145591e+001 -3.926395e+001 -2.896884e+000 1.292576e+002
27675775000 -8.042276e+000 1.054247e+002 -2.160095e+001 -4.390297e+001 -2.157700e+001 -4.134034e+001 -2.869396e+000 1.289611e+002
27694518750 -8.000928e+000 1.057124e+002 -2.173438e+001 -4.605991e+001 -2.172343e+001 -4.350699e+001 -2.850577e+000 1.285885e+002
27713262500 -7.973804e+000 1.059864e+002 -2.186537e+001 -4.808993e+001 -2.186283e+001 -4.554228e+001 -2.825579e+000 1.282147e+002
27732006250 -7.931175e+000 1.061966e+002 -2.200672e+001 -5.003498e+001 -2.199489e+001 -4.756588e+001 -2.799438e+000 1.279065e+002
27750750000 -7.882629e+000 1.064417e+002 -2.212390e+001 -5.212560e+001 -2.213099e+001 -4.949537e+001 -2.781594e+000 1.274975e+002
27769493750 -7.855507e+000 1.066061e+002 -2.225068e+001 -5.413745e+001 -2.227616e+001 -5.152166e+001 -2.750612e+000 1.271051e+002
27788237500 -7.804593e+000 1.067265e+002 -2.239368e+001 -5.622674e+001 -2.241824e+001 -5.361674e+001 -2.727520e+000 1.267957e+002
27806981250 -7.746424e+000 1.069570e+002 -2.253093e+001 -5.840199e+001 -2.254976e+001 -5.561061e+001 -2.714602e+000 1.264189e+002
27825725000 -7.699783e+000 1.071153e+002 -2.267755e+001 -6.036092e+001 -2.269367e+001 -5.759287e+001 -2.692407e+000 1.260473e+002
27844468750 -7.635486e+000 1.072496e+002 -2.281525e+001 -6.235737e+001 -2.285242e+001 -5.946104e+001 -2.673689e+000 1.256674e+002
27863212500 -7.575593e+000 1.074297e+002 -2.296137e+001 -6.436983e+001 -2.297846e+001 -6.148514e+001 -2.652079e+000 1.252405e+002
27881956250 -7.522425e+000 1.074883e+002 -2.312628e+001 -6.643635e+001 -2.312465e+001 -6.348056e+001 -2.618824e+000 1.248421e+002
27900700000 -7.455695e+000 1.074657e+002 -2.326246e+001 -6.846664e+001 -2.328503e+001 -6.530939e+001 -2.591622e+000 1.245372e+002
27919443750 -7.386311e+000 1.075921e+002 -2.341062e+001 -7.032729e+001 -2.343889e+001 -6.733691e+001 -2.572718e+000 1.241870e+002
27938187500 -7.325896e+000 1.076031e+002 -2.356806e+001 -7.228207e+001 -2.358158e+001 -6.918262e+001 -2.547068e+000 1.238059e+002
27956931250 -7.249963e+000 1.075688e+002 -2.370735e+001 -7.415710e+001 -2.376037e+001 -7.106743e+001 -2.527679e+000 1.234849e+002
27975675000 -7.176769e+000 1.076168e+002 -2.388681e+001 -7.609232e+001 -2.390754e+001 -7.320518e+001 -2.511423e+000 1.230862e+002
27994418750 -7.113418e+000 1.075263e+002 -2.402767e+001 -7.787812e+001 -2.405135e+001 -7.510400e+001 -2.481040e+000 1.227197e+002
28013162500 -7.031822e+000 1.074012e+002 -2.418960e+001 -7.972180e+001 -2.420697e+001 -7.701389e+001 -2.462280e+000 1.223934e+002
28031906250 -6.952070e+000 1.073727e+002 -2.434821e+001 -8.150440e+001 -2.435961e+001 -7.901704e+001 -2.444577e+000 1.220389e+002
28050650000 -6.887897e+000 1.072668e+002 -2.450660e+001 -8.339966e+001 -2.452506e+001 -8.085384e+001 -2.425136e+000 1.216853e+002
28069393750 -6.816031e+000 1.070911e+002 -2.463935e+001 -8.523711e+001 -2.469381e+001 -8.284135e+001 -2.412870e+000 1.213641e+002
28088137500 -6.742358e+000 1.070016e+002 -2.480464e+001 -8.711712e+001 -2.484941e+001 -8.474751e+001 -2.400482e+000 1.209664e+002
28106881250 -6.679387e+000 1.067912e+002 -2.495523e+001 -8.879298e+001 -2.502014e+001 -8.669791e+001 -2.375576e+000 1.206181e+002
28125625000 -6.597301e+000 1.065383e+002 -2.512892e+001 -9.054420e+001 -2.517556e+001 -8.858270e+001 -2.360393e+000 1.203088e+002
28144368750 -6.527917e+000 1.063615e+002 -2.528734e+001 -9.232738e+001 -2.533754e+001 -9.044435e+001 -2.344406e+000 1.199001e+002
28163112500 -6.465332e+000 1.061146e+002 -2.543706e+001 -9.420359e+001 -2.552280e+001 -9.221643e+001 -2.326117e+000 1.195624e+002
28181856250 -6.387787e+000 1.059052e+002 -2.560138e+001 -9.610869e+001 -2.568789e+001 -9.422079e+001 -2.314821e+000 1.192325e+002
28200600000 -6.321328e+000 1.057528e+002 -2.577917e+001 -9.799951e+001 -2.584337e+001 -9.602184e+001 -2.297983e+000 1.188518e+002
28219343750 -6.258327e+000 1.054316e+002 -2.596440e+001 -9.993000e+001 -2.597555e+001 -9.752294e+001 -2.276559e+000 1.185293e+002
28238087500 -6.183338e+000 1.051270e+002 -2.611672e+001 -1.015641e+002 -2.613812e+001 -9.922041e+001 -2.260981e+000 1.182174e+002
28256831250 -6.118488e+000 1.049075e+002 -2.628122e+001 -1.032886e+002 -2.630150e+001 -1.008823e+002 -2.246267e+000 1.178837e+002
28275575000 -6.060978e+000 1.045869e+002 -2.646212e+001 -1.049977e+002 -2.645867e+001 -1.025920e+002 -2.230687e+000 1.175676e+002
28294318750 -5.989757e+000 1.043146e+002 -2.663057e+001 -1.067987e+002 -2.664946e+001 -1.041764e+002 -2.226502e+000 1.172347e+002
28313062500 -5.933928e+000 1.040487e+002 -2.677459e+001 -1.084365e+002 -2.680210e+001 -1.057941e+002 -2.212276e+000 1.168726e+002
28331806250 -5.879683e+000 1.037040e+002 -2.693263e+001 -1.100632e+002 -2.698238e+001 -1.075519e+002 -2.194480e+000 1.165351e+002
28350550000 -5.814117e+000 1.033760e+002 -2.710582e+001 -1.117271e+002 -2.714930e+001 -1.091389e+002 -2.185006e+000 1.162206e+002
28369293750 -5.761131e+000 1.030727e+002 -2.729816e+001 -1.132901e+002 -2.730611e+001 -1.108984e+002 -2.173404e+000 1.158863e+002
28388037500 -5.703081e+000 1.026691e+002 -2.749260e+001 -1.149522e+002 -2.746754e+001 -1.125135e+002 -2.167537e+000 1.155588e+002
28406781250 -5.645132e+000 1.023392e+002 -2.765797e+001 -1.163281e+002 -2.765359e+001 -1.139491e+002 -2.165554e+000 1.152053e+002
28425525000 -5.595455e+000 1.020297e+002 -2.784205e+001 -1.179827e+002 -2.784572e+001 -1.154999e+002 -2.152983e+000 1.148164e+002
28444268750 -5.547258e+000 1.016442e+002 -2.803284e+001 -1.194511e+002 -2.803441e+001 -1.172732e+002 -2.142325e+000 1.144857e+002
28463012500 -5.494747e+000 1.013090e+002 -2.822084e+001 -1.210079e+002 -2.822986e+001 -1.185897e+002 -2.134783e+000 1.141818e+002
28481756250 -5.448506e+000 1.009410e+002 -2.842588e+001 -1.223606e+002 -2.838000e+001 -1.201007e+002 -2.123996e+000 1.138349e+002
28500500000 -5.394411e+000 1.005523e+002 -2.861740e+001 -1.240256e+002 -2.857866e+001 -1.213984e+002 -2.114388e+000 1.135456e+002
28519243750 -5.341337e+000 1.002330e+002 -2.880860e+001 -1.254037e+002 -2.874938e+001 -1.227354e+002 -2.109946e+000 1.132091e+002
28537987500 -5.298355e+000 9.988965e+001 -2.901834e+001 -1.268437e+002 -2.891373e+001 -1.240342e+002 -2.102870e+000 1.128567e+002
28556731250 -5.253642e+000 9.948179e+001 -2.920702e+001 -1.279873e+002 -2.912403e+001 -1.254528e+002 -2.094349e+000 1.125536e+002
28575475000 -5.200169e+000 9.908556e+001 -2.938453e+001 -1.295278e+002 -2.930149e+001 -1.269250e+002 -2.093254e+000 1.122459e+002
28594218750 -5.157825e+000 9.867545e+001 -2.960670e+001 -1.306842e+002 -2.947114e+001 -1.283136e+002 -2.088732e+000 1.119146e+002
28612962500 -5.109388e+000 9.822830e+001 -2.978752e+001 -1.320559e+002 -2.968722e+001 -1.296181e+002 -2.084932e+000 1.115959e+002
28631706250 -5.058129e+000 9.785113e+001 -2.997001e+001 -1.331408e+002 -2.985492e+001 -1.310620e+002 -2.084462e+000 1.112304e+002
28650450000 -5.019822e+000 9.745537e+001 -3.012665e+001 -1.341628e+002 -3.003909e+001 -1.324395e+002 -2.077962e+000 1.108674e+002
28669193750 -4.975955e+000 9.702877e+001 -3.032132e+001 -1.354496e+002 -3.024739e+001 -1.337888e+002 -2.071532e+000 1.105726e+002
28687937500 -4.932666e+000 9.662887e+001 -3.053416e+001 -1.368378e+002 -3.042900e+001 -1.349950e+002 -2.073456e+000 1.102144e+002
28706681250 -4.896307e+000 9.618469e+001 -3.070096e+001 -1.378677e+002 -3.060905e+001 -1.363534e+002 -2.070215e+000 1.098938e+002
28725425000 -4.856310e+000 9.571994e+001 -3.087152e+001 -1.388993e+002 -3.076505e+001 -1.375877e+002 -2.072080e+000 1.095669e+002
28744168750 -4.813829e+000 9.530972e+001 -3.105521e+001 -1.399375e+002 -3.093161e+001 -1.386652e+002 -2.072133e+000 1.092019e+002
28762912500 -4.780255e+000 9.488025e+001 -3.126870e+001 -1.411051e+002 -3.103559e+001 -1.398675e+002 -2.064513e+000 1.088677e+002
28781656250 -4.740693e+000 9.440565e+001 -3.145119e+001 -1.420704e+002 -3.121749e+001 -1.410605e+002 -2.061851e+000 1.085492e+002
28800400000 -4.703040e+000 9.396497e+001 -3.160706e+001 -1.430663e+002 -3.139270e+001 -1.419884e+002 -2.061458e+000 1.082167e+002
28819143750 -4.674281e+000 9.353495e+001 -3.177949e+001 -1.441780e+002 -3.153896e+001 -1.430586e+002 -2.058047e+000 1.078914e+002
28837887500 -4.636991e+000 9.305333e+001 -3.194795e+001 -1.452447e+002 -3.168171e+001 -1.437584e+002 -2.058289e+000 1.075932e+002
28856631250 -4.606725e+000 9.261836e+001 -3.212178e+001 -1.461424e+002 -3.179508e+001 -1.446121e+002 -2.065441e+000 1.072363e+002
28875375000 -4.580021e+000 9.214125e+001 -3.227024e+001 -1.470669e+002 -3.194088e+001 -1.451742e+002 -2.064392e+000 1.069128e+002
28894118750 -4.548049e+000 9.167133e+001 -3.242101e+001 -1.478593e+002 -3.207601e+001 -1.460130e+002 -2.073060e+000 1.065504e+002
28912862500 -4.517239e+000 9.123606e+001 -3.256139e+001 -1.489307e+002 -3.225668e+001 -1.469356e+002 -2.075594e+000 1.061986e+002
28931606250 -4.491667e+000 9.073253e+001 -3.273057e+001 -1.498177e+002 -3.238661e+001 -1.480026e+002 -2.077469e+000 1.058012e+002
28950350000 -4.461214e+000 9.026479e+001 -3.288744e+001 -1.505752e+002 -3.253353e+001 -1.489461e+002 -2.084509e+000 1.054387e+002
28969093750 -4.437970e+000 8.982202e+001 -3.303162e+001 -1.512858e+002 -3.269217e+001 -1.496543e+002 -2.082057e+000 1.050683e+002
28987837500 -4.415156e+000 8.936980e+001 -3.312170e+001 -1.522151e+002 -3.280201e+001 -1.503700e+002 -2.083594e+000 1.047571e+002
29006581250 -4.393002e+000 8.894555e+001 -3.330076e+001 -1.529370e+002 -3.290036e+001 -1.509608e+002 -2.093741e+000 1.044520e+002
29025325000 -4.372716e+000 8.851395e+001 -3.344297e+001 -1.537996e+002 -3.302684e+001 -1.516523e+002 -2.106876e+000 1.040737e+002
29044068750 -4.357634e+000 8.804488e+001 -3.356611e+001 -1.543555e+002 -3.310414e+001 -1.524545e+002 -2.115368e+000 1.037259e+002
29062812500 -4.335134e+000 8.757298e+001 -3.368215e+001 -1.552583e+002 -3.325106e+001 -1.529946e+002 -2.129202e+000 1.033551e+002
29081556250 -4.319925e+000 8.714212e+001 -3.379660e+001 -1.561178e+002 -3.339912e+001 -1.536475e+002 -2.133826e+000 1.029480e+002
29100300000 -4.303465e+000 8.670038e+001 -3.390567e+001 -1.570747e+002 -3.349661e+001 -1.537745e+002 -2.139456e+000 1.025976e+002
29119043750 -4.291786e+000 8.627403e+001 -3.397613e+001 -1.578248e+002 -3.362620e+001 -1.549230e+002 -2.149391e+000 1.022334e+002
29137787500 -4.280398e+000 8.581453e+001 -3.408754e+001 -1.587319e+002 -3.369945e+001 -1.554911e+002 -2.154934e+000 1.018570e+002
29156531250 -4.265399e+000 8.533417e+001 -3.423933e+001 -1.589753e+002 -3.382608e+001 -1.561481e+002 -2.163313e+000 1.015180e+002
29175275000 -4.248763e+000 8.488443e+001 -3.432223e+001 -1.601168e+002 -3.399692e+001 -1.572972e+002 -2.178226e+000 1.011430e+002
29194018750 -4.233911e+000 8.446504e+001 -3.441856e+001 -1.608456e+002 -3.418468e+001 -1.581480e+002 -2.189869e+000 1.007524e+002
29212762500 -4.218683e+000 8.402489e+001 -3.450104e+001 -1.618544e+002 -3.427120e+001 -1.588159e+002 -2.201993e+000 1.003801e+002
29231506250 -4.207344e+000 8.360329e+001 -3.464434e+001 -1.626824e+002 -3.442866e+001 -1.591823e+002 -2.218310e+000 1.000024e+002
29250250000 -4.203025e+000 8.315897e+001 -3.472326e+001 -1.631568e+002 -3.455341e+001 -1.595019e+002 -2.229443e+000 9.956577e+001
29268993750 -4.189665e+000 8.269453e+001 -3.481564e+001 -1.638803e+002 -3.478101e+001 -1.604634e+002 -2.242469e+000 9.916890e+001
29287737500 -4.175051e+000 8.226405e+001 -3.485968e+001 -1.650386e+002 -3.490513e+001 -1.615536e+002 -2.254020e+000 9.877425e+001
29306481250 -4.166020e+000 8.186736e+001 -3.495654e+001 -1.658650e+002 -3.501035e+001 -1.627434e+002 -2.260611e+000 9.837818e+001
29325225000 -4.150598e+000 8.145992e+001 -3.505127e+001 -1.667937e+002 -3.515759e+001 -1.635720e+002 -2.268863e+000 9.801794e+001
29343968750 -4.149745e+000 8.107323e+001 -3.512984e+001 -1.672867e+002 -3.518716e+001 -1.642741e+002 -2.286098e+000 9.764068e+001
29362712500 -4.146568e+000 8.066891e+001 -3.523726e+001 -1.682499e+002 -3.529540e+001 -1.650679e+002 -2.296419e+000 9.725417e+001
29381456250 -4.134077e+000 8.020337e+001 -3.530306e+001 -1.693111e+002 -3.541573e+001 -1.658633e+002 -2.311249e+000 9.686826e+001
29400200000 -4.125326e+000 7.979030e+001 -3.541979e+001 -1.702505e+002 -3.544912e+001 -1.669869e+002 -2.333449e+000 9.644654e+001
29418943750 -4.120258e+000 7.936035e+001 -3.556991e+001 -1.712463e+002 -3.551553e+001 -1.678654e+002 -2.340685e+000 9.600871e+001
29437687500 -4.109491e+000 7.896661e+001 -3.562160e+001 -1.718437e+002 -3.569897e+001 -1.685413e+002 -2.347632e+000 9.561653e+001
29456431250 -4.108068e+000 7.858209e+001 -3.565071e+001 -1.725943e+002 -3.586325e+001 -1.696445e+002 -2.361228e+000 9.522050e+001
29475175000 -4.106342e+000 7.814825e+001 -3.574398e+001 -1.730617e+002 -3.589314e+001 -1.699745e+002 -2.372655e+000 9.484457e+001
29493918750 -4.103261e+000 7.770444e+001 -3.575565e+001 -1.736219e+002 -3.600489e+001 -1.707948e+002 -2.386301e+000 9.447776e+001
29512662500 -4.095879e+000 7.731357e+001 -3.579266e+001 -1.745099e+002 -3.606339e+001 -1.718036e+002 -2.408334e+000 9.406798e+001
29531406250 -4.089831e+000 7.690551e+001 -3.587008e+001 -1.754663e+002 -3.612209e+001 -1.733763e+002 -2.419070e+000 9.366870e+001
29550150000 -4.081148e+000 7.653405e+001 -3.593538e+001 -1.763983e+002 -3.612593e+001 -1.738719e+002 -2.435746e+000 9.329236e+001
29568893750 -4.082397e+000 7.616536e+001 -3.591454e+001 -1.771064e+002 -3.620787e+001 -1.752265e+002 -2.455629e+000 9.286907e+001
29587637500 -4.084200e+000 7.573353e+001 -3.594936e+001 -1.787365e+002 -3.627610e+001 -1.763201e+002 -2.470291e+000 9.245365e+001
29606381250 -4.073771e+000 7.535516e+001 -3.601868e+001 -1.794084e+002 -3.628022e+001 -1.765545e+002 -2.486331e+000 9.204900e+001
29625125000 -4.071969e+000 7.498586e+001 -3.614106e+001 1.792034e+002 -3.629870e+001 -1.773217e+002 -2.502382e+000 9.161720e+001
29643868750 -4.069600e+000 7.461056e+001 -3.621260e+001 1.784477e+002 -3.628075e+001 -1.783139e+002 -2.511710e+000 9.122214e+001
29662612500 -4.066230e+000 7.427469e+001 -3.615999e+001 1.774476e+002 -3.634466e+001 1.799579e+002 -2.530101e+000 9.083211e+001
29681356250 -4.072998e+000 7.388029e+001 -3.623068e+001 1.760575e+002 -3.639305e+001 1.785875e+002 -2.550733e+000 9.046579e+001
29700100000 -4.075054e+000 7.345319e+001 -3.622450e+001 1.747914e+002 -3.634127e+001 1.769301e+002 -2.565519e+000 9.004142e+001
29718843750 -4.075169e+000 7.306577e+001 -3.626807e+001 1.737746e+002 -3.637960e+001 1.760400e+002 -2.586418e+000 8.964426e+001
29737587500 -4.077409e+000 7.268874e+001 -3.626749e+001 1.726125e+002 -3.641320e+001 1.750585e+002 -2.602921e+000 8.919395e+001
29756331250 -4.078958e+000 7.232155e+001 -3.635209e+001 1.712515e+002 -3.638738e+001 1.734896e+002 -2.616670e+000 8.883028e+001
29775075000 -4.079996e+000 7.200878e+001 -3.637704e+001 1.699236e+002 -3.650771e+001 1.724115e+002 -2.635696e+000 8.847054e+001
29793818750 -4.091945e+000 7.163136e+001 -3.641311e+001 1.684433e+002 -3.647956e+001 1.709147e+002 -2.657589e+000 8.811517e+001
29812562500 -4.107910e+000 7.123070e+001 -3.647909e+001 1.667828e+002 -3.643789e+001 1.694075e+002 -2.674326e+000 8.779913e+001
29831306250 -4.114567e+000 7.084063e+001 -3.648267e+001 1.650207e+002 -3.647102e+001 1.680740e+002 -2.693964e+000 8.748710e+001
29850050000 -4.125076e+000 7.048908e+001 -3.649775e+001 1.633542e+002 -3.645771e+001 1.666477e+002 -2.719129e+000 8.715615e+001
29868793750 -4.134329e+000 7.010288e+001 -3.654325e+001 1.615363e+002 -3.636162e+001 1.649962e+002 -2.737407e+000 8.684942e+001
29887537500 -4.135623e+000 6.980362e+001 -3.659860e+001 1.597492e+002 -3.625317e+001 1.637509e+002 -2.751867e+000 8.657239e+001
29906281250 -4.148457e+000 6.954920e+001 -3.664449e+001 1.577705e+002 -3.629197e+001 1.620141e+002 -2.767779e+000 8.628638e+001
29925025000 -4.159555e+000 6.925307e+001 -3.675983e+001 1.559701e+002 -3.622383e+001 1.605758e+002 -2.781565e+000 8.605351e+001
29943768750 -4.166840e+000 6.897286e+001 -3.685571e+001 1.545655e+002 -3.619547e+001 1.592724e+002 -2.794554e+000 8.584898e+001
29962512500 -4.179785e+000 6.869918e+001 -3.690001e+001 1.534536e+002 -3.618003e+001 1.581555e+002 -2.814343e+000 8.561604e+001
29981256250 -4.183860e+000 6.840461e+001 -3.695455e+001 1.522701e+002 -3.620052e+001 1.569851e+002 -2.826023e+000 8.541759e+001
30000000000 -4.184299e+000 6.821466e+001 -3.708204e+001 1.507932e+002 -3.619633e+001 1.562291e+002 -2.836984e+000 8.525562e+001
