!Agilent Technologies,E8364B,MY43040894,A.07.50.67
!Agilent E8364B: A.07.50.67
!Date: Wednesday, May 13, 2020 06:23:54
!Correction: S11(Full 2 Port(1,2)) 
!S21(Full 2 Port(1,2)) 
!S12(Full 2 Port(1,2)) 
!S22(Full 2 Port(1,2)) 
!S2P File: Measurements: S11, S21, S12, S22:
# Hz S  dB   R 50
10000000 -9.062204e-002 -1.851814e+000 -4.923576e+001 3.949733e+001 -4.696207e+001 3.509277e-001 -1.421922e-001 -4.807940e+000
28743750 -9.097068e-002 -2.139408e+000 -5.040028e+001 3.467638e+001 -4.757668e+001 1.937849e+001 -1.517351e-001 -5.482266e+000
47487500 -9.203964e-002 -2.454557e+000 -5.111937e+001 3.433351e+001 -4.833726e+001 3.865606e+001 -1.616602e-001 -6.227204e+000
66231250 -8.933005e-002 -2.777307e+000 -5.147123e+001 3.082436e+001 -4.898005e+001 5.579243e+001 -1.734577e-001 -7.009706e+000
84975000 -8.770590e-002 -3.141986e+000 -5.168845e+001 2.884451e+001 -4.978823e+001 7.903657e+001 -1.849267e-001 -7.856763e+000
103718750 -8.777865e-002 -3.528219e+000 -5.223360e+001 2.652813e+001 -5.045056e+001 9.928065e+001 -1.952279e-001 -8.757880e+000
122462500 -8.874328e-002 -3.929564e+000 -5.310037e+001 2.524472e+001 -5.118980e+001 1.201796e+002 -2.050183e-001 -9.695619e+000
141206250 -8.996414e-002 -4.367081e+000 -5.364176e+001 2.388498e+001 -5.224248e+001 1.410640e+002 -2.171848e-001 -1.069225e+001
159950000 -9.253521e-002 -4.824005e+000 -5.412810e+001 2.246222e+001 -5.302026e+001 1.612487e+002 -2.289609e-001 -1.173891e+001
178693750 -9.254844e-002 -5.292608e+000 -5.462506e+001 2.006734e+001 -5.360845e+001 -1.796959e+002 -2.420030e-001 -1.283101e+001
197437500 -9.338792e-002 -5.792086e+000 -5.564409e+001 2.441069e+001 -5.430540e+001 -1.613237e+002 -2.561779e-001 -1.399197e+001
216181250 -9.579584e-002 -6.320600e+000 -5.623795e+001 2.100530e+001 -5.497101e+001 -1.418082e+002 -2.700609e-001 -1.519055e+001
234925000 -9.686259e-002 -6.869006e+000 -5.679307e+001 1.739187e+001 -5.565038e+001 -1.232386e+002 -2.839249e-001 -1.645704e+001
253668750 -9.838097e-002 -7.400903e+000 -5.699638e+001 1.435462e+001 -5.616587e+001 -1.036657e+002 -2.953734e-001 -1.769796e+001
272412500 -1.026220e-001 -7.934661e+000 -5.720592e+001 1.138195e+001 -5.696799e+001 -9.153259e+001 -3.059347e-001 -1.892482e+001
291156250 -1.034955e-001 -8.466767e+000 -5.780060e+001 1.249490e+001 -5.761170e+001 -7.973885e+001 -3.204988e-001 -2.014455e+001
309900000 -1.063548e-001 -9.003147e+000 -5.844064e+001 1.374479e+001 -5.822095e+001 -5.899372e+001 -3.306471e-001 -2.137131e+001
328643750 -1.099820e-001 -9.526354e+000 -5.835443e+001 1.516938e+001 -5.795898e+001 -4.695662e+001 -3.388450e-001 -2.257459e+001
347387500 -1.111909e-001 -1.006620e+001 -5.853396e+001 8.347472e+000 -5.833397e+001 -3.284612e+001 -3.478604e-001 -2.380273e+001
366131250 -1.130876e-001 -1.058703e+001 -5.868556e+001 5.176475e+000 -5.844707e+001 -2.204982e+001 -3.594608e-001 -2.500698e+001
384875000 -1.162670e-001 -1.110367e+001 -5.934931e+001 7.332470e-001 -5.862125e+001 -1.641265e+001 -3.749775e-001 -2.620862e+001
403618750 -1.180529e-001 -1.163381e+001 -5.962716e+001 -1.507671e+000 -5.875332e+001 -1.455497e+001 -3.877532e-001 -2.741270e+001
422362500 -1.195728e-001 -1.216323e+001 -5.998693e+001 -5.023124e+000 -5.934287e+001 -1.576627e+001 -4.000825e-001 -2.860133e+001
441106250 -1.226242e-001 -1.268425e+001 -6.120895e+001 -5.508618e+000 -5.971336e+001 -1.569508e+001 -4.107883e-001 -2.979141e+001
459850000 -1.246048e-001 -1.321998e+001 -6.149714e+001 -5.067569e-001 -5.998852e+001 -1.441842e+001 -4.218850e-001 -3.099747e+001
478593750 -1.267638e-001 -1.375689e+001 -6.132730e+001 -3.876143e+000 -6.039782e+001 -1.494301e+001 -4.343589e-001 -3.217406e+001
497337500 -1.313783e-001 -1.430420e+001 -6.170211e+001 -4.372975e+000 -6.066538e+001 -1.328992e+001 -4.460820e-001 -3.336084e+001
516081250 -1.354699e-001 -1.482465e+001 -6.237833e+001 -3.425033e+000 -6.084122e+001 -1.849271e+001 -4.606774e-001 -3.453658e+001
534825000 -1.387305e-001 -1.535529e+001 -6.261526e+001 -3.895717e+000 -6.090996e+001 -1.995637e+001 -4.765431e-001 -3.571697e+001
553568750 -1.399301e-001 -1.589041e+001 -6.283210e+001 -7.439484e+000 -6.096931e+001 -2.012074e+001 -4.928934e-001 -3.690683e+001
572312500 -1.401242e-001 -1.640580e+001 -6.330051e+001 -1.016330e+001 -6.049224e+001 -2.022484e+001 -5.081636e-001 -3.807798e+001
591056250 -1.393734e-001 -1.694083e+001 -6.342712e+001 -1.275567e+001 -6.062766e+001 -2.392400e+001 -5.241137e-001 -3.924436e+001
609800000 -1.431666e-001 -1.747912e+001 -6.390173e+001 -1.383067e+001 -6.078221e+001 -2.372322e+001 -5.389844e-001 -4.042487e+001
628543750 -1.448146e-001 -1.800644e+001 -6.356668e+001 -1.778100e+001 -6.161620e+001 -1.904573e+001 -5.538380e-001 -4.158927e+001
647287500 -1.455221e-001 -1.853831e+001 -6.426404e+001 -1.668964e+001 -6.191930e+001 -1.530199e+001 -5.706073e-001 -4.277413e+001
666031250 -1.465825e-001 -1.906175e+001 -6.424444e+001 -1.791858e+001 -6.220475e+001 -1.698908e+001 -5.895948e-001 -4.393430e+001
684775000 -1.504353e-001 -1.957813e+001 -6.434701e+001 -1.569710e+001 -6.236982e+001 -1.964906e+001 -6.099942e-001 -4.509657e+001
703518750 -1.511487e-001 -2.011504e+001 -6.497855e+001 -1.784726e+001 -6.214653e+001 -1.404107e+001 -6.287208e-001 -4.627278e+001
722262500 -1.526521e-001 -2.063860e+001 -6.478720e+001 -1.797616e+001 -6.229554e+001 -9.395823e+000 -6.465037e-001 -4.743484e+001
741006250 -1.528444e-001 -2.115569e+001 -6.474586e+001 -1.729561e+001 -6.198587e+001 -1.344711e+001 -6.650202e-001 -4.860250e+001
759750000 -1.539469e-001 -2.169407e+001 -6.519559e+001 -1.937476e+001 -6.212081e+001 -1.269376e+001 -6.855139e-001 -4.977170e+001
778493750 -1.545115e-001 -2.221951e+001 -6.483171e+001 -1.825950e+001 -6.222298e+001 -1.213221e+001 -7.080306e-001 -5.093697e+001
797237500 -1.543102e-001 -2.274786e+001 -6.511761e+001 -1.574021e+001 -6.249960e+001 -1.417002e+001 -7.288269e-001 -5.209449e+001
815981250 -1.546431e-001 -2.327642e+001 -6.465157e+001 -1.434911e+001 -6.233009e+001 -1.598889e+001 -7.482617e-001 -5.324842e+001
834725000 -1.559083e-001 -2.379358e+001 -6.478628e+001 -1.427672e+001 -6.249950e+001 -1.531110e+001 -7.679759e-001 -5.440108e+001
853468750 -1.574750e-001 -2.430999e+001 -6.485870e+001 -1.423069e+001 -6.286770e+001 -1.448114e+001 -7.884894e-001 -5.554684e+001
872212500 -1.573668e-001 -2.483334e+001 -6.398168e+001 -1.185335e+001 -6.331075e+001 -1.642761e+001 -8.122123e-001 -5.670444e+001
890956250 -1.590429e-001 -2.535912e+001 -6.314329e+001 -1.499928e+001 -6.320401e+001 -1.849662e+001 -8.344187e-001 -5.783943e+001
909700000 -1.598087e-001 -2.587600e+001 -6.348055e+001 -1.335794e+001 -6.322953e+001 -1.786202e+001 -8.557901e-001 -5.898252e+001
928443750 -1.614774e-001 -2.639931e+001 -6.350244e+001 -1.280252e+001 -6.344536e+001 -1.842391e+001 -8.766577e-001 -6.012260e+001
947187500 -1.625463e-001 -2.692774e+001 -6.335164e+001 -1.437618e+001 -6.350916e+001 -1.745687e+001 -8.964610e-001 -6.126336e+001
965931250 -1.621553e-001 -2.745705e+001 -6.327892e+001 -1.650533e+001 -6.346651e+001 -1.734845e+001 -9.165894e-001 -6.239428e+001
984675000 -1.639469e-001 -2.798674e+001 -6.293812e+001 -1.128480e+001 -6.418053e+001 -1.523845e+001 -9.380630e-001 -6.352843e+001
1003418750 -1.653135e-001 -2.850122e+001 -6.273224e+001 -1.061518e+001 -6.438982e+001 -1.619306e+001 -9.582130e-001 -6.467290e+001
1022162500 -1.659647e-001 -2.900607e+001 -6.303413e+001 -1.030094e+001 -6.443075e+001 -1.410176e+001 -9.785473e-001 -6.581817e+001
1040906250 -1.664921e-001 -2.951580e+001 -6.299425e+001 -9.284389e+000 -6.450970e+001 -1.460654e+001 -1.000308e+000 -6.694669e+001
1059650000 -1.686362e-001 -3.003818e+001 -6.300208e+001 -1.399816e+001 -6.380205e+001 -1.807225e+001 -1.020240e+000 -6.806104e+001
1078393750 -1.701407e-001 -3.054227e+001 -6.239193e+001 -1.470401e+001 -6.358314e+001 -2.318665e+001 -1.041019e+000 -6.916633e+001
1097137500 -1.727381e-001 -3.106422e+001 -6.254490e+001 -1.205684e+001 -6.343739e+001 -1.949784e+001 -1.057591e+000 -7.027222e+001
1115881250 -1.739057e-001 -3.158891e+001 -6.231091e+001 -1.336763e+001 -6.319650e+001 -1.753856e+001 -1.075308e+000 -7.138462e+001
1134625000 -1.758710e-001 -3.210569e+001 -6.206571e+001 -9.966621e+000 -6.311682e+001 -2.020200e+001 -1.092341e+000 -7.249411e+001
1153368750 -1.766523e-001 -3.263087e+001 -6.277519e+001 -9.100581e+000 -6.312700e+001 -2.292521e+001 -1.110284e+000 -7.361148e+001
1172112500 -1.804054e-001 -3.314468e+001 -6.250502e+001 -9.567384e+000 -6.340558e+001 -2.590683e+001 -1.129948e+000 -7.471024e+001
1190856250 -1.833615e-001 -3.365820e+001 -6.216010e+001 -8.814867e+000 -6.332451e+001 -2.610395e+001 -1.149149e+000 -7.580717e+001
1209600000 -1.849277e-001 -3.415926e+001 -6.240921e+001 -9.670161e+000 -6.338097e+001 -2.642896e+001 -1.167165e+000 -7.689838e+001
1228343750 -1.868272e-001 -3.468688e+001 -6.259430e+001 -9.071044e+000 -6.330713e+001 -2.616041e+001 -1.183727e+000 -7.798653e+001
1247087500 -1.897218e-001 -3.520091e+001 -6.347287e+001 -1.388905e+001 -6.325806e+001 -2.641151e+001 -1.198217e+000 -7.907696e+001
1265831250 -1.921111e-001 -3.571560e+001 -6.330428e+001 -1.432110e+001 -6.344863e+001 -3.092094e+001 -1.212525e+000 -8.015565e+001
1284575000 -1.921900e-001 -3.622520e+001 -6.328563e+001 -1.478433e+001 -6.304123e+001 -3.258753e+001 -1.227958e+000 -8.124883e+001
1303318750 -1.938743e-001 -3.674100e+001 -6.312156e+001 -1.538980e+001 -6.283970e+001 -3.302275e+001 -1.242198e+000 -8.233420e+001
1322062500 -1.951891e-001 -3.724553e+001 -6.311634e+001 -1.554769e+001 -6.271769e+001 -3.122124e+001 -1.254084e+000 -8.341422e+001
1340806250 -1.952027e-001 -3.774988e+001 -6.321088e+001 -1.826334e+001 -6.230297e+001 -2.812093e+001 -1.269659e+000 -8.448535e+001
1359550000 -1.965046e-001 -3.826595e+001 -6.330744e+001 -1.763325e+001 -6.196524e+001 -2.606378e+001 -1.281770e+000 -8.553389e+001
1378293750 -1.992520e-001 -3.879015e+001 -6.328177e+001 -1.678904e+001 -6.170432e+001 -2.621293e+001 -1.292590e+000 -8.659584e+001
1397037500 -2.027654e-001 -3.928606e+001 -6.337496e+001 -1.463068e+001 -6.177096e+001 -2.449652e+001 -1.304532e+000 -8.767059e+001
1415781250 -2.043617e-001 -3.977982e+001 -6.354722e+001 -1.866830e+001 -6.122673e+001 -3.138820e+001 -1.316071e+000 -8.873125e+001
1434525000 -2.070574e-001 -4.028637e+001 -6.331426e+001 -1.901124e+001 -6.122655e+001 -3.213486e+001 -1.328273e+000 -8.979189e+001
1453268750 -2.090017e-001 -4.080355e+001 -6.338566e+001 -1.874675e+001 -6.114165e+001 -2.920935e+001 -1.340855e+000 -9.082494e+001
1472012500 -2.086173e-001 -4.132584e+001 -6.297318e+001 -1.995240e+001 -6.093525e+001 -2.650891e+001 -1.351737e+000 -9.185175e+001
1490756250 -2.098045e-001 -4.184318e+001 -6.303216e+001 -1.984752e+001 -6.095708e+001 -2.673685e+001 -1.362734e+000 -9.289601e+001
1509500000 -2.112978e-001 -4.236031e+001 -6.308676e+001 -2.046934e+001 -6.103100e+001 -2.565674e+001 -1.371355e+000 -9.394682e+001
1528243750 -2.134500e-001 -4.287420e+001 -6.298810e+001 -2.067556e+001 -6.121883e+001 -2.716452e+001 -1.382635e+000 -9.501017e+001
1546987500 -2.148936e-001 -4.336825e+001 -6.319744e+001 -2.021658e+001 -6.104128e+001 -3.055776e+001 -1.394173e+000 -9.605158e+001
1565731250 -2.157698e-001 -4.387713e+001 -6.309049e+001 -2.119284e+001 -6.082624e+001 -3.255787e+001 -1.407465e+000 -9.708128e+001
1584475000 -2.146587e-001 -4.439825e+001 -6.246242e+001 -2.366861e+001 -6.050278e+001 -3.503717e+001 -1.418336e+000 -9.808460e+001
1603218750 -2.140311e-001 -4.493878e+001 -6.238404e+001 -2.567610e+001 -6.023935e+001 -3.374647e+001 -1.427282e+000 -9.909721e+001
1621962500 -2.163946e-001 -4.546323e+001 -6.232835e+001 -2.715339e+001 -6.047214e+001 -3.503409e+001 -1.436301e+000 -1.001150e+002
1640706250 -2.192719e-001 -4.598682e+001 -6.191722e+001 -2.952068e+001 -6.007631e+001 -3.324080e+001 -1.445552e+000 -1.011378e+002
1659450000 -2.205985e-001 -4.648732e+001 -6.143115e+001 -3.133101e+001 -5.989286e+001 -3.137697e+001 -1.455746e+000 -1.021713e+002
1678193750 -2.212887e-001 -4.700544e+001 -6.094568e+001 -2.773992e+001 -6.019051e+001 -3.179267e+001 -1.468671e+000 -1.031904e+002
1696937500 -2.212281e-001 -4.751981e+001 -6.108004e+001 -3.039854e+001 -6.041182e+001 -3.087677e+001 -1.480832e+000 -1.041927e+002
1715681250 -2.215175e-001 -4.806251e+001 -6.101015e+001 -3.003987e+001 -6.054547e+001 -3.271513e+001 -1.490829e+000 -1.051789e+002
1734425000 -2.234618e-001 -4.858085e+001 -6.119624e+001 -3.368245e+001 -6.012303e+001 -3.215159e+001 -1.503129e+000 -1.061581e+002
1753168750 -2.263038e-001 -4.910908e+001 -6.114674e+001 -3.480508e+001 -6.003586e+001 -3.269779e+001 -1.518634e+000 -1.071583e+002
1771912500 -2.295019e-001 -4.962339e+001 -6.084017e+001 -3.781738e+001 -5.996131e+001 -3.656103e+001 -1.529907e+000 -1.081669e+002
1790656250 -2.305962e-001 -5.009873e+001 -6.052042e+001 -3.811041e+001 -6.053971e+001 -4.562899e+001 -1.545204e+000 -1.091920e+002
1809400000 -2.294861e-001 -5.058171e+001 -6.024698e+001 -4.075217e+001 -6.122580e+001 -4.737431e+001 -1.560934e+000 -1.101855e+002
1828143750 -2.293010e-001 -5.109986e+001 -6.021129e+001 -4.144455e+001 -6.113478e+001 -4.701759e+001 -1.575459e+000 -1.111464e+002
1846887500 -2.305828e-001 -5.163706e+001 -5.988482e+001 -4.035909e+001 -6.072540e+001 -4.382354e+001 -1.588330e+000 -1.121218e+002
1865631250 -2.330808e-001 -5.217962e+001 -6.033812e+001 -4.074785e+001 -6.076516e+001 -4.496095e+001 -1.600493e+000 -1.130961e+002
1884375000 -2.365941e-001 -5.269230e+001 -5.990027e+001 -4.028240e+001 -6.087835e+001 -4.619865e+001 -1.614020e+000 -1.140956e+002
1903118750 -2.398613e-001 -5.319270e+001 -6.004159e+001 -4.037862e+001 -6.098020e+001 -4.889404e+001 -1.629089e+000 -1.151045e+002
1921862500 -2.400599e-001 -5.367142e+001 -6.009590e+001 -4.040244e+001 -6.142411e+001 -5.521058e+001 -1.646468e+000 -1.160885e+002
1940606250 -2.386525e-001 -5.418715e+001 -5.997920e+001 -4.058199e+001 -6.206794e+001 -6.104402e+001 -1.663597e+000 -1.170660e+002
1959350000 -2.387411e-001 -5.469708e+001 -6.000748e+001 -4.392907e+001 -6.186008e+001 -5.996279e+001 -1.681800e+000 -1.180184e+002
1978093750 -2.431759e-001 -5.522789e+001 -5.995675e+001 -4.393842e+001 -6.188332e+001 -5.866741e+001 -1.698259e+000 -1.189920e+002
1996837500 -2.475905e-001 -5.572706e+001 -6.074635e+001 -4.228452e+001 -6.211079e+001 -5.694765e+001 -1.713379e+000 -1.199787e+002
2015581250 -2.510823e-001 -5.619912e+001 -6.061868e+001 -4.156596e+001 -6.225755e+001 -5.541813e+001 -1.730430e+000 -1.209622e+002
2034325000 -2.519348e-001 -5.665834e+001 -6.046510e+001 -4.071268e+001 -6.219828e+001 -5.501954e+001 -1.747792e+000 -1.219416e+002
2053068750 -2.504660e-001 -5.715355e+001 -6.056553e+001 -4.291211e+001 -6.212336e+001 -5.294152e+001 -1.766524e+000 -1.229097e+002
2071812500 -2.493665e-001 -5.767389e+001 -6.065958e+001 -4.106534e+001 -6.239896e+001 -5.459634e+001 -1.784105e+000 -1.238592e+002
2090556250 -2.526192e-001 -5.819609e+001 -6.067881e+001 -4.344231e+001 -6.227262e+001 -5.953253e+001 -1.803297e+000 -1.248097e+002
2109300000 -2.573266e-001 -5.869886e+001 -6.080854e+001 -4.335296e+001 -6.188653e+001 -5.916901e+001 -1.821638e+000 -1.257646e+002
2128043750 -2.618447e-001 -5.918052e+001 -6.065902e+001 -4.282067e+001 -6.166599e+001 -5.787554e+001 -1.837437e+000 -1.267299e+002
2146787500 -2.637779e-001 -5.964403e+001 -6.063728e+001 -4.498611e+001 -6.167162e+001 -5.427347e+001 -1.855893e+000 -1.277073e+002
2165531250 -2.628886e-001 -6.013055e+001 -6.063078e+001 -4.547092e+001 -6.227427e+001 -5.142087e+001 -1.870968e+000 -1.286641e+002
2184275000 -2.621160e-001 -6.064210e+001 -6.068834e+001 -4.707931e+001 -6.222534e+001 -5.227548e+001 -1.886945e+000 -1.296194e+002
2203018750 -2.640154e-001 -6.115109e+001 -6.097613e+001 -4.478309e+001 -6.222041e+001 -5.267202e+001 -1.903769e+000 -1.305574e+002
2221762500 -2.681520e-001 -6.170371e+001 -6.100202e+001 -4.600536e+001 -6.148041e+001 -4.403239e+001 -1.919454e+000 -1.314994e+002
2240506250 -2.725606e-001 -6.221322e+001 -6.110662e+001 -4.497213e+001 -6.127216e+001 -4.712152e+001 -1.936025e+000 -1.324309e+002
2259250000 -2.742801e-001 -6.270935e+001 -6.093151e+001 -4.469426e+001 -6.176383e+001 -5.308277e+001 -1.951440e+000 -1.333908e+002
2277993750 -2.715983e-001 -6.319602e+001 -6.092168e+001 -4.660568e+001 -6.181902e+001 -5.383406e+001 -1.970121e+000 -1.343347e+002
2296737500 -2.714152e-001 -6.368795e+001 -6.033898e+001 -4.736784e+001 -6.160723e+001 -5.380085e+001 -1.988910e+000 -1.352799e+002
2315481250 -2.725782e-001 -6.420026e+001 -6.035505e+001 -4.923925e+001 -6.113095e+001 -5.595745e+001 -2.005342e+000 -1.362152e+002
2334225000 -2.740237e-001 -6.472523e+001 -6.056141e+001 -5.082112e+001 -6.161272e+001 -5.708068e+001 -2.022113e+000 -1.371408e+002
2352968750 -2.797454e-001 -6.524664e+001 -6.043194e+001 -4.958738e+001 -6.104183e+001 -5.118635e+001 -2.036241e+000 -1.380714e+002
2371712500 -2.860483e-001 -6.574186e+001 -6.039987e+001 -5.195483e+001 -6.010694e+001 -4.635380e+001 -2.049677e+000 -1.389949e+002
2390456250 -2.854252e-001 -6.622028e+001 -6.034536e+001 -5.062419e+001 -5.998637e+001 -4.630415e+001 -2.063296e+000 -1.399214e+002
2409200000 -2.835133e-001 -6.670405e+001 -6.017641e+001 -5.288498e+001 -6.008760e+001 -4.839675e+001 -2.077821e+000 -1.408560e+002
2427943750 -2.826210e-001 -6.722828e+001 -5.969640e+001 -5.501821e+001 -5.991304e+001 -5.084961e+001 -2.092844e+000 -1.417798e+002
2446687500 -2.860357e-001 -6.776053e+001 -5.995576e+001 -5.626252e+001 -5.998914e+001 -5.122375e+001 -2.108497e+000 -1.427002e+002
2465431250 -2.922330e-001 -6.828174e+001 -6.000507e+001 -5.671728e+001 -6.044887e+001 -5.024918e+001 -2.122321e+000 -1.436163e+002
2484175000 -2.975380e-001 -6.875662e+001 -6.006657e+001 -5.405486e+001 -6.035090e+001 -5.381219e+001 -2.135753e+000 -1.445341e+002
2502918750 -2.998985e-001 -6.924062e+001 -6.021928e+001 -5.458897e+001 -6.023741e+001 -5.458490e+001 -2.150734e+000 -1.454560e+002
2521662500 -3.000810e-001 -6.972180e+001 -6.076548e+001 -5.713175e+001 -6.017868e+001 -5.249829e+001 -2.163796e+000 -1.463794e+002
2540406250 -2.979811e-001 -7.024216e+001 -6.023334e+001 -5.695371e+001 -6.016380e+001 -5.329855e+001 -2.177567e+000 -1.473031e+002
2559150000 -2.984186e-001 -7.076938e+001 -6.018170e+001 -5.666695e+001 -5.988626e+001 -5.533449e+001 -2.192725e+000 -1.482259e+002
2577893750 -3.031847e-001 -7.126950e+001 -6.014436e+001 -5.610979e+001 -5.958776e+001 -6.010062e+001 -2.206490e+000 -1.491250e+002
2596637500 -3.089104e-001 -7.176659e+001 -5.985775e+001 -5.604221e+001 -5.931247e+001 -6.304032e+001 -2.220320e+000 -1.500312e+002
2615381250 -3.121234e-001 -7.221726e+001 -6.011805e+001 -5.583995e+001 -5.949054e+001 -6.391786e+001 -2.234298e+000 -1.509227e+002
2634125000 -3.118567e-001 -7.269977e+001 -5.977330e+001 -5.747670e+001 -5.990501e+001 -6.501392e+001 -2.248329e+000 -1.518186e+002
2652868750 -3.117313e-001 -7.317976e+001 -5.989446e+001 -5.921469e+001 -5.991579e+001 -6.804057e+001 -2.262828e+000 -1.527221e+002
2671612500 -3.145588e-001 -7.367860e+001 -6.010997e+001 -6.166632e+001 -5.951336e+001 -6.497182e+001 -2.275928e+000 -1.536337e+002
2690356250 -3.181821e-001 -7.417068e+001 -6.012867e+001 -6.333986e+001 -5.901925e+001 -6.171693e+001 -2.289879e+000 -1.545361e+002
2709100000 -3.281943e-001 -7.464823e+001 -6.045442e+001 -6.564105e+001 -5.910878e+001 -6.300861e+001 -2.302433e+000 -1.554377e+002
2727843750 -3.321346e-001 -7.513230e+001 -6.059768e+001 -6.616109e+001 -5.929179e+001 -6.147351e+001 -2.313893e+000 -1.563030e+002
2746587500 -3.332801e-001 -7.560299e+001 -6.068801e+001 -6.665381e+001 -5.957132e+001 -6.162447e+001 -2.326135e+000 -1.571969e+002
2765331250 -3.337153e-001 -7.606402e+001 -6.055771e+001 -6.796221e+001 -5.893545e+001 -6.129503e+001 -2.337861e+000 -1.580865e+002
2784075000 -3.319500e-001 -7.655621e+001 -6.045817e+001 -6.885021e+001 -5.892040e+001 -6.277978e+001 -2.350781e+000 -1.589882e+002
2802818750 -3.343582e-001 -7.703236e+001 -6.032906e+001 -6.796611e+001 -5.915722e+001 -6.385534e+001 -2.364701e+000 -1.598728e+002
2821562500 -3.394054e-001 -7.753221e+001 -6.049467e+001 -6.940981e+001 -5.916735e+001 -6.642676e+001 -2.377893e+000 -1.607666e+002
2840306250 -3.437697e-001 -7.803200e+001 -6.056263e+001 -6.856014e+001 -5.896618e+001 -6.327774e+001 -2.389478e+000 -1.616366e+002
2859050000 -3.468123e-001 -7.850506e+001 -6.013261e+001 -7.097527e+001 -5.914560e+001 -6.110727e+001 -2.403449e+000 -1.625078e+002
2877793750 -3.427627e-001 -7.896457e+001 -6.000880e+001 -6.945293e+001 -5.909750e+001 -6.251278e+001 -2.412419e+000 -1.634062e+002
2896537500 -3.478351e-001 -7.944574e+001 -6.069360e+001 -7.094000e+001 -5.876975e+001 -6.640216e+001 -2.426916e+000 -1.642726e+002
2915281250 -3.477040e-001 -7.999645e+001 -6.043325e+001 -7.213577e+001 -5.866302e+001 -6.560749e+001 -2.444158e+000 -1.651766e+002
2934025000 -3.487380e-001 -8.045338e+001 -6.041275e+001 -7.311817e+001 -5.903748e+001 -6.779504e+001 -2.450621e+000 -1.660625e+002
2952768750 -3.560417e-001 -8.092505e+001 -5.981074e+001 -7.090526e+001 -5.931502e+001 -7.016748e+001 -2.465057e+000 -1.669111e+002
2971512500 -3.588980e-001 -8.144325e+001 -5.969202e+001 -7.269489e+001 -5.943042e+001 -7.075687e+001 -2.481727e+000 -1.677988e+002
2990256250 -3.576010e-001 -8.190043e+001 -6.019635e+001 -7.390746e+001 -5.948405e+001 -7.021886e+001 -2.490599e+000 -1.686597e+002
3009000000 -3.619150e-001 -8.238651e+001 -6.017070e+001 -7.362261e+001 -5.936309e+001 -6.825535e+001 -2.506633e+000 -1.695268e+002
3027743750 -3.632021e-001 -8.290512e+001 -6.049215e+001 -7.988184e+001 -5.932986e+001 -6.825113e+001 -2.524193e+000 -1.704298e+002
3046487500 -3.626042e-001 -8.338284e+001 -6.015047e+001 -8.071318e+001 -5.949589e+001 -6.837684e+001 -2.532667e+000 -1.712880e+002
3065231250 -3.671605e-001 -8.387090e+001 -6.012281e+001 -7.862028e+001 -5.936279e+001 -6.670778e+001 -2.546808e+000 -1.721661e+002
3083975000 -3.699795e-001 -8.437390e+001 -5.999022e+001 -8.003719e+001 -5.930964e+001 -6.729863e+001 -2.561599e+000 -1.730635e+002
3102718750 -3.707145e-001 -8.484065e+001 -6.012544e+001 -7.858512e+001 -5.901473e+001 -6.747639e+001 -2.569957e+000 -1.739097e+002
3121462500 -3.742264e-001 -8.533668e+001 -6.008609e+001 -8.007895e+001 -5.890109e+001 -6.953311e+001 -2.587911e+000 -1.747653e+002
3140206250 -3.718887e-001 -8.582748e+001 -5.986833e+001 -7.889136e+001 -5.906720e+001 -7.093694e+001 -2.600124e+000 -1.756631e+002
3158950000 -3.771453e-001 -8.629950e+001 -5.985394e+001 -8.062632e+001 -5.910682e+001 -7.284016e+001 -2.608079e+000 -1.765308e+002
3177693750 -3.801551e-001 -8.680790e+001 -6.005784e+001 -8.098019e+001 -5.910450e+001 -7.649055e+001 -2.626625e+000 -1.773922e+002
3196437500 -3.822573e-001 -8.728364e+001 -5.977814e+001 -8.094799e+001 -5.914320e+001 -7.805841e+001 -2.639297e+000 -1.782930e+002
3215181250 -3.913656e-001 -8.775101e+001 -5.988024e+001 -8.325546e+001 -5.894349e+001 -7.743453e+001 -2.650178e+000 -1.791077e+002
3233925000 -3.886559e-001 -8.827020e+001 -6.006818e+001 -8.380302e+001 -5.875138e+001 -7.865038e+001 -2.667790e+000 -1.799983e+002
3252668750 -3.907265e-001 -8.872292e+001 -5.986995e+001 -8.249335e+001 -5.901213e+001 -7.894352e+001 -2.678459e+000 1.791015e+002
3271412500 -3.996476e-001 -8.919107e+001 -5.984061e+001 -8.359213e+001 -5.934354e+001 -7.980138e+001 -2.686672e+000 1.782760e+002
3290156250 -4.003471e-001 -8.971837e+001 -5.989281e+001 -8.292938e+001 -5.958340e+001 -8.094076e+001 -2.701401e+000 1.773947e+002
3308900000 -4.053028e-001 -9.017683e+001 -5.983445e+001 -8.715324e+001 -6.006007e+001 -7.405250e+001 -2.712261e+000 1.765210e+002
3327643750 -4.100564e-001 -9.064283e+001 -5.932269e+001 -8.669241e+001 -5.992712e+001 -5.708904e+001 -2.720218e+000 1.756680e+002
3346387500 -4.130962e-001 -9.110899e+001 -5.954379e+001 -8.816900e+001 -5.994141e+001 -4.351032e+001 -2.731615e+000 1.748230e+002
3365131250 -4.146919e-001 -9.157068e+001 -5.941285e+001 -8.948530e+001 -5.963050e+001 -3.053158e+001 -2.745365e+000 1.739598e+002
3383875000 -4.197664e-001 -9.205132e+001 -5.951684e+001 -8.928264e+001 -5.943015e+001 -1.331580e+001 -2.754369e+000 1.731176e+002
3402618750 -4.212307e-001 -9.252083e+001 -5.968331e+001 -9.013699e+001 -5.969213e+001 3.403185e+000 -2.764012e+000 1.722569e+002
3421362500 -4.255346e-001 -9.297041e+001 -5.927144e+001 -8.910751e+001 -5.954731e+001 1.794454e+001 -2.776269e+000 1.713907e+002
3440106250 -4.289765e-001 -9.343374e+001 -5.913414e+001 -9.050096e+001 -5.990934e+001 3.045796e+001 -2.782582e+000 1.705640e+002
3458850000 -4.318154e-001 -9.392285e+001 -5.892514e+001 -8.262648e+001 -5.964558e+001 4.355988e+001 -2.792560e+000 1.697065e+002
3477593750 -4.354004e-001 -9.439752e+001 -5.926140e+001 -8.199062e+001 -5.951316e+001 5.810070e+001 -2.801408e+000 1.688336e+002
3496337500 -4.422600e-001 -9.486916e+001 -5.941160e+001 -8.195049e+001 -5.937377e+001 7.238902e+001 -2.811466e+000 1.680082e+002
3515081250 -4.442076e-001 -9.535815e+001 -5.942037e+001 -7.981872e+001 -5.955571e+001 8.931654e+001 -2.821084e+000 1.671612e+002
3533825000 -4.456062e-001 -9.582018e+001 -5.971791e+001 -8.508630e+001 -5.967391e+001 1.048498e+002 -2.828381e+000 1.663065e+002
3552568750 -4.477333e-001 -9.628838e+001 -6.100468e+001 -8.795192e+001 -5.987075e+001 1.205073e+002 -2.837483e+000 1.654674e+002
3571312500 -4.528579e-001 -9.679394e+001 -6.073647e+001 -8.944859e+001 -5.950581e+001 1.377724e+002 -2.849763e+000 1.646157e+002
3590056250 -4.524977e-001 -9.727146e+001 -6.067352e+001 -8.801881e+001 -5.922968e+001 1.515126e+002 -2.864990e+000 1.637527e+002
3608800000 -4.575687e-001 -9.772517e+001 -6.035269e+001 -8.982885e+001 -5.907497e+001 1.696495e+002 -2.869219e+000 1.629034e+002
3627543750 -4.626149e-001 -9.821159e+001 -6.048534e+001 -8.912240e+001 -5.936642e+001 -1.739560e+002 -2.877835e+000 1.620900e+002
3646287500 -4.614283e-001 -9.868733e+001 -6.037427e+001 -8.877464e+001 -5.973032e+001 -1.596524e+002 -2.890088e+000 1.612124e+002
3665031250 -4.678877e-001 -9.913435e+001 -6.054660e+001 -9.147070e+001 -5.985695e+001 -1.446898e+002 -2.895025e+000 1.603891e+002
3683775000 -4.733793e-001 -9.959106e+001 -6.081110e+001 -9.262634e+001 -5.943890e+001 -1.294180e+002 -2.901477e+000 1.595784e+002
3702518750 -4.735733e-001 -1.001115e+002 -6.076864e+001 -9.464761e+001 -5.951145e+001 -1.149947e+002 -2.917421e+000 1.587260e+002
3721262500 -4.723108e-001 -1.005332e+002 -6.081889e+001 -9.552212e+001 -5.916703e+001 -1.022503e+002 -2.920974e+000 1.578759e+002
3740006250 -4.801411e-001 -1.010045e+002 -6.090942e+001 -9.351785e+001 -5.875546e+001 -9.702754e+001 -2.929960e+000 1.570641e+002
3758750000 -4.792389e-001 -1.015322e+002 -6.074143e+001 -9.321780e+001 -5.877489e+001 -9.803426e+001 -2.944731e+000 1.562135e+002
3777493750 -4.754281e-001 -1.019581e+002 -6.055196e+001 -9.347617e+001 -5.866006e+001 -9.862697e+001 -2.952898e+000 1.553542e+002
3796237500 -4.863373e-001 -1.024418e+002 -6.067187e+001 -9.432766e+001 -5.842332e+001 -9.671976e+001 -2.962672e+000 1.545235e+002
3814981250 -4.863762e-001 -1.029386e+002 -6.055827e+001 -9.671986e+001 -5.854507e+001 -9.623536e+001 -2.975864e+000 1.536614e+002
3833725000 -4.872115e-001 -1.033347e+002 -6.058669e+001 -9.661430e+001 -5.822143e+001 -9.729746e+001 -2.982276e+000 1.528232e+002
3852468750 -4.963664e-001 -1.038329e+002 -6.037796e+001 -9.879610e+001 -5.836626e+001 -9.812456e+001 -2.993005e+000 1.519889e+002
3871212500 -4.969220e-001 -1.043341e+002 -6.052606e+001 -9.973749e+001 -5.831019e+001 -9.991322e+001 -3.006496e+000 1.511262e+002
3889956250 -4.962446e-001 -1.047217e+002 -6.043089e+001 -1.022017e+002 -5.826476e+001 -9.993745e+001 -3.013164e+000 1.502900e+002
3908700000 -5.038921e-001 -1.052173e+002 -6.020602e+001 -1.032101e+002 -5.823939e+001 -1.010427e+002 -3.026273e+000 1.494553e+002
3927443750 -5.037300e-001 -1.056744e+002 -6.016394e+001 -1.042527e+002 -5.794315e+001 -1.024442e+002 -3.035007e+000 1.485876e+002
3946187500 -5.077826e-001 -1.060682e+002 -6.047157e+001 -1.068919e+002 -5.792792e+001 -1.048303e+002 -3.042172e+000 1.477429e+002
3964931250 -5.146704e-001 -1.065707e+002 -5.982743e+001 -1.024575e+002 -5.791153e+001 -1.075209e+002 -3.058647e+000 1.469065e+002
3983675000 -5.168121e-001 -1.070117e+002 -5.863960e+001 -9.890717e+001 -5.790661e+001 -1.083073e+002 -3.067354e+000 1.460425e+002
4002418750 -5.195870e-001 -1.074086e+002 -5.879774e+001 -1.002181e+002 -5.831064e+001 -1.107467e+002 -3.073511e+000 1.452030e+002
4021162500 -5.240663e-001 -1.078963e+002 -5.877863e+001 -1.014656e+002 -5.871104e+001 -1.096096e+002 -3.084000e+000 1.443707e+002
4039906250 -5.236888e-001 -1.083486e+002 -5.887649e+001 -1.005717e+002 -5.960475e+001 -1.134566e+002 -3.095765e+000 1.435049e+002
4058650000 -5.272009e-001 -1.087751e+002 -5.896794e+001 -9.987844e+001 -5.943542e+001 -1.146554e+002 -3.105134e+000 1.426238e+002
4077393750 -5.327234e-001 -1.092656e+002 -5.899570e+001 -1.020306e+002 -5.938089e+001 -1.153797e+002 -3.116774e+000 1.417936e+002
4096137500 -5.355881e-001 -1.097100e+002 -5.876336e+001 -1.003177e+002 -5.923992e+001 -1.147741e+002 -3.129299e+000 1.409333e+002
4114881250 -5.360807e-001 -1.101840e+002 -5.862160e+001 -1.012270e+002 -5.940430e+001 -1.149627e+002 -3.142184e+000 1.400625e+002
4133625000 -5.384398e-001 -1.106307e+002 -5.865596e+001 -1.019148e+002 -5.909179e+001 -1.160777e+002 -3.151047e+000 1.392150e+002
4152368750 -5.442781e-001 -1.110923e+002 -5.844017e+001 -1.036127e+002 -5.910803e+001 -1.166996e+002 -3.167159e+000 1.383632e+002
4171112500 -5.446612e-001 -1.115534e+002 -5.846326e+001 -1.034683e+002 -5.914410e+001 -1.148957e+002 -3.180521e+000 1.374798e+002
4189856250 -5.491419e-001 -1.119913e+002 -5.841540e+001 -1.047224e+002 -5.919001e+001 -1.146703e+002 -3.190167e+000 1.366331e+002
4208600000 -5.557078e-001 -1.124697e+002 -5.846417e+001 -1.039069e+002 -5.931268e+001 -1.146524e+002 -3.200348e+000 1.357835e+002
4227343750 -5.575195e-001 -1.129172e+002 -5.847528e+001 -1.031323e+002 -5.946139e+001 -1.142780e+002 -3.211726e+000 1.349054e+002
4246087500 -5.624533e-001 -1.133765e+002 -5.868753e+001 -1.032897e+002 -5.926315e+001 -1.173137e+002 -3.220061e+000 1.340451e+002
4264831250 -5.683759e-001 -1.138557e+002 -5.873249e+001 -1.037243e+002 -5.935176e+001 -1.190576e+002 -3.231693e+000 1.332040e+002
4283575000 -5.697260e-001 -1.142946e+002 -5.879401e+001 -1.024645e+002 -5.913771e+001 -1.201495e+002 -3.240821e+000 1.323427e+002
4302318750 -5.726499e-001 -1.147382e+002 -5.878179e+001 -1.004002e+002 -5.873698e+001 -1.187069e+002 -3.247187e+000 1.314735e+002
4321062500 -5.792991e-001 -1.152290e+002 -5.890084e+001 -1.005396e+002 -5.877653e+001 -1.177518e+002 -3.257727e+000 1.306290e+002
4339806250 -5.802994e-001 -1.156682e+002 -5.896317e+001 -1.009045e+002 -5.879414e+001 -1.183756e+002 -3.270754e+000 1.297527e+002
4358550000 -5.838650e-001 -1.161447e+002 -5.888875e+001 -1.031024e+002 -5.897671e+001 -1.187726e+002 -3.280301e+000 1.288802e+002
4377293750 -5.841610e-001 -1.166511e+002 -5.864780e+001 -1.042426e+002 -5.914240e+001 -1.177814e+002 -3.291155e+000 1.280276e+002
4396037500 -5.864447e-001 -1.170776e+002 -5.869368e+001 -1.062340e+002 -5.909910e+001 -1.168141e+002 -3.298493e+000 1.271354e+002
4414781250 -5.915066e-001 -1.175449e+002 -5.902788e+001 -1.078569e+002 -5.910269e+001 -1.166502e+002 -3.304708e+000 1.262723e+002
4433525000 -5.922716e-001 -1.180304e+002 -5.927473e+001 -1.076569e+002 -5.890578e+001 -1.151967e+002 -3.316625e+000 1.254155e+002
4452268750 -5.958477e-001 -1.184418e+002 -5.939074e+001 -1.091275e+002 -5.909267e+001 -1.161383e+002 -3.325672e+000 1.245335e+002
4471012500 -6.028730e-001 -1.188866e+002 -5.930310e+001 -1.100941e+002 -5.832190e+001 -1.123498e+002 -3.333013e+000 1.236824e+002
4489756250 -6.024619e-001 -1.193763e+002 -5.922073e+001 -1.119602e+002 -5.843450e+001 -1.138765e+002 -3.342465e+000 1.228216e+002
4508500000 -6.065087e-001 -1.197963e+002 -5.903900e+001 -1.118720e+002 -5.825783e+001 -1.153446e+002 -3.348453e+000 1.219397e+002
4527243750 -6.098416e-001 -1.202446e+002 -5.891511e+001 -1.129331e+002 -5.837074e+001 -1.162467e+002 -3.356727e+000 1.210797e+002
4545987500 -6.134932e-001 -1.207338e+002 -5.880841e+001 -1.138894e+002 -5.850568e+001 -1.199058e+002 -3.365567e+000 1.202013e+002
4564731250 -6.169369e-001 -1.211433e+002 -5.874334e+001 -1.143436e+002 -5.855383e+001 -1.216523e+002 -3.373109e+000 1.193039e+002
4583475000 -6.243325e-001 -1.216055e+002 -5.886704e+001 -1.158710e+002 -5.861752e+001 -1.219810e+002 -3.377865e+000 1.184385e+002
4602218750 -6.301991e-001 -1.220782e+002 -5.873235e+001 -1.175500e+002 -5.837101e+001 -1.229123e+002 -3.385618e+000 1.175816e+002
4620962500 -6.312351e-001 -1.225082e+002 -5.883293e+001 -1.182313e+002 -5.839116e+001 -1.265643e+002 -3.391234e+000 1.166747e+002
4639706250 -6.411771e-001 -1.229358e+002 -5.880451e+001 -1.206464e+002 -5.839952e+001 -1.290635e+002 -3.396193e+000 1.158155e+002
4658450000 -6.442317e-001 -1.234180e+002 -5.863665e+001 -1.221730e+002 -5.838694e+001 -1.301262e+002 -3.405360e+000 1.149571e+002
4677193750 -6.460929e-001 -1.238405e+002 -5.866167e+001 -1.230178e+002 -5.840426e+001 -1.304453e+002 -3.410653e+000 1.140760e+002
4695937500 -6.523075e-001 -1.242962e+002 -5.857471e+001 -1.237324e+002 -5.867108e+001 -1.299813e+002 -3.418962e+000 1.131899e+002
4714681250 -6.569394e-001 -1.247636e+002 -5.854302e+001 -1.263801e+002 -5.871225e+001 -1.306658e+002 -3.425942e+000 1.123020e+002
4733425000 -6.643523e-001 -1.251942e+002 -5.835189e+001 -1.288107e+002 -5.904266e+001 -1.312312e+002 -3.432769e+000 1.114214e+002
4752168750 -6.671637e-001 -1.256681e+002 -5.847013e+001 -1.315103e+002 -5.907044e+001 -1.341781e+002 -3.439943e+000 1.105408e+002
4770912500 -6.733116e-001 -1.261225e+002 -5.842907e+001 -1.343139e+002 -5.890621e+001 -1.341288e+002 -3.446495e+000 1.096499e+002
4789656250 -6.777403e-001 -1.265576e+002 -5.853107e+001 -1.347433e+002 -5.889537e+001 -1.349207e+002 -3.451466e+000 1.087560e+002
4808400000 -6.854433e-001 -1.270006e+002 -5.859328e+001 -1.363094e+002 -5.861501e+001 -1.371819e+002 -3.457764e+000 1.078783e+002
4827143750 -6.912287e-001 -1.274528e+002 -5.852132e+001 -1.370134e+002 -5.890891e+001 -1.388836e+002 -3.465333e+000 1.069637e+002
4845887500 -6.956736e-001 -1.279023e+002 -5.802252e+001 -1.386668e+002 -5.891959e+001 -1.393493e+002 -3.471950e+000 1.060722e+002
4864631250 -7.038620e-001 -1.283696e+002 -5.786214e+001 -1.385158e+002 -5.892942e+001 -1.411143e+002 -3.478399e+000 1.051905e+002
4883375000 -7.081083e-001 -1.288458e+002 -5.765179e+001 -1.392595e+002 -5.827665e+001 -1.427475e+002 -3.486615e+000 1.042761e+002
4902118750 -7.120105e-001 -1.292985e+002 -5.758188e+001 -1.399976e+002 -5.813123e+001 -1.457027e+002 -3.493728e+000 1.033633e+002
4920862500 -7.214936e-001 -1.297531e+002 -5.762632e+001 -1.408383e+002 -5.821295e+001 -1.447491e+002 -3.500275e+000 1.024800e+002
4939606250 -7.228988e-001 -1.302110e+002 -5.782017e+001 -1.418658e+002 -5.826986e+001 -1.451759e+002 -3.506820e+000 1.015515e+002
4958350000 -7.293506e-001 -1.306488e+002 -5.798279e+001 -1.435795e+002 -5.834360e+001 -1.453712e+002 -3.511555e+000 1.006326e+002
4977093750 -7.350597e-001 -1.310960e+002 -5.802039e+001 -1.448423e+002 -5.814140e+001 -1.445099e+002 -3.517660e+000 9.974833e+001
4995837500 -7.371401e-001 -1.315651e+002 -5.819962e+001 -1.460881e+002 -5.816870e+001 -1.443153e+002 -3.526055e+000 9.884147e+001
5014581250 -7.405366e-001 -1.319802e+002 -5.849509e+001 -1.477001e+002 -5.817478e+001 -1.441133e+002 -3.533684e+000 9.793374e+001
5033325000 -7.467419e-001 -1.324377e+002 -5.864244e+001 -1.501716e+002 -5.853927e+001 -1.466602e+002 -3.538602e+000 9.702036e+001
5052068750 -7.486522e-001 -1.328880e+002 -5.887673e+001 -1.524247e+002 -5.856368e+001 -1.451024e+002 -3.545316e+000 9.611485e+001
5070812500 -7.528693e-001 -1.333205e+002 -5.894555e+001 -1.525803e+002 -5.841787e+001 -1.426314e+002 -3.553019e+000 9.517466e+001
5089556250 -7.587588e-001 -1.337652e+002 -5.907707e+001 -1.541530e+002 -5.824852e+001 -1.435261e+002 -3.557158e+000 9.423917e+001
5108300000 -7.615199e-001 -1.342226e+002 -5.884370e+001 -1.544720e+002 -5.840784e+001 -1.442004e+002 -3.566907e+000 9.331220e+001
5127043750 -7.658266e-001 -1.346404e+002 -5.880408e+001 -1.550061e+002 -5.814745e+001 -1.451405e+002 -3.571294e+000 9.237927e+001
5145787500 -7.691937e-001 -1.350866e+002 -5.900775e+001 -1.562721e+002 -5.828844e+001 -1.462454e+002 -3.575239e+000 9.145937e+001
5164531250 -7.712718e-001 -1.355395e+002 -5.967926e+001 -1.584497e+002 -5.809719e+001 -1.460751e+002 -3.584936e+000 9.052541e+001
5183275000 -7.758538e-001 -1.359384e+002 -5.944397e+001 -1.575521e+002 -5.827788e+001 -1.455031e+002 -3.591208e+000 8.957438e+001
5202018750 -7.833720e-001 -1.363821e+002 -5.989890e+001 -1.576443e+002 -5.836348e+001 -1.474436e+002 -3.595678e+000 8.863644e+001
5220762500 -7.859347e-001 -1.368256e+002 -5.970082e+001 -1.580335e+002 -5.845946e+001 -1.489852e+002 -3.605787e+000 8.770670e+001
5239506250 -7.916809e-001 -1.372481e+002 -5.960072e+001 -1.562173e+002 -5.847276e+001 -1.485941e+002 -3.612281e+000 8.674818e+001
5258250000 -7.951358e-001 -1.376927e+002 -5.972910e+001 -1.570967e+002 -5.816059e+001 -1.466211e+002 -3.617040e+000 8.581721e+001
5276993750 -7.979566e-001 -1.381341e+002 -5.962010e+001 -1.579185e+002 -5.861752e+001 -1.492637e+002 -3.625308e+000 8.485657e+001
5295737500 -8.019353e-001 -1.385633e+002 -5.960581e+001 -1.585553e+002 -5.862037e+001 -1.497192e+002 -3.630286e+000 8.390128e+001
5314481250 -8.085333e-001 -1.389994e+002 -5.976090e+001 -1.590838e+002 -5.878868e+001 -1.503412e+002 -3.633444e+000 8.295178e+001
5333225000 -8.112261e-001 -1.394391e+002 -5.991101e+001 -1.598204e+002 -5.878709e+001 -1.511136e+002 -3.641996e+000 8.199117e+001
5351968750 -8.169008e-001 -1.398685e+002 -5.979602e+001 -1.607510e+002 -5.842710e+001 -1.523761e+002 -3.646754e+000 8.102233e+001
5370712500 -8.232011e-001 -1.403025e+002 -5.979415e+001 -1.618392e+002 -5.828170e+001 -1.529702e+002 -3.653136e+000 8.007124e+001
5389456250 -8.253508e-001 -1.407507e+002 -5.983272e+001 -1.626264e+002 -5.828570e+001 -1.554459e+002 -3.661750e+000 7.910810e+001
5408200000 -8.321373e-001 -1.411807e+002 -5.978873e+001 -1.628326e+002 -5.829255e+001 -1.562367e+002 -3.666477e+000 7.814285e+001
5426943750 -8.378094e-001 -1.416217e+002 -5.956764e+001 -1.626131e+002 -5.806815e+001 -1.567852e+002 -3.671021e+000 7.716080e+001
5445687500 -8.423138e-001 -1.420606e+002 -5.943183e+001 -1.614866e+002 -5.804774e+001 -1.588487e+002 -3.677763e+000 7.616866e+001
5464431250 -8.477597e-001 -1.424802e+002 -5.946626e+001 -1.613134e+002 -5.794205e+001 -1.569914e+002 -3.679682e+000 7.518546e+001
5483175000 -8.536181e-001 -1.429351e+002 -5.928277e+001 -1.596769e+002 -5.791045e+001 -1.573431e+002 -3.685813e+000 7.421030e+001
5501918750 -8.569090e-001 -1.433722e+002 -5.947969e+001 -1.604302e+002 -5.814426e+001 -1.601897e+002 -3.692334e+000 7.321323e+001
5520662500 -8.630075e-001 -1.438146e+002 -5.960795e+001 -1.594010e+002 -5.826199e+001 -1.605611e+002 -3.694279e+000 7.223811e+001
5539406250 -8.683634e-001 -1.442643e+002 -6.046595e+001 -1.607926e+002 -5.833511e+001 -1.629234e+002 -3.700738e+000 7.125076e+001
5558150000 -8.705953e-001 -1.447141e+002 -6.077372e+001 -1.623425e+002 -5.815497e+001 -1.643256e+002 -3.709136e+000 7.023011e+001
5576893750 -8.770398e-001 -1.451477e+002 -6.077177e+001 -1.635045e+002 -5.811205e+001 -1.637373e+002 -3.712232e+000 6.921296e+001
5595637500 -8.807898e-001 -1.456095e+002 -6.043741e+001 -1.655515e+002 -5.824618e+001 -1.658881e+002 -3.718393e+000 6.820684e+001
5614381250 -8.842335e-001 -1.460523e+002 -6.052607e+001 -1.642430e+002 -5.818285e+001 -1.663669e+002 -3.725680e+000 6.717278e+001
5633125000 -8.880620e-001 -1.464845e+002 -5.995801e+001 -1.663723e+002 -5.866400e+001 -1.671933e+002 -3.724150e+000 6.615510e+001
5651868750 -8.943080e-001 -1.469341e+002 -6.010149e+001 -1.679002e+002 -5.867362e+001 -1.686579e+002 -3.731520e+000 6.515909e+001
5670612500 -8.976692e-001 -1.473618e+002 -6.006603e+001 -1.687209e+002 -5.869691e+001 -1.696380e+002 -3.736885e+000 6.410812e+001
5689356250 -9.038519e-001 -1.477852e+002 -6.026328e+001 -1.702756e+002 -5.920050e+001 -1.732282e+002 -3.736453e+000 6.307069e+001
5708100000 -9.093793e-001 -1.482281e+002 -6.062072e+001 -1.709428e+002 -5.887196e+001 -1.732982e+002 -3.742727e+000 6.205624e+001
5726843750 -9.131087e-001 -1.486475e+002 -6.065802e+001 -1.710610e+002 -5.868520e+001 -1.738371e+002 -3.747246e+000 6.099415e+001
5745587500 -9.176741e-001 -1.490634e+002 -6.080014e+001 -1.736922e+002 -5.883533e+001 -1.753038e+002 -3.746958e+000 5.995606e+001
5764331250 -9.250056e-001 -1.495143e+002 -6.083418e+001 -1.749387e+002 -5.890869e+001 -1.764107e+002 -3.754052e+000 5.892645e+001
5783075000 -9.281777e-001 -1.499394e+002 -6.112273e+001 -1.760756e+002 -5.955370e+001 1.790020e+002 -3.759724e+000 5.784655e+001
5801818750 -9.316144e-001 -1.503677e+002 -6.100983e+001 -1.762162e+002 -5.975920e+001 1.785147e+002 -3.761765e+000 5.676248e+001
5820562500 -9.382173e-001 -1.508030e+002 -6.089816e+001 -1.755027e+002 -5.956268e+001 1.798737e+002 -3.761309e+000 5.568525e+001
5839306250 -9.422199e-001 -1.512259e+002 -6.088597e+001 -1.756978e+002 -5.990688e+001 1.781611e+002 -3.767792e+000 5.461333e+001
5858050000 -9.463484e-001 -1.516387e+002 -6.112306e+001 -1.780919e+002 -6.008724e+001 1.782511e+002 -3.769167e+000 5.352522e+001
5876793750 -9.546867e-001 -1.520745e+002 -6.106536e+001 -1.797404e+002 -6.004153e+001 1.781192e+002 -3.763548e+000 5.244719e+001
5895537500 -9.577737e-001 -1.525126e+002 -6.123427e+001 1.790539e+002 -6.005370e+001 1.762767e+002 -3.775287e+000 5.139107e+001
5914281250 -9.628811e-001 -1.529377e+002 -6.117277e+001 1.776473e+002 -5.994492e+001 1.754667e+002 -3.780617e+000 5.025160e+001
5933025000 -9.690998e-001 -1.533857e+002 -6.084270e+001 1.772619e+002 -5.978745e+001 1.757181e+002 -3.774938e+000 4.915437e+001
5951768750 -9.722503e-001 -1.538213e+002 -6.076484e+001 1.767061e+002 -5.966356e+001 1.741273e+002 -3.783908e+000 4.806464e+001
5970512500 -9.753265e-001 -1.542365e+002 -6.011894e+001 1.774777e+002 -5.942626e+001 1.727355e+002 -3.785237e+000 4.691377e+001
5989256250 -9.835070e-001 -1.546637e+002 -6.003146e+001 1.766279e+002 -5.940811e+001 1.718527e+002 -3.777070e+000 4.581285e+001
6008000000 -9.875754e-001 -1.551192e+002 -6.001447e+001 1.766325e+002 -5.937160e+001 1.713438e+002 -3.788430e+000 4.472413e+001
6026743750 -9.942737e-001 -1.555383e+002 -6.001876e+001 1.767489e+002 -5.918126e+001 1.709243e+002 -3.787444e+000 4.356821e+001
6045487500 -1.003498e+000 -1.559694e+002 -6.010849e+001 1.753758e+002 -5.923767e+001 1.699951e+002 -3.780162e+000 4.244842e+001
6064231250 -1.008397e+000 -1.564174e+002 -6.011890e+001 1.763836e+002 -5.863500e+001 1.711685e+002 -3.792254e+000 4.134549e+001
6082975000 -1.013359e+000 -1.568458e+002 -6.014909e+001 1.762218e+002 -5.876951e+001 1.724112e+002 -3.786026e+000 4.015108e+001
6101718750 -1.018339e+000 -1.572741e+002 -6.024852e+001 1.750706e+002 -5.902231e+001 1.724192e+002 -3.782263e+000 3.903244e+001
6120462500 -1.024188e+000 -1.577353e+002 -6.005651e+001 1.747859e+002 -5.880185e+001 1.717941e+002 -3.794368e+000 3.791327e+001
6139206250 -1.030338e+000 -1.581609e+002 -5.998722e+001 1.738061e+002 -5.878025e+001 1.735161e+002 -3.788429e+000 3.670104e+001
6157950000 -1.037012e+000 -1.586003e+002 -6.004490e+001 1.703694e+002 -5.922442e+001 1.738247e+002 -3.784813e+000 3.556574e+001
6176693750 -1.042183e+000 -1.590645e+002 -5.985900e+001 1.699756e+002 -5.913131e+001 1.752625e+002 -3.795985e+000 3.441757e+001
6195437500 -1.047530e+000 -1.594858e+002 -5.999207e+001 1.713010e+002 -5.903878e+001 1.761052e+002 -3.788090e+000 3.322762e+001
6214181250 -1.052828e+000 -1.599317e+002 -5.987899e+001 1.711415e+002 -5.864881e+001 1.783384e+002 -3.786751e+000 3.208382e+001
6232925000 -1.058378e+000 -1.603761e+002 -6.003619e+001 1.682458e+002 -5.849045e+001 1.790105e+002 -3.786398e+000 3.091446e+001
6251668750 -1.064394e+000 -1.608212e+002 -6.022286e+001 1.660741e+002 -5.855896e+001 1.776892e+002 -3.784808e+000 2.973637e+001
6270412500 -1.072735e+000 -1.612695e+002 -6.025869e+001 1.633371e+002 -5.845481e+001 1.766898e+002 -3.778792e+000 2.856676e+001
6289156250 -1.076713e+000 -1.617211e+002 -6.011946e+001 1.659563e+002 -5.844729e+001 1.754148e+002 -3.781363e+000 2.739692e+001
6307900000 -1.080552e+000 -1.621647e+002 -5.999295e+001 1.679099e+002 -5.830365e+001 1.743000e+002 -3.781806e+000 2.615331e+001
6326643750 -1.088063e+000 -1.626052e+002 -5.965527e+001 1.687436e+002 -5.831134e+001 1.737691e+002 -3.774165e+000 2.494922e+001
6345387500 -1.093227e+000 -1.630323e+002 -6.085447e+001 1.733779e+002 -5.817706e+001 1.722993e+002 -3.771703e+000 2.376500e+001
6364131250 -1.098203e+000 -1.634479e+002 -6.081707e+001 1.727865e+002 -5.846499e+001 1.709626e+002 -3.771966e+000 2.251789e+001
6382875000 -1.105331e+000 -1.638785e+002 -6.079426e+001 1.716517e+002 -5.865842e+001 1.720507e+002 -3.762963e+000 2.132614e+001
6401618750 -1.111532e+000 -1.643241e+002 -6.052703e+001 1.715090e+002 -5.883816e+001 1.745682e+002 -3.761001e+000 2.012019e+001
6420362500 -1.117957e+000 -1.647546e+002 -6.039378e+001 1.727378e+002 -5.896443e+001 1.724534e+002 -3.759475e+000 1.885800e+001
6439106250 -1.126228e+000 -1.651755e+002 -6.048072e+001 1.740093e+002 -5.876974e+001 1.713947e+002 -3.748344e+000 1.764590e+001
6457850000 -1.129712e+000 -1.656019e+002 -6.035260e+001 1.747572e+002 -5.882587e+001 1.727044e+002 -3.746534e+000 1.641895e+001
6476593750 -1.135503e+000 -1.660313e+002 -6.014336e+001 1.734662e+002 -5.873806e+001 1.721577e+002 -3.743018e+000 1.517016e+001
6495337500 -1.142559e+000 -1.664619e+002 -6.005913e+001 1.741115e+002 -5.905202e+001 1.706148e+002 -3.731058e+000 1.394164e+001
6514081250 -1.145593e+000 -1.668942e+002 -5.996320e+001 1.735925e+002 -5.868278e+001 1.685141e+002 -3.731140e+000 1.270106e+001
6532825000 -1.153663e+000 -1.673233e+002 -5.978280e+001 1.734663e+002 -5.854381e+001 1.674591e+002 -3.723240e+000 1.143397e+001
6551568750 -1.160495e+000 -1.677550e+002 -5.977485e+001 1.732886e+002 -5.844247e+001 1.674866e+002 -3.714388e+000 1.018138e+001
6570312500 -1.163470e+000 -1.681854e+002 -5.973779e+001 1.734449e+002 -5.828200e+001 1.653268e+002 -3.712885e+000 8.939931e+000
6589056250 -1.170620e+000 -1.686023e+002 -5.957924e+001 1.736366e+002 -5.794087e+001 1.638903e+002 -3.703886e+000 7.651485e+000
6607800000 -1.177099e+000 -1.690338e+002 -5.953484e+001 1.754837e+002 -5.800529e+001 1.610982e+002 -3.690891e+000 6.399429e+000
6626543750 -1.180212e+000 -1.694682e+002 -5.941415e+001 1.743970e+002 -5.819346e+001 1.592345e+002 -3.685365e+000 5.097857e+000
6645287500 -1.188845e+000 -1.698703e+002 -5.931533e+001 1.730700e+002 -5.810007e+001 1.586770e+002 -3.672444e+000 3.811405e+000
6664031250 -1.197020e+000 -1.703121e+002 -5.912552e+001 1.747417e+002 -5.808039e+001 1.573517e+002 -3.668501e+000 2.567755e+000
6682775000 -1.200290e+000 -1.707309e+002 -5.894717e+001 1.756544e+002 -5.802686e+001 1.571915e+002 -3.662233e+000 1.251251e+000
6701518750 -1.206316e+000 -1.711458e+002 -5.888585e+001 1.766135e+002 -5.798674e+001 1.584758e+002 -3.653455e+000 -6.365665e-002
6720262500 -1.215030e+000 -1.715780e+002 -5.880642e+001 1.744216e+002 -5.808549e+001 1.572263e+002 -3.643444e+000 -1.350207e+000
6739006250 -1.219539e+000 -1.720056e+002 -5.877673e+001 1.730334e+002 -5.819394e+001 1.579733e+002 -3.637068e+000 -2.623374e+000
6757750000 -1.228126e+000 -1.724289e+002 -5.885883e+001 1.714366e+002 -5.807454e+001 1.555683e+002 -3.624792e+000 -3.945632e+000
6776493750 -1.235498e+000 -1.728684e+002 -5.749840e+001 1.648989e+002 -5.809104e+001 1.552890e+002 -3.613869e+000 -5.231566e+000
6795237500 -1.239953e+000 -1.733136e+002 -5.742210e+001 1.634930e+002 -5.779940e+001 1.537874e+002 -3.607899e+000 -6.515833e+000
6813981250 -1.247928e+000 -1.737290e+002 -5.736235e+001 1.616147e+002 -5.784087e+001 1.520669e+002 -3.598462e+000 -7.864230e+000
6832725000 -1.254283e+000 -1.741580e+002 -5.747681e+001 1.597430e+002 -5.775336e+001 1.505052e+002 -3.585166e+000 -9.162215e+000
6851468750 -1.258687e+000 -1.745961e+002 -5.745237e+001 1.579760e+002 -5.774154e+001 1.527018e+002 -3.576838e+000 -1.045779e+001
6870212500 -1.266347e+000 -1.750279e+002 -5.722795e+001 1.566735e+002 -5.789555e+001 1.512343e+002 -3.567053e+000 -1.180763e+001
6888956250 -1.271172e+000 -1.754662e+002 -5.710600e+001 1.547165e+002 -5.777776e+001 1.483210e+002 -3.553641e+000 -1.312694e+001
6907700000 -1.276155e+000 -1.758933e+002 -5.714213e+001 1.528768e+002 -5.768454e+001 1.472753e+002 -3.544261e+000 -1.444527e+001
6926443750 -1.284642e+000 -1.763142e+002 -5.731439e+001 1.526183e+002 -5.762477e+001 1.469967e+002 -3.535114e+000 -1.580644e+001
6945187500 -1.290694e+000 -1.767523e+002 -5.715273e+001 1.532356e+002 -5.771126e+001 1.490392e+002 -3.520415e+000 -1.713123e+001
6963931250 -1.295992e+000 -1.771902e+002 -5.746863e+001 1.516901e+002 -5.752989e+001 1.471649e+002 -3.510882e+000 -1.845237e+001
6982675000 -1.303590e+000 -1.776189e+002 -5.753593e+001 1.492343e+002 -5.725255e+001 1.460135e+002 -3.498254e+000 -1.980064e+001
7001418750 -1.306778e+000 -1.780487e+002 -5.731725e+001 1.472725e+002 -5.733297e+001 1.462491e+002 -3.483990e+000 -2.114272e+001
7020162500 -1.313553e+000 -1.784784e+002 -5.744796e+001 1.483375e+002 -5.730650e+001 1.450640e+002 -3.476207e+000 -2.247096e+001
7038906250 -1.322235e+000 -1.788912e+002 -5.757863e+001 1.472808e+002 -5.723363e+001 1.459887e+002 -3.465021e+000 -2.384305e+001
7057650000 -1.326587e+000 -1.793349e+002 -5.748378e+001 1.449370e+002 -5.717453e+001 1.470953e+002 -3.451995e+000 -2.518642e+001
7076393750 -1.334707e+000 -1.797726e+002 -5.792484e+001 1.455044e+002 -5.700098e+001 1.459498e+002 -3.443504e+000 -2.653797e+001
7095137500 -1.342891e+000 1.798001e+002 -5.819836e+001 1.437820e+002 -5.717309e+001 1.448150e+002 -3.428895e+000 -2.792178e+001
7113881250 -1.347842e+000 1.793508e+002 -5.834513e+001 1.426054e+002 -5.745681e+001 1.435127e+002 -3.415307e+000 -2.928408e+001
7132625000 -1.354364e+000 1.789393e+002 -5.832835e+001 1.413717e+002 -5.714647e+001 1.421287e+002 -3.402642e+000 -3.065289e+001
7151368750 -1.363217e+000 1.785053e+002 -5.812027e+001 1.405887e+002 -5.703152e+001 1.416589e+002 -3.388269e+000 -3.204667e+001
7170112500 -1.368491e+000 1.780642e+002 -5.818500e+001 1.392322e+002 -5.708614e+001 1.387249e+002 -3.374747e+000 -3.339636e+001
7188856250 -1.374756e+000 1.776528e+002 -5.818081e+001 1.385429e+002 -5.707249e+001 1.391278e+002 -3.364071e+000 -3.476937e+001
7207600000 -1.382573e+000 1.772225e+002 -5.826470e+001 1.384872e+002 -5.726874e+001 1.371862e+002 -3.351056e+000 -3.616928e+001
7226343750 -1.387811e+000 1.767927e+002 -5.842543e+001 1.388076e+002 -5.731149e+001 1.367777e+002 -3.335793e+000 -3.753578e+001
7245087500 -1.394695e+000 1.764016e+002 -5.880359e+001 1.392052e+002 -5.732786e+001 1.357930e+002 -3.323556e+000 -3.892272e+001
7263831250 -1.401239e+000 1.759697e+002 -5.899794e+001 1.386432e+002 -5.734838e+001 1.348830e+002 -3.309114e+000 -4.033655e+001
7282575000 -1.406622e+000 1.755370e+002 -5.899902e+001 1.370074e+002 -5.740797e+001 1.332542e+002 -3.294356e+000 -4.170642e+001
7301318750 -1.413433e+000 1.751228e+002 -5.905918e+001 1.363580e+002 -5.742893e+001 1.341751e+002 -3.282168e+000 -4.311307e+001
7320062500 -1.423180e+000 1.746715e+002 -5.915522e+001 1.359084e+002 -5.765032e+001 1.311599e+002 -3.266945e+000 -4.453015e+001
7338806250 -1.428700e+000 1.742301e+002 -5.926904e+001 1.344246e+002 -5.806866e+001 1.296474e+002 -3.254116e+000 -4.590692e+001
7357550000 -1.435938e+000 1.738183e+002 -5.917839e+001 1.329519e+002 -5.783680e+001 1.289000e+002 -3.241298e+000 -4.732043e+001
7376293750 -1.445104e+000 1.733687e+002 -5.948911e+001 1.313967e+002 -5.785720e+001 1.263218e+002 -3.226889e+000 -4.874212e+001
7395037500 -1.453015e+000 1.729294e+002 -5.939799e+001 1.315485e+002 -5.790917e+001 1.248793e+002 -3.214453e+000 -5.014098e+001
7413781250 -1.455432e+000 1.724930e+002 -5.941662e+001 1.309236e+002 -5.813955e+001 1.249970e+002 -3.198129e+000 -5.157001e+001
7432525000 -1.467929e+000 1.720591e+002 -5.957324e+001 1.289421e+002 -5.836685e+001 1.221536e+002 -3.182179e+000 -5.296819e+001
7451268750 -1.474038e+000 1.716077e+002 -5.945814e+001 1.271083e+002 -5.855625e+001 1.209923e+002 -3.167403e+000 -5.438618e+001
7470012500 -1.476223e+000 1.711373e+002 -5.934138e+001 1.261836e+002 -5.861028e+001 1.188927e+002 -3.151676e+000 -5.583855e+001
7488756250 -1.487862e+000 1.707575e+002 -5.928442e+001 1.254200e+002 -5.906091e+001 1.155248e+002 -3.132531e+000 -5.723423e+001
7507500000 -1.494462e+000 1.703000e+002 -5.882803e+001 1.229488e+002 -5.959662e+001 1.129555e+002 -3.121454e+000 -5.864481e+001
7526243750 -1.495974e+000 1.698351e+002 -5.876284e+001 1.211397e+002 -5.957853e+001 1.105790e+002 -3.105751e+000 -6.009330e+001
7544987500 -1.505173e+000 1.694573e+002 -5.882953e+001 1.207003e+002 -5.951365e+001 1.104393e+002 -3.088730e+000 -6.148316e+001
7563731250 -1.513078e+000 1.689917e+002 -5.881624e+001 1.197303e+002 -5.990550e+001 1.081184e+002 -3.081459e+000 -6.290818e+001
7582475000 -1.515573e+000 1.685443e+002 -5.908791e+001 1.190306e+002 -6.009354e+001 1.064920e+002 -3.062853e+000 -6.435715e+001
7601218750 -1.525077e+000 1.681493e+002 -5.935301e+001 1.152622e+002 -6.031382e+001 1.046764e+002 -3.045361e+000 -6.576818e+001
7619962500 -1.533252e+000 1.676678e+002 -5.920967e+001 1.119373e+002 -6.044625e+001 1.051536e+002 -3.035856e+000 -6.720218e+001
7638706250 -1.537451e+000 1.672229e+002 -5.932254e+001 1.088141e+002 -6.048536e+001 1.064279e+002 -3.014214e+000 -6.863450e+001
7657450000 -1.544222e+000 1.668213e+002 -5.962162e+001 1.089120e+002 -6.069596e+001 1.043757e+002 -3.000763e+000 -7.004825e+001
7676193750 -1.551339e+000 1.663362e+002 -5.929582e+001 1.057897e+002 -6.085532e+001 1.017020e+002 -2.990965e+000 -7.148837e+001
7694937500 -1.557581e+000 1.659031e+002 -5.919233e+001 1.069610e+002 -6.089416e+001 1.030306e+002 -2.970261e+000 -7.293340e+001
7713681250 -1.564892e+000 1.654816e+002 -5.931050e+001 1.057925e+002 -6.122172e+001 1.016439e+002 -2.959122e+000 -7.434586e+001
7732425000 -1.575075e+000 1.650175e+002 -5.968898e+001 1.039367e+002 -6.177292e+001 9.540870e+001 -2.948134e+000 -7.578091e+001
7751168750 -1.579741e+000 1.645965e+002 -5.993874e+001 1.059009e+002 -6.170177e+001 9.778109e+001 -2.927808e+000 -7.721912e+001
7769912500 -1.585832e+000 1.641868e+002 -6.007314e+001 1.075557e+002 -6.157666e+001 9.903107e+001 -2.916953e+000 -7.864444e+001
7788656250 -1.593730e+000 1.637307e+002 -6.011062e+001 1.072325e+002 -6.159645e+001 9.813190e+001 -2.904163e+000 -8.009705e+001
7807400000 -1.598679e+000 1.633242e+002 -6.000581e+001 1.082569e+002 -6.180529e+001 9.784068e+001 -2.884036e+000 -8.153766e+001
7826143750 -1.603938e+000 1.629101e+002 -5.982719e+001 1.049522e+002 -6.199445e+001 9.969308e+001 -2.872867e+000 -8.294572e+001
7844887500 -1.619403e+000 1.624754e+002 -5.977055e+001 1.049865e+002 -6.198020e+001 1.005028e+002 -2.862969e+000 -8.438789e+001
7863631250 -1.621839e+000 1.620432e+002 -5.999274e+001 1.042296e+002 -6.177101e+001 1.018275e+002 -2.845796e+000 -8.584151e+001
7882375000 -1.628089e+000 1.616284e+002 -5.995688e+001 1.040389e+002 -6.204101e+001 1.009296e+002 -2.836207e+000 -8.724142e+001
7901118750 -1.641755e+000 1.612250e+002 -6.009393e+001 1.039175e+002 -6.256241e+001 1.000405e+002 -2.824625e+000 -8.867280e+001
7919862500 -1.644525e+000 1.607616e+002 -6.044082e+001 1.048332e+002 -6.212877e+001 1.030343e+002 -2.810297e+000 -9.011905e+001
7938606250 -1.650944e+000 1.603541e+002 -6.048496e+001 1.052186e+002 -6.176189e+001 1.050741e+002 -2.797951e+000 -9.152785e+001
7957350000 -1.666425e+000 1.599415e+002 -6.066259e+001 1.078150e+002 -6.202208e+001 1.080944e+002 -2.786098e+000 -9.294959e+001
7976093750 -1.668820e+000 1.594677e+002 -6.049573e+001 1.068009e+002 -6.204130e+001 1.080815e+002 -2.771430e+000 -9.439119e+001
7994837500 -1.676412e+000 1.590578e+002 -6.055751e+001 1.056461e+002 -6.195890e+001 1.119645e+002 -2.757168e+000 -9.579303e+001
8013581250 -1.688339e+000 1.586395e+002 -6.065765e+001 1.062243e+002 -6.189601e+001 1.122378e+002 -2.745769e+000 -9.721616e+001
8032325000 -1.691946e+000 1.581790e+002 -6.049312e+001 1.098468e+002 -6.189025e+001 1.156934e+002 -2.735948e+000 -9.863535e+001
8051068750 -1.700836e+000 1.577862e+002 -6.083432e+001 1.141068e+002 -6.199703e+001 1.142734e+002 -2.722469e+000 -1.000426e+002
8069812500 -1.713283e+000 1.573321e+002 -6.082648e+001 1.160756e+002 -6.225535e+001 1.113787e+002 -2.714190e+000 -1.014566e+002
8088556250 -1.718827e+000 1.568582e+002 -6.052836e+001 1.152698e+002 -6.211725e+001 1.129582e+002 -2.700359e+000 -1.028557e+002
8107300000 -1.727371e+000 1.564515e+002 -6.090073e+001 1.143361e+002 -6.188321e+001 1.153376e+002 -2.686147e+000 -1.042764e+002
8126043750 -1.739063e+000 1.560099e+002 -6.076734e+001 1.113148e+002 -6.174616e+001 1.137743e+002 -2.678139e+000 -1.056645e+002
8144787500 -1.743144e+000 1.555767e+002 -6.074496e+001 1.122195e+002 -6.140472e+001 1.145813e+002 -2.666886e+000 -1.070670e+002
8163531250 -1.751430e+000 1.551699e+002 -6.034648e+001 1.133114e+002 -6.101357e+001 1.197580e+002 -2.652397e+000 -1.084851e+002
8182275000 -1.764547e+000 1.547077e+002 -6.004492e+001 1.105345e+002 -6.096030e+001 1.194900e+002 -2.644150e+000 -1.098485e+002
8201018750 -1.769885e+000 1.542395e+002 -5.978734e+001 1.094769e+002 -6.096272e+001 1.167390e+002 -2.633039e+000 -1.112401e+002
8219762500 -1.777303e+000 1.538186e+002 -5.977571e+001 1.090965e+002 -6.117592e+001 1.166909e+002 -2.620367e+000 -1.126392e+002
8238506250 -1.789394e+000 1.533576e+002 -5.963653e+001 1.056802e+002 -6.117456e+001 1.145938e+002 -2.612194e+000 -1.139925e+002
8257250000 -1.793959e+000 1.529176e+002 -5.963681e+001 1.077404e+002 -6.108442e+001 1.134308e+002 -2.602044e+000 -1.153844e+002
8275993750 -1.802213e+000 1.525030e+002 -5.935373e+001 1.085666e+002 -6.126252e+001 1.122410e+002 -2.587919e+000 -1.167760e+002
8294737500 -1.814851e+000 1.520181e+002 -5.937731e+001 1.100542e+002 -6.112322e+001 1.111964e+002 -2.580583e+000 -1.181208e+002
8313481250 -1.819709e+000 1.515649e+002 -5.928176e+001 1.088109e+002 -6.085347e+001 1.117590e+002 -2.571133e+000 -1.195015e+002
8332225000 -1.828077e+000 1.511512e+002 -5.925804e+001 1.081968e+002 -6.025393e+001 1.126246e+002 -2.558911e+000 -1.208716e+002
8350968750 -1.837148e+000 1.506830e+002 -5.896156e+001 1.067061e+002 -6.020230e+001 1.111184e+002 -2.552854e+000 -1.221945e+002
8369712500 -1.841980e+000 1.502447e+002 -5.896884e+001 1.063570e+002 -6.023153e+001 1.112353e+002 -2.544293e+000 -1.235641e+002
8388456250 -1.852084e+000 1.498259e+002 -5.881659e+001 1.049511e+002 -6.012763e+001 1.080226e+002 -2.532668e+000 -1.249273e+002
8407200000 -1.862458e+000 1.493400e+002 -5.879326e+001 1.050448e+002 -5.997283e+001 1.049567e+002 -2.526398e+000 -1.262445e+002
8425943750 -1.865322e+000 1.489038e+002 -5.914304e+001 1.048081e+002 -5.982274e+001 1.020479e+002 -2.518213e+000 -1.276172e+002
8444687500 -1.874284e+000 1.484675e+002 -5.926217e+001 1.019785e+002 -5.977641e+001 1.022458e+002 -2.510547e+000 -1.289740e+002
8463431250 -1.882106e+000 1.480020e+002 -5.909721e+001 9.906788e+001 -5.958278e+001 9.898069e+001 -2.501591e+000 -1.302903e+002
8482175000 -1.885410e+000 1.475643e+002 -5.918997e+001 9.629903e+001 -5.975544e+001 9.875761e+001 -2.495081e+000 -1.316377e+002
8500918750 -1.897540e+000 1.471388e+002 -5.906159e+001 9.492319e+001 -5.939359e+001 9.976233e+001 -2.486047e+000 -1.329688e+002
8519662500 -1.904427e+000 1.466796e+002 -5.911962e+001 9.309355e+001 -5.953179e+001 9.821463e+001 -2.481620e+000 -1.342776e+002
8538406250 -1.910367e+000 1.462346e+002 -5.864496e+001 9.638646e+001 -5.937352e+001 9.596857e+001 -2.475708e+000 -1.356130e+002
8557150000 -1.920831e+000 1.457881e+002 -5.960765e+001 9.471791e+001 -5.968000e+001 9.358204e+001 -2.468583e+000 -1.369267e+002
8575893750 -1.929187e+000 1.453161e+002 -5.947509e+001 9.375435e+001 -5.956953e+001 9.206754e+001 -2.462665e+000 -1.382147e+002
8594637500 -1.937109e+000 1.448887e+002 -5.958090e+001 9.173738e+001 -5.936824e+001 8.988749e+001 -2.457051e+000 -1.395428e+002
8613381250 -1.947306e+000 1.444368e+002 -5.949149e+001 9.174579e+001 -5.944204e+001 8.870146e+001 -2.451970e+000 -1.408309e+002
8632125000 -1.956632e+000 1.439672e+002 -5.960494e+001 9.083054e+001 -5.926515e+001 8.738838e+001 -2.448206e+000 -1.421166e+002
8650868750 -1.964658e+000 1.435337e+002 -5.956870e+001 8.880597e+001 -5.927805e+001 8.636294e+001 -2.442235e+000 -1.434214e+002
8669612500 -1.973760e+000 1.430744e+002 -5.973816e+001 8.787212e+001 -5.897583e+001 8.775697e+001 -2.438385e+000 -1.446919e+002
8688356250 -1.980861e+000 1.426044e+002 -6.005579e+001 8.775041e+001 -5.891798e+001 8.765366e+001 -2.437040e+000 -1.459605e+002
8707100000 -1.988951e+000 1.421743e+002 -6.033987e+001 8.605446e+001 -5.866342e+001 8.638353e+001 -2.433310e+000 -1.472503e+002
8725843750 -1.999861e+000 1.417130e+002 -6.013609e+001 8.372465e+001 -5.877902e+001 8.339801e+001 -2.430382e+000 -1.484928e+002
8744587500 -2.006157e+000 1.412488e+002 -6.035773e+001 8.294212e+001 -5.880323e+001 8.266111e+001 -2.432667e+000 -1.497635e+002
8763331250 -2.013412e+000 1.408006e+002 -6.043508e+001 8.097857e+001 -5.876503e+001 8.059353e+001 -2.429758e+000 -1.510486e+002
8782075000 -2.024033e+000 1.403285e+002 -6.041161e+001 7.985715e+001 -5.903019e+001 7.882265e+001 -2.428901e+000 -1.522824e+002
8800818750 -2.028273e+000 1.398672e+002 -6.036607e+001 7.755362e+001 -5.901907e+001 7.678394e+001 -2.429232e+000 -1.535354e+002
8819562500 -2.036674e+000 1.394329e+002 -6.049329e+001 7.700267e+001 -5.913545e+001 7.833312e+001 -2.427237e+000 -1.547931e+002
8838306250 -2.049984e+000 1.389716e+002 -6.066304e+001 7.394414e+001 -5.925080e+001 7.973640e+001 -2.427697e+000 -1.560106e+002
8857050000 -2.055667e+000 1.385072e+002 -6.023042e+001 7.382216e+001 -5.936926e+001 7.933801e+001 -2.432492e+000 -1.572482e+002
8875793750 -2.066314e+000 1.380544e+002 -5.996432e+001 7.321159e+001 -5.939021e+001 7.703480e+001 -2.430056e+000 -1.584733e+002
8894537500 -2.076696e+000 1.375880e+002 -6.016179e+001 7.286895e+001 -5.942138e+001 7.565943e+001 -2.433982e+000 -1.596836e+002
8913281250 -2.080517e+000 1.371357e+002 -5.998218e+001 7.167500e+001 -5.905544e+001 7.372988e+001 -2.437859e+000 -1.609150e+002
8932025000 -2.089561e+000 1.367082e+002 -6.018086e+001 6.939000e+001 -5.920755e+001 7.148385e+001 -2.438057e+000 -1.621520e+002
8950768750 -2.100433e+000 1.362257e+002 -6.019664e+001 6.898222e+001 -5.902278e+001 7.168026e+001 -2.440192e+000 -1.633505e+002
8969512500 -2.105920e+000 1.357677e+002 -6.010689e+001 6.575792e+001 -5.928922e+001 7.098344e+001 -2.444836e+000 -1.645647e+002
8988256250 -2.114995e+000 1.353146e+002 -5.937710e+001 6.533345e+001 -5.893550e+001 7.004262e+001 -2.445572e+000 -1.657766e+002
9007000000 -2.124875e+000 1.348499e+002 -5.948869e+001 6.564476e+001 -5.913036e+001 6.865050e+001 -2.448991e+000 -1.669642e+002
9025743750 -2.128534e+000 1.344021e+002 -5.941476e+001 6.441639e+001 -5.928983e+001 6.940575e+001 -2.455321e+000 -1.681460e+002
9044487500 -2.139346e+000 1.339726e+002 -5.938898e+001 6.339283e+001 -5.924184e+001 6.879958e+001 -2.456988e+000 -1.693505e+002
9063231250 -2.146992e+000 1.335140e+002 -5.933224e+001 6.246476e+001 -5.923237e+001 6.783453e+001 -2.462999e+000 -1.705312e+002
9081975000 -2.152525e+000 1.330526e+002 -5.925922e+001 6.076447e+001 -5.919980e+001 6.662939e+001 -2.470239e+000 -1.717205e+002
9100718750 -2.163759e+000 1.325948e+002 -5.915847e+001 6.035625e+001 -5.943523e+001 6.403831e+001 -2.472497e+000 -1.729194e+002
9119462500 -2.170791e+000 1.321317e+002 -5.897454e+001 6.037196e+001 -5.948179e+001 6.108823e+001 -2.476668e+000 -1.740890e+002
9138206250 -2.176498e+000 1.316891e+002 -5.898569e+001 6.048752e+001 -5.943890e+001 5.938814e+001 -2.483425e+000 -1.752632e+002
9156950000 -2.188318e+000 1.312529e+002 -5.914329e+001 5.988177e+001 -5.931152e+001 5.988041e+001 -2.488593e+000 -1.764428e+002
9175693750 -2.194963e+000 1.307793e+002 -5.890836e+001 5.853730e+001 -5.922469e+001 5.653735e+001 -2.491915e+000 -1.775857e+002
9194437500 -2.203398e+000 1.303274e+002 -5.927330e+001 5.926808e+001 -5.918915e+001 5.569873e+001 -2.496592e+000 -1.787421e+002
9213181250 -2.215435e+000 1.298604e+002 -5.913167e+001 5.877045e+001 -5.939198e+001 5.307145e+001 -2.501492e+000 -1.799102e+002
9231925000 -2.223959e+000 1.293787e+002 -5.900342e+001 5.761470e+001 -5.922034e+001 5.273745e+001 -2.508546e+000 1.789426e+002
9250668750 -2.229015e+000 1.289559e+002 -5.871242e+001 5.518190e+001 -5.898238e+001 5.080756e+001 -2.515848e+000 1.777889e+002
9269412500 -2.240537e+000 1.284936e+002 -5.866766e+001 5.589949e+001 -5.917427e+001 4.597934e+001 -2.521638e+000 1.766468e+002
9288156250 -2.248035e+000 1.280081e+002 -5.866689e+001 5.449677e+001 -5.900563e+001 4.307151e+001 -2.528269e+000 1.755094e+002
9306900000 -2.256117e+000 1.275698e+002 -5.870919e+001 5.447260e+001 -5.882193e+001 4.202853e+001 -2.536243e+000 1.743614e+002
9325643750 -2.269331e+000 1.270874e+002 -5.866174e+001 5.429762e+001 -5.881575e+001 4.101922e+001 -2.540833e+000 1.732257e+002
9344387500 -2.276419e+000 1.266159e+002 -5.849838e+001 5.469936e+001 -5.882573e+001 4.017142e+001 -2.548970e+000 1.721031e+002
9363131250 -2.283165e+000 1.261702e+002 -5.888055e+001 5.419861e+001 -5.891976e+001 3.886446e+001 -2.556385e+000 1.709702e+002
9381875000 -2.295843e+000 1.257073e+002 -5.897893e+001 5.280363e+001 -5.924582e+001 3.503411e+001 -2.565437e+000 1.698459e+002
9400618750 -2.301245e+000 1.252265e+002 -5.911376e+001 5.082451e+001 -5.911009e+001 3.356465e+001 -2.574779e+000 1.687441e+002
9419362500 -2.309581e+000 1.247714e+002 -5.923986e+001 5.090705e+001 -5.927832e+001 3.017638e+001 -2.583742e+000 1.676009e+002
9438106250 -2.320767e+000 1.242795e+002 -5.932956e+001 4.758094e+001 -5.900172e+001 2.729397e+001 -2.588744e+000 1.664780e+002
9456850000 -2.323244e+000 1.238013e+002 -5.949913e+001 4.701167e+001 -5.891577e+001 2.432937e+001 -2.598722e+000 1.653691e+002
9475593750 -2.331693e+000 1.233665e+002 -5.988556e+001 4.360893e+001 -5.893335e+001 2.183199e+001 -2.608841e+000 1.642426e+002
9494337500 -2.344428e+000 1.228813e+002 -6.001137e+001 4.015182e+001 -5.927120e+001 2.198121e+001 -2.613062e+000 1.631462e+002
9513081250 -2.348813e+000 1.224076e+002 -6.042933e+001 3.836076e+001 -5.912197e+001 2.075779e+001 -2.624098e+000 1.620680e+002
9531825000 -2.359679e+000 1.219560e+002 -6.150957e+001 3.014371e+001 -5.928000e+001 1.529527e+001 -2.634520e+000 1.609539e+002
9550568750 -2.371008e+000 1.214588e+002 -6.167002e+001 2.578098e+001 -5.950016e+001 1.488871e+001 -2.641400e+000 1.598675e+002
9569312500 -2.374650e+000 1.209837e+002 -6.166871e+001 2.247579e+001 -5.969055e+001 1.240457e+001 -2.654332e+000 1.587928e+002
9588056250 -2.383039e+000 1.205469e+002 -6.171136e+001 2.342436e+001 -5.975932e+001 9.935926e+000 -2.662438e+000 1.576803e+002
9606800000 -2.397059e+000 1.200719e+002 -6.232500e+001 2.571691e+001 -6.001242e+001 7.506967e+000 -2.668777e+000 1.565948e+002
9625543750 -2.401997e+000 1.195971e+002 -6.216100e+001 3.418431e+001 -6.042564e+001 1.674419e+000 -2.682221e+000 1.555251e+002
9644287500 -2.414244e+000 1.191401e+002 -6.297913e+001 4.215899e+001 -6.051580e+001 5.186139e-001 -2.691752e+000 1.544278e+002
9663031250 -2.424175e+000 1.186466e+002 -6.323816e+001 5.767787e+001 -6.063018e+001 -2.025971e+000 -2.698147e+000 1.533631e+002
9681775000 -2.426903e+000 1.181681e+002 -6.377550e+001 7.119540e+001 -6.063312e+001 -2.928940e+000 -2.710882e+000 1.523165e+002
9700518750 -2.439209e+000 1.177176e+002 -6.390082e+001 8.528571e+001 -6.078043e+001 -5.998207e+000 -2.720210e+000 1.512225e+002
9719262500 -2.447998e+000 1.172249e+002 -6.402065e+001 9.957230e+001 -6.132062e+001 -1.823784e+001 -2.728188e+000 1.501788e+002
9738006250 -2.452644e+000 1.167650e+002 -6.435832e+001 1.058548e+002 -6.163964e+001 -3.430437e+001 -2.741750e+000 1.491283e+002
9756750000 -2.465675e+000 1.162974e+002 -6.437602e+001 1.081273e+002 -6.178466e+001 -5.108256e+001 -2.753110e+000 1.480499e+002
9775493750 -2.474011e+000 1.157883e+002 -6.456975e+001 1.065827e+002 -6.229128e+001 -6.835053e+001 -2.760935e+000 1.470123e+002
9794237500 -2.475664e+000 1.153020e+002 -6.442616e+001 1.079592e+002 -6.287330e+001 -8.820986e+001 -2.776610e+000 1.459999e+002
9812981250 -2.485900e+000 1.148683e+002 -6.476515e+001 1.121252e+002 -6.296051e+001 -1.012668e+002 -2.785198e+000 1.449149e+002
9831725000 -2.498900e+000 1.143836e+002 -6.475821e+001 1.124137e+002 -6.306065e+001 -1.119692e+002 -2.792968e+000 1.438901e+002
9850468750 -2.503419e+000 1.138996e+002 -6.466789e+001 1.150248e+002 -6.367541e+001 -1.262740e+002 -2.808568e+000 1.428902e+002
9869212500 -2.509561e+000 1.134714e+002 -6.453488e+001 1.176494e+002 -6.388216e+001 -1.395968e+002 -2.821598e+000 1.418248e+002
9887956250 -2.524543e+000 1.129969e+002 -6.460712e+001 1.191293e+002 -6.419867e+001 -1.609295e+002 -2.831425e+000 1.408169e+002
9906700000 -2.529336e+000 1.124728e+002 -6.479758e+001 1.217881e+002 -6.484061e+001 1.725708e+002 -2.847274e+000 1.398050e+002
9925443750 -2.535132e+000 1.120478e+002 -6.482896e+001 1.250216e+002 -6.467161e+001 1.426413e+002 -2.859151e+000 1.387576e+002
9944187500 -2.551876e+000 1.115709e+002 -6.500439e+001 1.303445e+002 -6.496765e+001 1.115091e+002 -2.870605e+000 1.377648e+002
9962931250 -2.555659e+000 1.110590e+002 -6.400105e+001 1.374478e+002 -6.469047e+001 8.461418e+001 -2.887402e+000 1.367486e+002
9981675000 -2.562787e+000 1.106202e+002 -6.407762e+001 1.377070e+002 -6.491566e+001 5.782676e+001 -2.896858e+000 1.356907e+002
10000418750 -2.575811e+000 1.101315e+002 -6.409421e+001 1.358010e+002 -6.496957e+001 2.891346e+001 -2.907644e+000 1.346964e+002
10019162500 -2.580294e+000 1.096168e+002 -6.421168e+001 1.355513e+002 -6.511337e+001 -2.264071e+000 -2.923440e+000 1.336796e+002
10037906250 -2.588049e+000 1.091814e+002 -6.465323e+001 1.386883e+002 -6.528832e+001 -3.481844e+001 -2.933218e+000 1.326388e+002
10056650000 -2.600017e+000 1.086899e+002 -6.450248e+001 1.419277e+002 -6.498434e+001 -5.727946e+001 -2.948445e+000 1.316707e+002
10075393750 -2.605463e+000 1.081957e+002 -6.436407e+001 1.397901e+002 -6.487315e+001 -8.696236e+001 -2.966569e+000 1.306344e+002
10094137500 -2.612893e+000 1.077436e+002 -6.451337e+001 1.274688e+002 -6.506002e+001 -1.164384e+002 -2.977091e+000 1.295899e+002
10112881250 -2.626718e+000 1.072193e+002 -6.415716e+001 1.143555e+002 -6.611040e+001 -1.428500e+002 -2.992548e+000 1.286157e+002
10131625000 -2.628514e+000 1.067271e+002 -6.431313e+001 1.048438e+002 -6.588637e+001 -1.562467e+002 -3.011528e+000 1.275881e+002
10150368750 -2.640212e+000 1.062864e+002 -6.464391e+001 9.506294e+001 -6.611308e+001 -1.619907e+002 -3.020243e+000 1.265640e+002
10169112500 -2.652432e+000 1.057560e+002 -6.463464e+001 1.003599e+002 -6.632738e+001 -1.717952e+002 -3.035253e+000 1.255928e+002
10187856250 -2.656471e+000 1.052623e+002 -6.482354e+001 1.119315e+002 -6.655699e+001 1.729890e+002 -3.051467e+000 1.245681e+002
10206600000 -2.666157e+000 1.048103e+002 -6.475669e+001 1.292701e+002 -6.641879e+001 1.613524e+002 -3.061528e+000 1.235540e+002
10225343750 -2.678829e+000 1.043093e+002 -6.483622e+001 1.484118e+002 -6.591196e+001 1.492582e+002 -3.076592e+000 1.225703e+002
10244087500 -2.686412e+000 1.037994e+002 -6.469038e+001 1.564480e+002 -6.594995e+001 1.327415e+002 -3.091500e+000 1.215735e+002
10262831250 -2.694767e+000 1.033438e+002 -6.491245e+001 1.745033e+002 -6.602031e+001 1.171863e+002 -3.105784e+000 1.205775e+002
10281575000 -2.706971e+000 1.028413e+002 -6.555963e+001 -1.674557e+002 -6.606606e+001 1.052965e+002 -3.122403e+000 1.195891e+002
10300318750 -2.719114e+000 1.023078e+002 -6.583163e+001 -1.479667e+002 -6.654124e+001 8.759856e+001 -3.134687e+000 1.185841e+002
10319062500 -2.723875e+000 1.018174e+002 -6.613275e+001 -1.352368e+002 -6.648177e+001 7.914048e+001 -3.146960e+000 1.176013e+002
10337806250 -2.731181e+000 1.013365e+002 -6.622929e+001 -1.258923e+002 -6.647581e+001 7.504098e+001 -3.164843e+000 1.166089e+002
10356550000 -2.742649e+000 1.008343e+002 -6.634821e+001 -1.244531e+002 -6.662747e+001 7.440493e+001 -3.177123e+000 1.156037e+002
10375293750 -2.747823e+000 1.003504e+002 -6.645749e+001 -1.187923e+002 -6.678152e+001 7.431924e+001 -3.191188e+000 1.146197e+002
10394037500 -2.758623e+000 9.987000e+001 -6.650256e+001 -1.040732e+002 -6.714260e+001 7.241859e+001 -3.208906e+000 1.136317e+002
10412781250 -2.769417e+000 9.935314e+001 -6.649050e+001 -8.235702e+001 -6.710744e+001 6.997653e+001 -3.222824e+000 1.126396e+002
10431525000 -2.775576e+000 9.884622e+001 -6.681905e+001 -6.443734e+001 -6.736477e+001 6.818484e+001 -3.238013e+000 1.116867e+002
10450268750 -2.784664e+000 9.835316e+001 -6.684138e+001 -4.670543e+001 -6.729589e+001 6.998690e+001 -3.256732e+000 1.107009e+002
10469012500 -2.793288e+000 9.785060e+001 -6.629960e+001 -3.704142e+001 -6.727562e+001 7.039287e+001 -3.269010e+000 1.097318e+002
10487756250 -2.802296e+000 9.736064e+001 -6.639937e+001 -3.529863e+001 -6.733146e+001 6.722871e+001 -3.282883e+000 1.087655e+002
10506500000 -2.812907e+000 9.686574e+001 -6.617646e+001 -2.753202e+001 -6.727451e+001 7.524162e+001 -3.299925e+000 1.077871e+002
10525243750 -2.822620e+000 9.635580e+001 -6.642336e+001 -1.680879e+001 -6.761135e+001 9.065899e+001 -3.310116e+000 1.068216e+002
10543987500 -2.829394e+000 9.586699e+001 -6.649219e+001 5.204039e-001 -6.669070e+001 1.020472e+002 -3.324072e+000 1.058708e+002
10562731250 -2.839677e+000 9.537241e+001 -6.621085e+001 9.189256e+000 -6.671094e+001 1.076916e+002 -3.340742e+000 1.048955e+002
10581475000 -2.848139e+000 9.486893e+001 -6.680792e+001 1.591438e+001 -6.618221e+001 1.121710e+002 -3.352818e+000 1.039450e+002
10600218750 -2.856885e+000 9.439433e+001 -6.678538e+001 1.851963e+001 -6.630087e+001 1.256955e+002 -3.370884e+000 1.030034e+002
10618962500 -2.868284e+000 9.388885e+001 -6.673725e+001 2.060070e+001 -6.617917e+001 1.412351e+002 -3.387896e+000 1.020188e+002
10637706250 -2.877260e+000 9.336201e+001 -6.680405e+001 1.998040e+001 -6.636644e+001 1.591385e+002 -3.399006e+000 1.010551e+002
10656450000 -2.884315e+000 9.286673e+001 -6.677390e+001 1.927349e+001 -6.621416e+001 1.770686e+002 -3.417143e+000 1.001111e+002
10675193750 -2.893893e+000 9.235089e+001 -6.671535e+001 3.267732e+001 -6.608440e+001 -1.680211e+002 -3.433521e+000 9.913729e+001
10693937500 -2.901080e+000 9.183158e+001 -6.690217e+001 4.046863e+001 -6.614336e+001 -1.568333e+002 -3.443385e+000 9.818612e+001
10712681250 -2.905897e+000 9.135704e+001 -6.628008e+001 5.150047e+001 -6.568826e+001 -1.425359e+002 -3.461387e+000 9.723581e+001
10731425000 -2.920155e+000 9.084584e+001 -6.611333e+001 6.094973e+001 -6.565440e+001 -1.241037e+002 -3.479950e+000 9.625903e+001
10750168750 -2.926591e+000 9.030981e+001 -6.566855e+001 7.879214e+001 -6.553814e+001 -1.118865e+002 -3.491385e+000 9.531172e+001
10768912500 -2.935013e+000 8.979852e+001 -6.523952e+001 1.009827e+002 -6.537156e+001 -9.857086e+001 -3.507480e+000 9.438187e+001
10787656250 -2.943566e+000 8.927412e+001 -6.541056e+001 1.302688e+002 -6.534347e+001 -8.325109e+001 -3.524672e+000 9.341429e+001
10806400000 -2.949576e+000 8.875728e+001 -6.537674e+001 1.502950e+002 -6.529037e+001 -6.763594e+001 -3.536530e+000 9.247582e+001
10825143750 -2.955406e+000 8.825747e+001 -6.564526e+001 1.711503e+002 -6.550032e+001 -4.546703e+001 -3.555304e+000 9.154507e+001
10843887500 -2.968628e+000 8.773122e+001 -6.575418e+001 -1.782248e+002 -6.556419e+001 -2.297178e+001 -3.569495e+000 9.059061e+001
10862631250 -2.974295e+000 8.720825e+001 -6.544193e+001 -1.663655e+002 -6.524597e+001 9.336634e+000 -3.580904e+000 8.964725e+001
10881375000 -2.981702e+000 8.668704e+001 -6.546906e+001 -1.503136e+002 -6.570332e+001 4.229414e+001 -3.598920e+000 8.871552e+001
10900118750 -2.990808e+000 8.615569e+001 -6.547440e+001 -1.340975e+002 -6.584749e+001 8.693396e+001 -3.615151e+000 8.774601e+001
10918862500 -2.996908e+000 8.563835e+001 -6.616686e+001 -1.249820e+002 -6.596175e+001 1.331777e+002 -3.630024e+000 8.680856e+001
10937606250 -3.003216e+000 8.512524e+001 -6.624020e+001 -1.088352e+002 -6.586224e+001 1.712406e+002 -3.650390e+000 8.587418e+001
10956350000 -3.015004e+000 8.460043e+001 -6.628588e+001 -9.303139e+001 -6.549187e+001 -1.549874e+002 -3.666530e+000 8.491870e+001
10975093750 -3.022851e+000 8.407637e+001 -6.634117e+001 -8.020676e+001 -6.529321e+001 -1.250822e+002 -3.682806e+000 8.398566e+001
10993837500 -3.032747e+000 8.353555e+001 -6.695534e+001 -6.967081e+001 -6.563615e+001 -1.030042e+002 -3.702959e+000 8.305358e+001
11012581250 -3.040118e+000 8.301237e+001 -6.636140e+001 -4.937652e+001 -6.575233e+001 -7.238032e+001 -3.716665e+000 8.210303e+001
11031325000 -3.043632e+000 8.249025e+001 -6.642648e+001 -3.138943e+001 -6.554514e+001 -4.510209e+001 -3.732923e+000 8.118427e+001
11050068750 -3.053095e+000 8.198389e+001 -6.668277e+001 -1.339003e+001 -6.588269e+001 -1.679578e+001 -3.752892e+000 8.026122e+001
11068812500 -3.063324e+000 8.145964e+001 -6.700316e+001 3.494119e+000 -6.541534e+001 1.000227e+001 -3.767495e+000 7.932511e+001
11087556250 -3.071259e+000 8.092567e+001 -6.696270e+001 1.785922e+001 -6.614215e+001 3.792567e+001 -3.782646e+000 7.841496e+001
11106300000 -3.081355e+000 8.040347e+001 -6.687621e+001 2.239439e+001 -6.642133e+001 6.649660e+001 -3.803927e+000 7.747897e+001
11125043750 -3.089765e+000 7.987443e+001 -6.738920e+001 2.645839e+001 -6.620928e+001 1.007725e+002 -3.820237e+000 7.653531e+001
11143787500 -3.099384e+000 7.934480e+001 -6.730476e+001 2.674286e+001 -6.581785e+001 1.315760e+002 -3.836897e+000 7.562859e+001
11162531250 -3.107382e+000 7.883381e+001 -6.774902e+001 2.539925e+001 -6.551808e+001 1.583304e+002 -3.856578e+000 7.469601e+001
11181275000 -3.117450e+000 7.827950e+001 -6.826909e+001 2.925940e+001 -6.604605e+001 -1.788323e+002 -3.869641e+000 7.375601e+001
11200018750 -3.124354e+000 7.776266e+001 -6.845949e+001 3.893959e+001 -6.587134e+001 -1.634541e+002 -3.887822e+000 7.284680e+001
11218762500 -3.135439e+000 7.721452e+001 -6.820866e+001 4.214506e+001 -6.586967e+001 -1.506303e+002 -3.908405e+000 7.192078e+001
11237506250 -3.142818e+000 7.666811e+001 -6.802158e+001 4.455260e+001 -6.609142e+001 -1.321172e+002 -3.921962e+000 7.098005e+001
11256250000 -3.151449e+000 7.616356e+001 -6.784368e+001 3.988456e+001 -6.590049e+001 -1.183578e+002 -3.938462e+000 7.006677e+001
11274993750 -3.162642e+000 7.564755e+001 -6.772722e+001 3.851384e+001 -6.575545e+001 -1.102850e+002 -3.962476e+000 6.913334e+001
11293737500 -3.170568e+000 7.509252e+001 -6.826725e+001 4.714946e+001 -6.630360e+001 -1.096276e+002 -3.975375e+000 6.819176e+001
11312481250 -3.178389e+000 7.455921e+001 -6.838521e+001 4.109596e+001 -6.607729e+001 -1.122345e+002 -3.994822e+000 6.730775e+001
11331225000 -3.190869e+000 7.401808e+001 -6.816822e+001 3.992942e+001 -6.604374e+001 -1.173835e+002 -4.014893e+000 6.638241e+001
11349968750 -3.195879e+000 7.346761e+001 -6.792096e+001 4.208263e+001 -6.642717e+001 -1.318383e+002 -4.027716e+000 6.544633e+001
11368712500 -3.203534e+000 7.293917e+001 -6.798368e+001 3.382180e+001 -6.620357e+001 -1.462583e+002 -4.044855e+000 6.454670e+001
11387456250 -3.213285e+000 7.240662e+001 -6.810766e+001 3.185448e+001 -6.636170e+001 -1.680926e+002 -4.064002e+000 6.361460e+001
11406200000 -3.221127e+000 7.185487e+001 -6.862962e+001 3.629771e+001 -6.663134e+001 1.648674e+002 -4.077177e+000 6.267898e+001
11424943750 -3.227927e+000 7.133356e+001 -6.794105e+001 4.077005e+001 -6.620533e+001 1.395630e+002 -4.094493e+000 6.178039e+001
11443687500 -3.235656e+000 7.076942e+001 -6.775844e+001 3.758963e+001 -6.634511e+001 1.068541e+002 -4.115712e+000 6.083501e+001
11462431250 -3.244719e+000 7.022634e+001 -6.803637e+001 3.432602e+001 -6.607341e+001 7.297108e+001 -4.128376e+000 5.990403e+001
11481175000 -3.252408e+000 6.968801e+001 -6.777650e+001 2.958817e+001 -6.557027e+001 4.329857e+001 -4.146199e+000 5.898558e+001
11499918750 -3.261977e+000 6.912729e+001 -6.759392e+001 2.796751e+001 -6.541125e+001 9.440022e+000 -4.164881e+000 5.802822e+001
11518662500 -3.268966e+000 6.858831e+001 -6.734217e+001 2.089963e+001 -6.477766e+001 -2.128620e+001 -4.176370e+000 5.708764e+001
11537406250 -3.277184e+000 6.803020e+001 -6.755272e+001 1.194968e+001 -6.433869e+001 -4.758178e+001 -4.195443e+000 5.618328e+001
11556150000 -3.284827e+000 6.745416e+001 -6.684820e+001 1.223724e+000 -6.465923e+001 -8.112893e+001 -4.213316e+000 5.523575e+001
11574893750 -3.291836e+000 6.690973e+001 -6.710413e+001 -1.116278e+001 -6.509321e+001 -1.092668e+002 -4.225898e+000 5.430597e+001
11593637500 -3.299815e+000 6.636026e+001 -6.678304e+001 -2.103451e+001 -6.496502e+001 -1.354210e+002 -4.244969e+000 5.339993e+001
11612381250 -3.309768e+000 6.581222e+001 -6.654802e+001 -2.970702e+001 -6.451190e+001 -1.563663e+002 -4.263258e+000 5.243705e+001
11631125000 -3.317037e+000 6.523576e+001 -6.667101e+001 -5.149727e+001 -6.433199e+001 -1.721134e+002 -4.275259e+000 5.152197e+001
11649868750 -3.327249e+000 6.470266e+001 -6.650742e+001 -7.380295e+001 -6.407942e+001 1.664300e+002 -4.296362e+000 5.061652e+001
11668612500 -3.332269e+000 6.412701e+001 -6.666898e+001 -9.362103e+001 -6.387957e+001 1.325941e+002 -4.314059e+000 4.965021e+001
11687356250 -3.340327e+000 6.355764e+001 -6.696152e+001 -1.150172e+002 -6.384836e+001 9.660855e+001 -4.327120e+000 4.874409e+001
11706100000 -3.348319e+000 6.300496e+001 -6.698769e+001 -1.284486e+002 -6.357107e+001 6.405769e+001 -4.347260e+000 4.781083e+001
11724843750 -3.358781e+000 6.242834e+001 -6.648605e+001 -1.498735e+002 -6.342365e+001 3.423330e+001 -4.364932e+000 4.683675e+001
11743587500 -3.366992e+000 6.187474e+001 -6.601396e+001 -1.666318e+002 -6.330300e+001 -1.002882e+000 -4.376823e+000 4.590961e+001
11762331250 -3.374375e+000 6.131725e+001 -6.611862e+001 1.758925e+002 -6.308747e+001 -3.540727e+001 -4.397091e+000 4.498172e+001
11781075000 -3.381954e+000 6.073593e+001 -6.561003e+001 1.624202e+002 -6.315108e+001 -6.251034e+001 -4.413992e+000 4.401551e+001
11799818750 -3.388220e+000 6.019161e+001 -6.551167e+001 1.456755e+002 -6.366043e+001 -9.495321e+001 -4.423874e+000 4.306231e+001
11818562500 -3.397848e+000 5.962145e+001 -6.496579e+001 1.165210e+002 -6.393851e+001 -1.279364e+002 -4.444611e+000 4.215206e+001
11837306250 -3.407633e+000 5.902473e+001 -6.455845e+001 7.521236e+001 -6.393512e+001 -1.525871e+002 -4.463802e+000 4.118357e+001
11856050000 -3.415645e+000 5.845878e+001 -6.490496e+001 4.314846e+001 -6.401862e+001 -1.720402e+002 -4.473827e+000 4.024470e+001
11874793750 -3.425973e+000 5.789957e+001 -6.538059e+001 8.285959e+000 -6.389901e+001 1.611381e+002 -4.500313e+000 3.934509e+001
11893537500 -3.434089e+000 5.730154e+001 -6.485437e+001 -2.229122e+001 -6.412592e+001 1.321636e+002 -4.521501e+000 3.833580e+001
11912281250 -3.442056e+000 5.675028e+001 -6.505750e+001 -4.586491e+001 -6.418907e+001 1.056209e+002 -4.528057e+000 3.741708e+001
11931025000 -3.450913e+000 5.619319e+001 -6.503046e+001 -6.952196e+001 -6.470343e+001 7.606885e+001 -4.555589e+000 3.651843e+001
11949768750 -3.462285e+000 5.560489e+001 -6.506599e+001 -9.327715e+001 -6.450105e+001 3.918938e+001 -4.574111e+000 3.551140e+001
11968512500 -3.467593e+000 5.504268e+001 -6.498146e+001 -1.101007e+002 -6.540823e+001 1.256289e-001 -4.580613e+000 3.460463e+001
11987256250 -3.474083e+000 5.446981e+001 -6.572522e+001 -1.283922e+002 -6.543993e+001 -3.315929e+001 -4.607935e+000 3.369144e+001
12006000000 -3.484270e+000 5.389158e+001 -6.546942e+001 -1.436648e+002 -6.537370e+001 -7.435120e+001 -4.625380e+000 3.269720e+001
12024743750 -3.491151e+000 5.332754e+001 -6.562420e+001 -1.641499e+002 -6.525965e+001 -1.168304e+002 -4.636217e+000 3.177268e+001
12043487500 -3.498124e+000 5.274783e+001 -6.538992e+001 1.733820e+002 -6.523192e+001 -1.600650e+002 -4.664744e+000 3.084016e+001
12062231250 -3.508857e+000 5.219749e+001 -6.517323e+001 1.552850e+002 -6.555833e+001 1.641437e+002 -4.677711e+000 2.983748e+001
12080975000 -3.513990e+000 5.160860e+001 -6.541103e+001 1.467943e+002 -6.594257e+001 1.416075e+002 -4.686724e+000 2.890895e+001
12099718750 -3.521402e+000 5.100903e+001 -6.510327e+001 1.399291e+002 -6.657576e+001 1.177744e+002 -4.715566e+000 2.798240e+001
12118462500 -3.529464e+000 5.044693e+001 -6.501282e+001 1.384108e+002 -6.641599e+001 9.653011e+001 -4.730466e+000 2.697865e+001
12137206250 -3.535740e+000 4.987016e+001 -6.499290e+001 1.322794e+002 -6.663029e+001 7.089481e+001 -4.743873e+000 2.606652e+001
12155950000 -3.541467e+000 4.929555e+001 -6.513374e+001 1.224268e+002 -6.607217e+001 4.232889e+001 -4.770201e+000 2.511839e+001
12174693750 -3.552272e+000 4.873525e+001 -6.536995e+001 1.210466e+002 -6.637551e+001 2.360194e+001 -4.781944e+000 2.412123e+001
12193437500 -3.559180e+000 4.813518e+001 -6.584795e+001 1.158793e+002 -6.668607e+001 -7.257299e+000 -4.798045e+000 2.320539e+001
12212181250 -3.567386e+000 4.754850e+001 -6.643750e+001 1.116457e+002 -6.625806e+001 -3.952007e+001 -4.823676e+000 2.224628e+001
12230925000 -3.577290e+000 4.696581e+001 -6.644084e+001 1.144676e+002 -6.572003e+001 -6.518155e+001 -4.838227e+000 2.130751e+001
12249668750 -3.584260e+000 4.638257e+001 -6.638699e+001 1.210206e+002 -6.534182e+001 -7.984187e+001 -4.857232e+000 2.035086e+001
12268412500 -3.591264e+000 4.581611e+001 -6.602678e+001 1.284158e+002 -6.598911e+001 -9.660023e+001 -4.877357e+000 1.937075e+001
12287156250 -3.601240e+000 4.523386e+001 -6.591741e+001 1.346326e+002 -6.606184e+001 -1.172179e+002 -4.890572e+000 1.840458e+001
12305900000 -3.610304e+000 4.461797e+001 -6.539860e+001 1.469531e+002 -6.570612e+001 -1.311132e+002 -4.903462e+000 1.745078e+001
12324643750 -3.617658e+000 4.403738e+001 -6.569026e+001 1.466809e+002 -6.563676e+001 -1.380716e+002 -4.920982e+000 1.650394e+001
12343387500 -3.625105e+000 4.344570e+001 -6.546904e+001 1.352934e+002 -6.617469e+001 -1.520440e+002 -4.939533e+000 1.553010e+001
12362131250 -3.632451e+000 4.285548e+001 -6.537107e+001 1.290180e+002 -6.595727e+001 -1.598009e+002 -4.955064e+000 1.456645e+001
12380875000 -3.639292e+000 4.228797e+001 -6.562309e+001 1.307893e+002 -6.612142e+001 -1.598074e+002 -4.973799e+000 1.360607e+001
12399618750 -3.650090e+000 4.170768e+001 -6.582257e+001 1.370446e+002 -6.532462e+001 -1.594424e+002 -4.990871e+000 1.262109e+001
12418362500 -3.658920e+000 4.111157e+001 -6.530479e+001 1.437512e+002 -6.528114e+001 -1.605802e+002 -5.005447e+000 1.166319e+001
12437106250 -3.666677e+000 4.053043e+001 -6.567075e+001 1.456486e+002 -6.505502e+001 -1.629377e+002 -5.023159e+000 1.070183e+001
12455850000 -3.675447e+000 3.992957e+001 -6.541497e+001 1.606074e+002 -6.534201e+001 -1.621895e+002 -5.041112e+000 9.717222e+000
12474593750 -3.684150e+000 3.934055e+001 -6.530993e+001 1.762813e+002 -6.548202e+001 -1.628636e+002 -5.055125e+000 8.760827e+000
12493337500 -3.693379e+000 3.877133e+001 -6.535303e+001 -1.646373e+002 -6.505116e+001 -1.682231e+002 -5.072710e+000 7.785899e+000
12512081250 -3.705462e+000 3.815600e+001 -6.570446e+001 -1.512402e+002 -6.487980e+001 1.785346e+002 -5.087965e+000 6.811353e+000
12530825000 -3.714806e+000 3.756733e+001 -6.577905e+001 -1.351501e+002 -6.424147e+001 1.675676e+002 -5.100122e+000 5.855598e+000
12549568750 -3.723331e+000 3.698193e+001 -6.573316e+001 -1.189810e+002 -6.444109e+001 1.548880e+002 -5.116065e+000 4.886628e+000
12568312500 -3.735184e+000 3.637171e+001 -6.574509e+001 -1.080583e+002 -6.437425e+001 1.439346e+002 -5.132073e+000 3.893652e+000
12587056250 -3.747454e+000 3.578231e+001 -6.588966e+001 -8.851739e+001 -6.460131e+001 1.282415e+002 -5.143450e+000 2.935879e+000
12605800000 -3.754962e+000 3.518282e+001 -6.590298e+001 -7.357235e+001 -6.441339e+001 1.094897e+002 -5.159986e+000 1.968806e+000
12624543750 -3.764477e+000 3.460205e+001 -6.543758e+001 -6.239848e+001 -6.444926e+001 9.852916e+001 -5.173183e+000 9.821072e-001
12643287500 -3.775218e+000 3.400111e+001 -6.492162e+001 -5.014304e+001 -6.484029e+001 8.404275e+001 -5.184398e+000 3.826690e-002
12662031250 -3.782179e+000 3.340816e+001 -6.483520e+001 -3.762899e+001 -6.493285e+001 6.879778e+001 -5.202871e+000 -9.346338e-001
12680775000 -3.786776e+000 3.281419e+001 -6.503303e+001 -2.297667e+001 -6.508156e+001 4.718710e+001 -5.219244e+000 -1.907964e+000
12699518750 -3.797341e+000 3.224812e+001 -6.512331e+001 -1.208705e+000 -6.438905e+001 2.641523e+001 -5.228090e+000 -2.873990e+000
12718262500 -3.805261e+000 3.162835e+001 -6.508321e+001 1.625463e+001 -6.466376e+001 1.176201e+001 -5.243753e+000 -3.823077e+000
12737006250 -3.812195e+000 3.104882e+001 -6.526441e+001 3.306980e+001 -6.496087e+001 -3.641898e+000 -5.258874e+000 -4.802143e+000
12755750000 -3.824325e+000 3.047422e+001 -6.499802e+001 5.469167e+001 -6.518757e+001 -2.176356e+001 -5.267593e+000 -5.757088e+000
12774493750 -3.832387e+000 2.985171e+001 -6.501243e+001 7.883719e+001 -6.517004e+001 -3.728647e+001 -5.284033e+000 -6.713558e+000
12793237500 -3.838132e+000 2.926012e+001 -6.521625e+001 9.792368e+001 -6.514883e+001 -5.370933e+001 -5.297348e+000 -7.713365e+000
12811981250 -3.850441e+000 2.867521e+001 -6.568526e+001 1.069194e+002 -6.505830e+001 -7.378886e+001 -5.303194e+000 -8.677098e+000
12830725000 -3.858974e+000 2.804438e+001 -6.515400e+001 1.165301e+002 -6.544417e+001 -8.982485e+001 -5.317509e+000 -9.644691e+000
12849468750 -3.866659e+000 2.746199e+001 -6.516113e+001 1.282935e+002 -6.528452e+001 -1.118373e+002 -5.328683e+000 -1.061383e+001
12868212500 -3.876625e+000 2.687995e+001 -6.464713e+001 1.432011e+002 -6.526311e+001 -1.296191e+002 -5.336342e+000 -1.157160e+001
12886956250 -3.884456e+000 2.625121e+001 -6.462211e+001 1.514317e+002 -6.538813e+001 -1.424881e+002 -5.352372e+000 -1.252359e+001
12905700000 -3.890021e+000 2.568554e+001 -6.480438e+001 1.516952e+002 -6.537671e+001 -1.551088e+002 -5.362772e+000 -1.352497e+001
12924443750 -3.902071e+000 2.509126e+001 -6.471487e+001 1.504429e+002 -6.543897e+001 -1.680533e+002 -5.370649e+000 -1.450860e+001
12943187500 -3.906251e+000 2.447872e+001 -6.460132e+001 1.577057e+002 -6.527093e+001 1.792191e+002 -5.383257e+000 -1.546295e+001
12961931250 -3.913966e+000 2.392160e+001 -6.440849e+001 1.576341e+002 -6.498384e+001 1.748027e+002 -5.388309e+000 -1.644954e+001
12980675000 -3.927475e+000 2.331651e+001 -6.412232e+001 1.558423e+002 -6.481867e+001 1.673990e+002 -5.394567e+000 -1.740524e+001
12999418750 -3.930395e+000 2.269104e+001 -6.366435e+001 1.545760e+002 -6.477714e+001 1.637361e+002 -5.405186e+000 -1.833564e+001
13018162500 -3.935714e+000 2.212356e+001 -6.321499e+001 1.539888e+002 -6.462831e+001 1.664842e+002 -5.412727e+000 -1.931856e+001
13036906250 -3.949435e+000 2.152380e+001 -6.292226e+001 1.503930e+002 -6.433450e+001 1.666494e+002 -5.415847e+000 -2.028091e+001
13055650000 -3.956988e+000 2.087923e+001 -6.316572e+001 1.533727e+002 -6.378631e+001 1.684687e+002 -5.425554e+000 -2.122001e+001
13074393750 -3.963308e+000 2.031694e+001 -6.283805e+001 1.528288e+002 -6.312761e+001 1.686002e+002 -5.429456e+000 -2.218692e+001
13093137500 -3.978037e+000 1.971012e+001 -6.318621e+001 1.527061e+002 -6.298648e+001 1.681193e+002 -5.434685e+000 -2.313092e+001
13111881250 -3.989070e+000 1.908183e+001 -6.297683e+001 1.519371e+002 -6.263348e+001 1.679261e+002 -5.441223e+000 -2.407239e+001
13130625000 -3.994491e+000 1.849468e+001 -6.311786e+001 1.440313e+002 -6.219378e+001 1.682624e+002 -5.444698e+000 -2.505159e+001
13149368750 -4.005482e+000 1.791783e+001 -6.301307e+001 1.444695e+002 -6.182019e+001 1.658151e+002 -5.448142e+000 -2.601354e+001
13168112500 -4.013895e+000 1.730399e+001 -6.279232e+001 1.422520e+002 -6.200666e+001 1.642342e+002 -5.450091e+000 -2.694981e+001
13186856250 -4.018891e+000 1.673078e+001 -6.264638e+001 1.419013e+002 -6.157877e+001 1.638321e+002 -5.452775e+000 -2.790251e+001
13205600000 -4.031241e+000 1.614734e+001 -6.256403e+001 1.437730e+002 -6.070741e+001 1.661947e+002 -5.457891e+000 -2.884272e+001
13224343750 -4.039872e+000 1.552389e+001 -6.212833e+001 1.428857e+002 -6.067679e+001 1.653882e+002 -5.461729e+000 -2.976971e+001
13243087500 -4.043569e+000 1.494732e+001 -6.099216e+001 1.496837e+002 -6.082720e+001 1.682591e+002 -5.464380e+000 -3.073641e+001
13261831250 -4.053853e+000 1.434588e+001 -6.088398e+001 1.499699e+002 -6.021913e+001 1.651142e+002 -5.465501e+000 -3.166651e+001
13280575000 -4.060933e+000 1.373555e+001 -6.030745e+001 1.521300e+002 -6.000095e+001 1.617575e+002 -5.466564e+000 -3.260781e+001
13299318750 -4.066883e+000 1.315224e+001 -6.028323e+001 1.473616e+002 -6.025254e+001 1.611824e+002 -5.467717e+000 -3.355198e+001
13318062500 -4.079103e+000 1.255386e+001 -5.986920e+001 1.447423e+002 -5.971684e+001 1.570470e+002 -5.466840e+000 -3.446283e+001
13336806250 -4.086698e+000 1.193771e+001 -5.953853e+001 1.427704e+002 -5.938840e+001 1.548061e+002 -5.467987e+000 -3.539200e+001
13355550000 -4.093352e+000 1.134388e+001 -5.922340e+001 1.432690e+002 -5.910111e+001 1.535325e+002 -5.466711e+000 -3.632643e+001
13374293750 -4.105061e+000 1.076579e+001 -5.863082e+001 1.368011e+002 -5.902614e+001 1.523026e+002 -5.464724e+000 -3.724714e+001
13393037500 -4.110970e+000 1.016814e+001 -5.832644e+001 1.351842e+002 -5.885003e+001 1.474602e+002 -5.466400e+000 -3.816801e+001
13411781250 -4.118546e+000 9.603878e+000 -5.815208e+001 1.323330e+002 -5.839544e+001 1.476724e+002 -5.464224e+000 -3.907856e+001
13430525000 -4.130025e+000 9.000739e+000 -5.819621e+001 1.309555e+002 -5.787440e+001 1.441185e+002 -5.463744e+000 -3.999918e+001
13449268750 -4.134525e+000 8.396601e+000 -5.800739e+001 1.267317e+002 -5.769331e+001 1.407784e+002 -5.466333e+000 -4.093124e+001
13468012500 -4.139175e+000 7.835512e+000 -5.775950e+001 1.252269e+002 -5.759282e+001 1.390089e+002 -5.463308e+000 -4.186932e+001
13486756250 -4.148487e+000 7.243697e+000 -5.696319e+001 1.220647e+002 -5.722921e+001 1.350088e+002 -5.460033e+000 -4.278323e+001
13505500000 -4.150917e+000 6.666347e+000 -5.680737e+001 1.209548e+002 -5.709111e+001 1.330778e+002 -5.460116e+000 -4.371787e+001
13524243750 -4.157497e+000 6.109074e+000 -5.607009e+001 1.189312e+002 -5.693693e+001 1.309861e+002 -5.455476e+000 -4.464731e+001
13542987500 -4.169033e+000 5.504997e+000 -5.563810e+001 1.187688e+002 -5.671731e+001 1.287568e+002 -5.450615e+000 -4.555088e+001
13561731250 -4.171242e+000 4.884366e+000 -5.523460e+001 1.229163e+002 -5.670922e+001 1.271595e+002 -5.451525e+000 -4.647182e+001
13580475000 -4.178518e+000 4.316532e+000 -5.487476e+001 1.208375e+002 -5.625817e+001 1.256571e+002 -5.444461e+000 -4.740316e+001
13599218750 -4.186498e+000 3.705568e+000 -5.462114e+001 1.184190e+002 -5.565863e+001 1.234060e+002 -5.440071e+000 -4.831222e+001
13617962500 -4.187119e+000 3.115740e+000 -5.439751e+001 1.162095e+002 -5.537576e+001 1.220836e+002 -5.437871e+000 -4.923154e+001
13636706250 -4.195200e+000 2.572279e+000 -5.409743e+001 1.132094e+002 -5.528822e+001 1.185945e+002 -5.429996e+000 -5.014769e+001
13655450000 -4.207747e+000 1.962624e+000 -5.392598e+001 1.111459e+002 -5.474486e+001 1.150443e+002 -5.425056e+000 -5.104499e+001
13674193750 -4.210685e+000 1.368218e+000 -5.423620e+001 1.077088e+002 -5.470145e+001 1.100062e+002 -5.422865e+000 -5.196678e+001
13692937500 -4.218123e+000 8.206810e-001 -5.409180e+001 1.045639e+002 -5.449524e+001 1.057951e+002 -5.415745e+000 -5.289067e+001
13711681250 -4.227439e+000 2.196155e-001 -5.407834e+001 1.030316e+002 -5.449608e+001 1.036248e+002 -5.410766e+000 -5.378819e+001
13730425000 -4.227035e+000 -3.441901e-001 -5.389679e+001 1.036764e+002 -5.422784e+001 1.009876e+002 -5.405486e+000 -5.470967e+001
13749168750 -4.235635e+000 -8.882330e-001 -5.403983e+001 1.008113e+002 -5.424844e+001 9.637296e+001 -5.400927e+000 -5.562487e+001
13767912500 -4.246358e+000 -1.508547e+000 -5.397149e+001 9.921968e+001 -5.424036e+001 9.597865e+001 -5.395286e+000 -5.651476e+001
13786656250 -4.244065e+000 -2.075592e+000 -5.398453e+001 9.630632e+001 -5.433375e+001 9.332116e+001 -5.391635e+000 -5.743000e+001
13805400000 -4.253940e+000 -2.649871e+000 -5.401846e+001 9.575954e+001 -5.430247e+001 9.401287e+001 -5.383148e+000 -5.834777e+001
13824143750 -4.261433e+000 -3.263325e+000 -5.426249e+001 9.248572e+001 -5.492751e+001 9.025141e+001 -5.377122e+000 -5.925551e+001
13842887500 -4.258476e+000 -3.823815e+000 -5.462239e+001 9.141777e+001 -5.521467e+001 8.834854e+001 -5.369910e+000 -6.019093e+001
13861631250 -4.268975e+000 -4.369437e+000 -5.465487e+001 9.008120e+001 -5.548363e+001 8.725510e+001 -5.359826e+000 -6.111021e+001
13880375000 -4.275844e+000 -4.966831e+000 -5.468830e+001 9.072640e+001 -5.599874e+001 8.732622e+001 -5.350278e+000 -6.202182e+001
13899118750 -4.276275e+000 -5.550176e+000 -5.489318e+001 9.020271e+001 -5.626505e+001 8.611561e+001 -5.345131e+000 -6.294382e+001
13917862500 -4.286251e+000 -6.094742e+000 -5.522351e+001 8.960532e+001 -5.639328e+001 8.265096e+001 -5.334116e+000 -6.385961e+001
13936606250 -4.288889e+000 -6.711545e+000 -5.558352e+001 8.971087e+001 -5.665041e+001 8.100677e+001 -5.327737e+000 -6.477705e+001
13955350000 -4.288578e+000 -7.251831e+000 -5.560877e+001 8.862142e+001 -5.670716e+001 8.095501e+001 -5.317977e+000 -6.571114e+001
13974093750 -4.296463e+000 -7.787067e+000 -5.605062e+001 8.688261e+001 -5.687584e+001 7.943341e+001 -5.309110e+000 -6.663258e+001
13992837500 -4.300734e+000 -8.376572e+000 -5.617359e+001 8.758063e+001 -5.703931e+001 7.906647e+001 -5.301381e+000 -6.755474e+001
14011581250 -4.300507e+000 -8.939676e+000 -5.620047e+001 8.762601e+001 -5.728448e+001 7.897879e+001 -5.293938e+000 -6.849151e+001
14030325000 -4.309245e+000 -9.495275e+000 -5.693892e+001 8.814225e+001 -5.760061e+001 8.048487e+001 -5.283201e+000 -6.942104e+001
14049068750 -4.308448e+000 -1.010174e+001 -5.725495e+001 8.820255e+001 -5.776805e+001 7.980477e+001 -5.274932e+000 -7.035625e+001
14067812500 -4.306358e+000 -1.064912e+001 -5.722364e+001 8.778923e+001 -5.806228e+001 7.913452e+001 -5.264220e+000 -7.130598e+001
14086556250 -4.311896e+000 -1.120116e+001 -5.733769e+001 8.744926e+001 -5.831144e+001 7.988076e+001 -5.253911e+000 -7.224012e+001
14105300000 -4.310844e+000 -1.181127e+001 -5.727458e+001 8.783128e+001 -5.790467e+001 8.133710e+001 -5.247947e+000 -7.317870e+001
14124043750 -4.312184e+000 -1.236269e+001 -5.743058e+001 8.668890e+001 -5.818687e+001 8.217925e+001 -5.237272e+000 -7.413876e+001
14142787500 -4.317007e+000 -1.294413e+001 -5.735280e+001 8.614989e+001 -5.827005e+001 8.454556e+001 -5.226484e+000 -7.509618e+001
14161531250 -4.313958e+000 -1.356029e+001 -5.742136e+001 8.729142e+001 -5.833287e+001 8.510612e+001 -5.217669e+000 -7.603712e+001
14180275000 -4.311072e+000 -1.409058e+001 -5.747043e+001 8.922279e+001 -5.838148e+001 8.654082e+001 -5.202996e+000 -7.700255e+001
14199018750 -4.314787e+000 -1.465510e+001 -5.756343e+001 9.001393e+001 -5.824471e+001 8.698839e+001 -5.192649e+000 -7.796381e+001
14217762500 -4.312688e+000 -1.526854e+001 -5.767343e+001 9.176979e+001 -5.821359e+001 8.861490e+001 -5.184823e+000 -7.892203e+001
14236506250 -4.311462e+000 -1.581506e+001 -5.773598e+001 9.176763e+001 -5.821559e+001 8.472021e+001 -5.175060e+000 -7.990584e+001
14255250000 -4.312138e+000 -1.642379e+001 -5.758694e+001 9.282172e+001 -5.767871e+001 8.768624e+001 -5.167898e+000 -8.088284e+001
14273993750 -4.304666e+000 -1.702293e+001 -5.734296e+001 9.409967e+001 -5.741891e+001 8.895615e+001 -5.162213e+000 -8.185442e+001
14292737500 -4.303448e+000 -1.755966e+001 -5.730348e+001 9.576852e+001 -5.749247e+001 8.974144e+001 -5.153863e+000 -8.283467e+001
14311481250 -4.306693e+000 -1.816081e+001 -5.738805e+001 9.476392e+001 -5.704359e+001 8.917215e+001 -5.148806e+000 -8.380251e+001
14330225000 -4.299605e+000 -1.874122e+001 -5.726996e+001 9.362477e+001 -5.672839e+001 9.061923e+001 -5.144860e+000 -8.479743e+001
14348968750 -4.296992e+000 -1.931704e+001 -5.698470e+001 9.387283e+001 -5.661525e+001 9.269834e+001 -5.138234e+000 -8.580740e+001
14367712500 -4.298188e+000 -1.993412e+001 -5.678619e+001 9.205921e+001 -5.645810e+001 9.403333e+001 -5.132572e+000 -8.679078e+001
14386456250 -4.289623e+000 -2.054866e+001 -5.688385e+001 9.240779e+001 -5.657619e+001 9.412872e+001 -5.126836e+000 -8.777585e+001
14405200000 -4.286809e+000 -2.112360e+001 -5.662036e+001 9.434457e+001 -5.651629e+001 9.529567e+001 -5.122404e+000 -8.877647e+001
14423943750 -4.284564e+000 -2.172422e+001 -5.683048e+001 9.216088e+001 -5.656353e+001 9.397013e+001 -5.120487e+000 -8.976256e+001
14442687500 -4.277761e+000 -2.231315e+001 -5.683745e+001 9.085683e+001 -5.631631e+001 9.285838e+001 -5.118280e+000 -9.075915e+001
14461431250 -4.275946e+000 -2.290285e+001 -5.616005e+001 8.952695e+001 -5.604814e+001 9.213405e+001 -5.115868e+000 -9.177407e+001
14480175000 -4.274429e+000 -2.353907e+001 -5.586459e+001 8.980078e+001 -5.589405e+001 9.252608e+001 -5.113751e+000 -9.277924e+001
14498918750 -4.266263e+000 -2.413474e+001 -5.579688e+001 8.929001e+001 -5.579735e+001 9.309667e+001 -5.110053e+000 -9.378091e+001
14517662500 -4.262647e+000 -2.472820e+001 -5.562704e+001 9.005037e+001 -5.558266e+001 9.246352e+001 -5.108371e+000 -9.479202e+001
14536406250 -4.258490e+000 -2.533579e+001 -5.540701e+001 9.086378e+001 -5.577384e+001 9.283662e+001 -5.109335e+000 -9.578806e+001
14555150000 -4.251152e+000 -2.591479e+001 -5.526670e+001 9.240540e+001 -5.546777e+001 9.339040e+001 -5.109993e+000 -9.679857e+001
14573893750 -4.248396e+000 -2.650754e+001 -5.518578e+001 9.129087e+001 -5.527205e+001 9.173797e+001 -5.109247e+000 -9.780697e+001
14592637500 -4.244177e+000 -2.714514e+001 -5.508085e+001 9.078889e+001 -5.499302e+001 9.228213e+001 -5.111295e+000 -9.879844e+001
14611381250 -4.237846e+000 -2.774700e+001 -5.489633e+001 9.064448e+001 -5.478989e+001 9.227974e+001 -5.110233e+000 -9.979961e+001
14630125000 -4.232505e+000 -2.834176e+001 -5.470822e+001 9.052719e+001 -5.466380e+001 9.165533e+001 -5.112580e+000 -1.007814e+002
14648868750 -4.225985e+000 -2.895764e+001 -5.449258e+001 8.917313e+001 -5.463839e+001 9.027370e+001 -5.115713e+000 -1.017646e+002
14667612500 -4.219975e+000 -2.955704e+001 -5.431840e+001 8.788852e+001 -5.444563e+001 9.214827e+001 -5.117743e+000 -1.027681e+002
14686356250 -4.220949e+000 -3.016533e+001 -5.416887e+001 8.877619e+001 -5.423828e+001 9.217722e+001 -5.118397e+000 -1.037647e+002
14705100000 -4.218073e+000 -3.082047e+001 -5.389424e+001 8.718684e+001 -5.420115e+001 9.158142e+001 -5.121165e+000 -1.047556e+002
14723843750 -4.211721e+000 -3.142048e+001 -5.370828e+001 8.599876e+001 -5.396656e+001 9.166468e+001 -5.121048e+000 -1.057621e+002
14742587500 -4.207840e+000 -3.204171e+001 -5.344219e+001 8.567048e+001 -5.374799e+001 9.055729e+001 -5.123840e+000 -1.067503e+002
14761331250 -4.203406e+000 -3.266354e+001 -5.331258e+001 8.585026e+001 -5.373083e+001 8.932171e+001 -5.124626e+000 -1.077244e+002
14780075000 -4.200451e+000 -3.326639e+001 -5.320070e+001 8.514750e+001 -5.363346e+001 8.905801e+001 -5.129345e+000 -1.087146e+002
14798818750 -4.200849e+000 -3.389517e+001 -5.301923e+001 8.509293e+001 -5.341082e+001 8.791377e+001 -5.129467e+000 -1.097041e+002
14817562500 -4.195797e+000 -3.452862e+001 -5.273350e+001 8.364510e+001 -5.312491e+001 8.690202e+001 -5.132026e+000 -1.106805e+002
14836306250 -4.194084e+000 -3.514542e+001 -5.259845e+001 8.234983e+001 -5.302179e+001 8.699952e+001 -5.133370e+000 -1.116726e+002
14855050000 -4.193141e+000 -3.579559e+001 -5.208724e+001 8.187560e+001 -5.276954e+001 8.712618e+001 -5.133749e+000 -1.126498e+002
14873793750 -4.189957e+000 -3.643497e+001 -5.188895e+001 8.128785e+001 -5.279809e+001 8.653857e+001 -5.134514e+000 -1.136271e+002
14892537500 -4.188682e+000 -3.704836e+001 -5.162631e+001 8.067519e+001 -5.263408e+001 8.572206e+001 -5.136882e+000 -1.146114e+002
14911281250 -4.189764e+000 -3.768592e+001 -5.143489e+001 7.958260e+001 -5.248446e+001 8.498630e+001 -5.137784e+000 -1.155758e+002
14930025000 -4.184982e+000 -3.834192e+001 -5.130332e+001 7.926969e+001 -5.215447e+001 8.454575e+001 -5.141203e+000 -1.165421e+002
14948768750 -4.183928e+000 -3.894706e+001 -5.135400e+001 7.902040e+001 -5.214201e+001 8.375618e+001 -5.142784e+000 -1.175114e+002
14967512500 -4.183183e+000 -3.960150e+001 -5.126406e+001 7.790800e+001 -5.178328e+001 8.215342e+001 -5.142137e+000 -1.184710e+002
14986256250 -4.180799e+000 -4.027650e+001 -5.107481e+001 7.656254e+001 -5.165366e+001 8.052919e+001 -5.143986e+000 -1.194409e+002
15005000000 -4.177050e+000 -4.089947e+001 -5.102494e+001 7.543732e+001 -5.149278e+001 7.969711e+001 -5.142566e+000 -1.204068e+002
15023743750 -4.184368e+000 -4.153687e+001 -5.096585e+001 7.403271e+001 -5.142115e+001 7.779229e+001 -5.141350e+000 -1.213583e+002
15042487500 -4.180299e+000 -4.220804e+001 -5.086095e+001 7.183669e+001 -5.139985e+001 7.717308e+001 -5.144969e+000 -1.223330e+002
15061231250 -4.176344e+000 -4.282928e+001 -5.074858e+001 7.059735e+001 -5.129296e+001 7.566390e+001 -5.143851e+000 -1.233009e+002
15079975000 -4.186632e+000 -4.348025e+001 -5.069681e+001 6.956070e+001 -5.123172e+001 7.530114e+001 -5.141626e+000 -1.242578e+002
15098718750 -4.181987e+000 -4.412208e+001 -5.049557e+001 6.967366e+001 -5.109574e+001 7.350724e+001 -5.143212e+000 -1.252227e+002
15117462500 -4.181864e+000 -4.471933e+001 -5.036183e+001 6.804668e+001 -5.105093e+001 7.235538e+001 -5.140049e+000 -1.261817e+002
15136206250 -4.189551e+000 -4.537449e+001 -5.025625e+001 6.675291e+001 -5.083120e+001 7.154804e+001 -5.138024e+000 -1.271077e+002
15154950000 -4.181317e+000 -4.601499e+001 -5.027181e+001 6.541423e+001 -5.081425e+001 6.931866e+001 -5.140561e+000 -1.280535e+002
15173693750 -4.183556e+000 -4.659874e+001 -5.022198e+001 6.371053e+001 -5.080615e+001 6.766960e+001 -5.139617e+000 -1.290103e+002
15192437500 -4.192378e+000 -4.725723e+001 -5.015422e+001 6.227026e+001 -5.058440e+001 6.650270e+001 -5.138566e+000 -1.299473e+002
15211181250 -4.187072e+000 -4.787276e+001 -5.012996e+001 6.116971e+001 -5.063464e+001 6.455220e+001 -5.137857e+000 -1.308982e+002
15229925000 -4.192584e+000 -4.847772e+001 -5.005643e+001 6.016522e+001 -5.067095e+001 6.381213e+001 -5.137082e+000 -1.318306e+002
15248668750 -4.197962e+000 -4.914864e+001 -5.000959e+001 5.899202e+001 -5.061064e+001 6.275768e+001 -5.137422e+000 -1.327553e+002
15267412500 -4.188308e+000 -4.974917e+001 -4.988108e+001 5.746622e+001 -5.054937e+001 6.105328e+001 -5.139844e+000 -1.337026e+002
15286156250 -4.195857e+000 -5.032420e+001 -4.991928e+001 5.651078e+001 -5.041030e+001 5.924046e+001 -5.139286e+000 -1.346372e+002
15304900000 -4.199413e+000 -5.095319e+001 -4.996285e+001 5.462929e+001 -5.033877e+001 5.864295e+001 -5.139744e+000 -1.355740e+002
15323643750 -4.194083e+000 -5.155229e+001 -5.003191e+001 5.352840e+001 -5.036949e+001 5.660453e+001 -5.139226e+000 -1.365149e+002
15342387500 -4.203623e+000 -5.214790e+001 -5.011562e+001 5.247499e+001 -5.045073e+001 5.564914e+001 -5.136123e+000 -1.374380e+002
15361131250 -4.205698e+000 -5.280400e+001 -5.023368e+001 5.129960e+001 -5.042388e+001 5.388062e+001 -5.135123e+000 -1.383595e+002
15379875000 -4.198326e+000 -5.340703e+001 -5.013535e+001 4.902777e+001 -5.025713e+001 5.254500e+001 -5.135236e+000 -1.393071e+002
15398618750 -4.210297e+000 -5.398196e+001 -5.022209e+001 4.720130e+001 -5.012296e+001 5.065164e+001 -5.134662e+000 -1.402364e+002
15417362500 -4.210781e+000 -5.459579e+001 -5.017420e+001 4.525287e+001 -5.005078e+001 5.010210e+001 -5.135490e+000 -1.411635e+002
15436106250 -4.213176e+000 -5.518001e+001 -5.015545e+001 4.454205e+001 -5.003030e+001 4.891174e+001 -5.137640e+000 -1.421067e+002
15454850000 -4.219265e+000 -5.580667e+001 -5.002271e+001 4.327281e+001 -4.999840e+001 4.789872e+001 -5.137531e+000 -1.430562e+002
15473593750 -4.218565e+000 -5.641815e+001 -5.009445e+001 4.222390e+001 -5.001473e+001 4.576946e+001 -5.137482e+000 -1.439861e+002
15492337500 -4.218980e+000 -5.700471e+001 -5.019884e+001 4.067806e+001 -4.991135e+001 4.374076e+001 -5.140094e+000 -1.449327e+002
15511081250 -4.222387e+000 -5.760149e+001 -5.011627e+001 3.876671e+001 -4.986896e+001 4.150582e+001 -5.141930e+000 -1.458798e+002
15529825000 -4.223571e+000 -5.820428e+001 -5.012987e+001 3.591261e+001 -4.986789e+001 4.041954e+001 -5.142658e+000 -1.468203e+002
15548568750 -4.225282e+000 -5.880429e+001 -5.018066e+001 3.447469e+001 -4.980330e+001 3.809369e+001 -5.145296e+000 -1.477467e+002
15567312500 -4.229313e+000 -5.940289e+001 -5.017339e+001 3.340128e+001 -4.990615e+001 3.542541e+001 -5.148310e+000 -1.486966e+002
15586056250 -4.231438e+000 -6.003370e+001 -5.007356e+001 3.121679e+001 -4.989135e+001 3.404617e+001 -5.151221e+000 -1.496354e+002
15604800000 -4.230334e+000 -6.064051e+001 -5.012524e+001 2.953142e+001 -4.988884e+001 3.226891e+001 -5.153092e+000 -1.505740e+002
15623543750 -4.231931e+000 -6.122060e+001 -5.017020e+001 2.717845e+001 -4.987799e+001 3.052993e+001 -5.157466e+000 -1.515301e+002
15642287500 -4.232851e+000 -6.182883e+001 -5.026233e+001 2.478336e+001 -4.974583e+001 2.882803e+001 -5.161110e+000 -1.524948e+002
15661031250 -4.232911e+000 -6.239515e+001 -5.029388e+001 2.238868e+001 -4.973589e+001 2.655921e+001 -5.163114e+000 -1.534450e+002
15679775000 -4.236215e+000 -6.298321e+001 -5.027206e+001 2.035300e+001 -4.971827e+001 2.481875e+001 -5.167965e+000 -1.543983e+002
15698518750 -4.237000e+000 -6.359895e+001 -5.056434e+001 1.917570e+001 -4.975051e+001 2.132474e+001 -5.173486e+000 -1.553393e+002
15717262500 -4.234149e+000 -6.419158e+001 -5.063500e+001 1.805907e+001 -4.995309e+001 2.038789e+001 -5.179144e+000 -1.562889e+002
15736006250 -4.236270e+000 -6.477267e+001 -5.068215e+001 1.679209e+001 -5.002186e+001 1.800700e+001 -5.188841e+000 -1.572503e+002
15754750000 -4.237116e+000 -6.535455e+001 -5.073065e+001 1.402716e+001 -5.006758e+001 1.732421e+001 -5.197093e+000 -1.582251e+002
15773493750 -4.238138e+000 -6.592448e+001 -5.074588e+001 1.215817e+001 -5.004363e+001 1.416223e+001 -5.204500e+000 -1.591962e+002
15792237500 -4.242442e+000 -6.650177e+001 -5.094188e+001 1.124758e+001 -5.013356e+001 1.202827e+001 -5.216136e+000 -1.601711e+002
15810981250 -4.244933e+000 -6.709151e+001 -5.107231e+001 8.882415e+000 -5.043714e+001 9.647776e+000 -5.225360e+000 -1.611207e+002
15829725000 -4.239690e+000 -6.765488e+001 -5.124850e+001 7.232656e+000 -5.066233e+001 8.427521e+000 -5.238142e+000 -1.620732e+002
15848468750 -4.242790e+000 -6.820662e+001 -5.153089e+001 4.525446e+000 -5.107678e+001 7.347027e+000 -5.249985e+000 -1.630542e+002
15867212500 -4.243217e+000 -6.880213e+001 -5.179426e+001 2.283700e+000 -5.122187e+001 4.534155e+000 -5.259644e+000 -1.640314e+002
15885956250 -4.243955e+000 -6.933670e+001 -5.203370e+001 1.177080e+000 -5.165700e+001 2.264023e+000 -5.278651e+000 -1.650057e+002
15904700000 -4.245381e+000 -6.992654e+001 -5.234621e+001 -1.662104e+000 -5.196143e+001 6.928869e-001 -5.294083e+000 -1.660163e+002
15923443750 -4.248093e+000 -7.050614e+001 -5.255642e+001 -2.917261e+000 -5.256956e+001 -5.233136e-001 -5.310011e+000 -1.669819e+002
15942187500 -4.244009e+000 -7.103786e+001 -5.296789e+001 -3.733565e+000 -5.279399e+001 -2.083956e+000 -5.337461e+000 -1.679729e+002
15960931250 -4.246199e+000 -7.162097e+001 -5.321249e+001 -3.825371e+000 -5.339757e+001 -7.004246e+000 -5.356591e+000 -1.690107e+002
15979675000 -4.244915e+000 -7.219431e+001 -5.361171e+001 -5.792767e+000 -5.368494e+001 -6.837970e+000 -5.374376e+000 -1.700012e+002
15998418750 -4.242614e+000 -7.273359e+001 -5.405669e+001 -7.500906e+000 -5.394711e+001 -6.273581e+000 -5.402883e+000 -1.709996e+002
16017162500 -4.247180e+000 -7.330040e+001 -5.445372e+001 -8.072948e+000 -5.412054e+001 -6.882337e+000 -5.425568e+000 -1.720584e+002
16035906250 -4.244699e+000 -7.386507e+001 -5.492280e+001 -6.904045e+000 -5.451151e+001 -5.107144e+000 -5.451766e+000 -1.730463e+002
16054650000 -4.244199e+000 -7.440944e+001 -5.522681e+001 -5.161490e+000 -5.497099e+001 -5.697265e+000 -5.486947e+000 -1.740877e+002
16073393750 -4.246724e+000 -7.497842e+001 -5.566103e+001 -4.394656e+000 -5.568244e+001 -7.330342e+000 -5.512711e+000 -1.751586e+002
16092137500 -4.245535e+000 -7.556201e+001 -5.595916e+001 -1.440208e+000 -5.603396e+001 -6.074139e+000 -5.542437e+000 -1.761757e+002
16110881250 -4.243969e+000 -7.611191e+001 -5.629272e+001 1.174909e+000 -5.651011e+001 -5.363057e+000 -5.582323e+000 -1.772502e+002
16129625000 -4.247909e+000 -7.668954e+001 -5.669767e+001 -1.518367e+000 -5.674299e+001 -2.781651e+000 -5.612083e+000 -1.783548e+002
16148368750 -4.245604e+000 -7.724509e+001 -5.711610e+001 -1.658572e+000 -5.690698e+001 -2.773685e+000 -5.651626e+000 -1.793995e+002
16167112500 -4.242542e+000 -7.779094e+001 -5.734546e+001 -8.831374e-002 -5.706103e+001 -1.871858e+000 -5.695944e+000 1.794714e+002
16185856250 -4.246044e+000 -7.837196e+001 -5.783740e+001 5.362020e+000 -5.737973e+001 -2.393693e+000 -5.730869e+000 1.783495e+002
16204600000 -4.241379e+000 -7.894119e+001 -5.828765e+001 7.733377e+000 -5.773230e+001 -1.051957e-001 -5.779090e+000 1.772889e+002
16223343750 -4.239645e+000 -7.949671e+001 -5.821928e+001 7.960045e+000 -5.818685e+001 2.058337e+000 -5.831444e+000 1.761476e+002
16242087500 -4.240736e+000 -8.006569e+001 -5.841021e+001 9.753241e+000 -5.837933e+001 5.172976e+000 -5.878714e+000 1.749860e+002
16260831250 -4.238919e+000 -8.064725e+001 -5.864170e+001 1.187853e+001 -5.893709e+001 4.323711e+000 -5.935653e+000 1.738545e+002
16279575000 -4.235547e+000 -8.121950e+001 -5.882354e+001 1.507319e+001 -5.887708e+001 5.558484e+000 -5.994542e+000 1.726415e+002
16298318750 -4.235980e+000 -8.176818e+001 -5.897586e+001 1.717133e+001 -5.931417e+001 8.411122e+000 -6.051419e+000 1.714598e+002
16317062500 -4.230007e+000 -8.234419e+001 -5.924379e+001 1.708064e+001 -5.917633e+001 1.236410e+001 -6.115018e+000 1.703237e+002
16335806250 -4.228767e+000 -8.289568e+001 -5.910091e+001 1.979807e+001 -5.955307e+001 1.317593e+001 -6.186768e+000 1.691242e+002
16354550000 -4.227339e+000 -8.345232e+001 -5.903202e+001 2.201159e+001 -5.941230e+001 1.496449e+001 -6.255887e+000 1.679061e+002
16373293750 -4.225273e+000 -8.403130e+001 -5.915329e+001 2.303547e+001 -5.964443e+001 1.709008e+001 -6.329282e+000 1.667109e+002
16392037500 -4.224123e+000 -8.457400e+001 -5.914691e+001 2.548250e+001 -5.940203e+001 2.047809e+001 -6.409496e+000 1.654477e+002
16410781250 -4.224524e+000 -8.513602e+001 -5.906315e+001 2.766860e+001 -5.938131e+001 2.007376e+001 -6.487201e+000 1.642123e+002
16429525000 -4.220554e+000 -8.572305e+001 -5.893960e+001 2.942577e+001 -5.964943e+001 1.716182e+001 -6.575437e+000 1.629847e+002
16448268750 -4.214843e+000 -8.627346e+001 -5.883352e+001 2.974581e+001 -5.965096e+001 1.830047e+001 -6.669251e+000 1.617343e+002
16467012500 -4.214608e+000 -8.682980e+001 -5.870743e+001 2.820539e+001 -5.950377e+001 1.662725e+001 -6.767236e+000 1.604680e+002
16485756250 -4.211209e+000 -8.739783e+001 -5.857824e+001 2.741096e+001 -5.941839e+001 1.765481e+001 -6.875583e+000 1.591900e+002
16504500000 -4.207417e+000 -8.794485e+001 -5.833057e+001 2.652663e+001 -5.899637e+001 2.050230e+001 -6.984804e+000 1.578703e+002
16523243750 -4.205530e+000 -8.850151e+001 -5.835347e+001 2.426441e+001 -5.913639e+001 2.075676e+001 -7.097734e+000 1.565724e+002
16541987500 -4.202623e+000 -8.906003e+001 -5.826857e+001 2.265394e+001 -5.973132e+001 1.713676e+001 -7.220218e+000 1.552820e+002
16560731250 -4.199047e+000 -8.959904e+001 -5.787562e+001 2.397101e+001 -5.965343e+001 1.459450e+001 -7.347497e+000 1.539646e+002
16579475000 -4.200144e+000 -9.015993e+001 -5.777198e+001 2.253359e+001 -5.956800e+001 1.460937e+001 -7.483055e+000 1.526620e+002
16598218750 -4.198358e+000 -9.072051e+001 -5.779151e+001 2.150625e+001 -5.991523e+001 1.375309e+001 -7.627376e+000 1.513464e+002
16616962500 -4.196135e+000 -9.126396e+001 -5.756689e+001 1.579305e+001 -5.981421e+001 1.296758e+001 -7.773524e+000 1.499907e+002
16635706250 -4.194066e+000 -9.182769e+001 -5.760917e+001 1.322500e+001 -5.975119e+001 8.187960e+000 -7.924058e+000 1.486620e+002
16654450000 -4.189936e+000 -9.238509e+001 -5.766671e+001 1.255987e+001 -5.958338e+001 4.969728e+000 -8.088199e+000 1.473403e+002
16673193750 -4.188308e+000 -9.292535e+001 -5.793465e+001 1.136945e+001 -5.971434e+001 1.088541e+000 -8.258577e+000 1.460068e+002
16691937500 -4.188089e+000 -9.349638e+001 -5.782659e+001 6.934134e+000 -5.928527e+001 1.653997e+000 -8.436678e+000 1.446799e+002
16710681250 -4.185646e+000 -9.405791e+001 -5.796102e+001 3.797449e+000 -5.948305e+001 -1.399434e+000 -8.629951e+000 1.433426e+002
16729425000 -4.184351e+000 -9.461645e+001 -5.813766e+001 1.007637e+000 -5.923238e+001 -4.484081e+000 -8.825266e+000 1.419805e+002
16748168750 -4.183949e+000 -9.520715e+001 -5.832709e+001 -2.618974e+000 -5.919658e+001 -9.046593e+000 -9.025810e+000 1.406765e+002
16766912500 -4.180407e+000 -9.576720e+001 -5.844948e+001 -7.407201e+000 -5.885981e+001 -1.421485e+001 -9.241134e+000 1.393690e+002
16785656250 -4.180743e+000 -9.633399e+001 -5.846605e+001 -1.247022e+001 -5.879968e+001 -1.764101e+001 -9.462317e+000 1.380709e+002
16804400000 -4.179204e+000 -9.692342e+001 -5.818381e+001 -1.640154e+001 -5.850342e+001 -2.253588e+001 -9.698133e+000 1.367891e+002
16823143750 -4.176332e+000 -9.750437e+001 -5.856940e+001 -2.342183e+001 -5.860027e+001 -2.598153e+001 -9.945602e+000 1.355173e+002
16841887500 -4.176749e+000 -9.806832e+001 -5.869231e+001 -2.600332e+001 -5.884541e+001 -3.005838e+001 -1.019932e+001 1.342211e+002
16860631250 -4.175903e+000 -9.864323e+001 -5.869328e+001 -3.093850e+001 -5.862439e+001 -3.265384e+001 -1.046359e+001 1.330125e+002
16879375000 -4.174812e+000 -9.922027e+001 -5.874820e+001 -3.588256e+001 -5.860970e+001 -3.831598e+001 -1.073804e+001 1.317906e+002
16898118750 -4.176589e+000 -9.979368e+001 -5.870487e+001 -4.118589e+001 -5.888263e+001 -4.374340e+001 -1.102148e+001 1.306266e+002
16916862500 -4.174969e+000 -1.003965e+002 -5.898603e+001 -4.714953e+001 -5.886089e+001 -5.188644e+001 -1.131911e+001 1.295215e+002
16935606250 -4.174166e+000 -1.009712e+002 -5.914732e+001 -5.214651e+001 -5.885785e+001 -5.971083e+001 -1.163360e+001 1.284417e+002
16954350000 -4.175578e+000 -1.015570e+002 -5.883022e+001 -5.779599e+001 -5.891617e+001 -6.736768e+001 -1.195884e+001 1.274057e+002
16973093750 -4.174625e+000 -1.021498e+002 -5.882312e+001 -6.457040e+001 -5.825508e+001 -7.137547e+001 -1.229080e+001 1.264345e+002
16991837500 -4.173408e+000 -1.027245e+002 -5.863384e+001 -7.017203e+001 -5.823908e+001 -7.621602e+001 -1.264581e+001 1.255489e+002
17010581250 -4.172930e+000 -1.033135e+002 -5.845863e+001 -7.733219e+001 -5.815258e+001 -8.454105e+001 -1.301071e+001 1.247274e+002
17029325000 -4.173328e+000 -1.039205e+002 -5.822336e+001 -8.489428e+001 -5.758960e+001 -9.109322e+001 -1.339037e+001 1.240029e+002
17048068750 -4.172633e+000 -1.044900e+002 -5.787292e+001 -9.015413e+001 -5.724473e+001 -9.748052e+001 -1.378533e+001 1.233642e+002
17066812500 -4.176573e+000 -1.050829e+002 -5.732724e+001 -9.710278e+001 -5.685345e+001 -1.013196e+002 -1.418470e+001 1.227946e+002
17085556250 -4.176853e+000 -1.056707e+002 -5.702106e+001 -1.043369e+002 -5.652862e+001 -1.073799e+002 -1.459275e+001 1.224595e+002
17104300000 -4.177010e+000 -1.062403e+002 -5.649533e+001 -1.112664e+002 -5.602172e+001 -1.130099e+002 -1.502199e+001 1.221929e+002
17123043750 -4.181980e+000 -1.068249e+002 -5.606063e+001 -1.161842e+002 -5.586551e+001 -1.201374e+002 -1.544871e+001 1.221459e+002
17141787500 -4.181647e+000 -1.074091e+002 -5.548959e+001 -1.219443e+002 -5.546037e+001 -1.268517e+002 -1.589299e+001 1.222818e+002
17160531250 -4.183797e+000 -1.079793e+002 -5.475868e+001 -1.281214e+002 -5.510210e+001 -1.324550e+002 -1.634494e+001 1.224908e+002
17179275000 -4.188509e+000 -1.085732e+002 -5.409045e+001 -1.320139e+002 -5.476979e+001 -1.380701e+002 -1.678318e+001 1.229164e+002
17198018750 -4.191050e+000 -1.091592e+002 -5.368655e+001 -1.357770e+002 -5.426973e+001 -1.410556e+002 -1.722812e+001 1.236114e+002
17216762500 -4.191943e+000 -1.097418e+002 -5.332798e+001 -1.407460e+002 -5.381946e+001 -1.462265e+002 -1.767125e+001 1.244521e+002
17235506250 -4.197979e+000 -1.103448e+002 -5.294702e+001 -1.455883e+002 -5.339751e+001 -1.502011e+002 -1.809324e+001 1.254837e+002
17254250000 -4.197706e+000 -1.109251e+002 -5.207632e+001 -1.485502e+002 -5.274835e+001 -1.541246e+002 -1.852857e+001 1.267470e+002
17272993750 -4.202640e+000 -1.114910e+002 -5.141430e+001 -1.550697e+002 -5.205138e+001 -1.583185e+002 -1.894345e+001 1.280525e+002
17291737500 -4.209041e+000 -1.121108e+002 -5.089771e+001 -1.595136e+002 -5.152932e+001 -1.616086e+002 -1.930072e+001 1.295475e+002
17310481250 -4.211419e+000 -1.126970e+002 -5.032599e+001 -1.627534e+002 -5.104949e+001 -1.651177e+002 -1.965486e+001 1.313024e+002
17329225000 -4.216674e+000 -1.132808e+002 -4.970755e+001 -1.659274e+002 -5.027940e+001 -1.678270e+002 -1.998643e+001 1.331391e+002
17347968750 -4.223283e+000 -1.138952e+002 -4.890658e+001 -1.688937e+002 -4.965218e+001 -1.694076e+002 -2.028611e+001 1.351710e+002
17366712500 -4.224842e+000 -1.144858e+002 -4.818129e+001 -1.722851e+002 -4.910762e+001 -1.716960e+002 -2.058737e+001 1.373194e+002
17385456250 -4.234215e+000 -1.150701e+002 -4.780395e+001 -1.758629e+002 -4.821131e+001 -1.744051e+002 -2.084867e+001 1.392545e+002
17404200000 -4.241896e+000 -1.156956e+002 -4.720531e+001 -1.781659e+002 -4.750291e+001 -1.759153e+002 -2.105662e+001 1.413812e+002
17422943750 -4.246833e+000 -1.163092e+002 -4.678586e+001 1.793436e+002 -4.696214e+001 -1.787116e+002 -2.125032e+001 1.435860e+002
17441687500 -4.256228e+000 -1.169157e+002 -4.615272e+001 1.786734e+002 -4.646262e+001 1.799675e+002 -2.140936e+001 1.457109e+002
17460431250 -4.262027e+000 -1.175288e+002 -4.570966e+001 1.768043e+002 -4.603495e+001 1.776084e+002 -2.153224e+001 1.479928e+002
17479175000 -4.267030e+000 -1.181379e+002 -4.532586e+001 1.745774e+002 -4.562806e+001 1.757730e+002 -2.166056e+001 1.502229e+002
17497918750 -4.275611e+000 -1.187362e+002 -4.488708e+001 1.732258e+002 -4.525694e+001 1.736840e+002 -2.176037e+001 1.522566e+002
17516662500 -4.284058e+000 -1.193802e+002 -4.450095e+001 1.714515e+002 -4.482022e+001 1.724577e+002 -2.182172e+001 1.541942e+002
17535406250 -4.286960e+000 -1.199974e+002 -4.396140e+001 1.699503e+002 -4.434590e+001 1.703253e+002 -2.185432e+001 1.561811e+002
17554150000 -4.297643e+000 -1.206074e+002 -4.352613e+001 1.682740e+002 -4.379347e+001 1.691439e+002 -2.186827e+001 1.579129e+002
17572893750 -4.305678e+000 -1.212366e+002 -4.312194e+001 1.669392e+002 -4.320654e+001 1.675856e+002 -2.185512e+001 1.596672e+002
17591637500 -4.312765e+000 -1.218374e+002 -4.275743e+001 1.655176e+002 -4.271392e+001 1.660186e+002 -2.184989e+001 1.613406e+002
17610381250 -4.328234e+000 -1.224266e+002 -4.225016e+001 1.638354e+002 -4.225502e+001 1.640428e+002 -2.183017e+001 1.626324e+002
17629125000 -4.336083e+000 -1.230725e+002 -4.173198e+001 1.622022e+002 -4.179119e+001 1.626484e+002 -2.178296e+001 1.638056e+002
17647868750 -4.347202e+000 -1.236698e+002 -4.128305e+001 1.610660e+002 -4.136710e+001 1.610928e+002 -2.174416e+001 1.648785e+002
17666612500 -4.360106e+000 -1.242788e+002 -4.081292e+001 1.597397e+002 -4.094011e+001 1.592335e+002 -2.170896e+001 1.657738e+002
17685356250 -4.371273e+000 -1.248924e+002 -4.040548e+001 1.579164e+002 -4.048753e+001 1.575267e+002 -2.165937e+001 1.666651e+002
17704100000 -4.380098e+000 -1.254676e+002 -3.994280e+001 1.564789e+002 -4.004049e+001 1.560368e+002 -2.165748e+001 1.674381e+002
17722843750 -4.400317e+000 -1.260669e+002 -3.945363e+001 1.550263e+002 -3.958167e+001 1.546407e+002 -2.167237e+001 1.679378e+002
17741587500 -4.413002e+000 -1.266965e+002 -3.901505e+001 1.539416e+002 -3.913219e+001 1.530352e+002 -2.169351e+001 1.683903e+002
17760331250 -4.423960e+000 -1.272871e+002 -3.859364e+001 1.526261e+002 -3.867297e+001 1.511182e+002 -2.174475e+001 1.687497e+002
17779075000 -4.442418e+000 -1.278869e+002 -3.814021e+001 1.507889e+002 -3.824276e+001 1.497587e+002 -2.181348e+001 1.690760e+002
17797818750 -4.454876e+000 -1.285150e+002 -3.767290e+001 1.493649e+002 -3.779390e+001 1.483687e+002 -2.189949e+001 1.695367e+002
17816562500 -4.469631e+000 -1.290885e+002 -3.723397e+001 1.477907e+002 -3.732198e+001 1.468222e+002 -2.203668e+001 1.701595e+002
17835306250 -4.494459e+000 -1.297037e+002 -3.682330e+001 1.461679e+002 -3.686507e+001 1.448898e+002 -2.221665e+001 1.706283e+002
17854050000 -4.509091e+000 -1.303426e+002 -3.638618e+001 1.447308e+002 -3.638326e+001 1.434737e+002 -2.240137e+001 1.712769e+002
17872793750 -4.526079e+000 -1.309177e+002 -3.593677e+001 1.430437e+002 -3.593051e+001 1.419295e+002 -2.261423e+001 1.722155e+002
17891537500 -4.552606e+000 -1.315458e+002 -3.545998e+001 1.416420e+002 -3.546815e+001 1.403297e+002 -2.283613e+001 1.732567e+002
17910281250 -4.566864e+000 -1.321648e+002 -3.499453e+001 1.398530e+002 -3.500909e+001 1.386211e+002 -2.307452e+001 1.747683e+002
17929025000 -4.590536e+000 -1.327281e+002 -3.456105e+001 1.377305e+002 -3.460482e+001 1.369523e+002 -2.333443e+001 1.766652e+002
17947768750 -4.620572e+000 -1.333566e+002 -3.411171e+001 1.359828e+002 -3.416105e+001 1.351995e+002 -2.357151e+001 1.786059e+002
17966512500 -4.642312e+000 -1.340066e+002 -3.366843e+001 1.339530e+002 -3.369653e+001 1.336349e+002 -2.379921e+001 -1.791422e+002
17985256250 -4.665931e+000 -1.345915e+002 -3.324356e+001 1.323111e+002 -3.325694e+001 1.314998e+002 -2.399646e+001 -1.765711e+002
18004000000 -4.694901e+000 -1.352208e+002 -3.279730e+001 1.302199e+002 -3.284014e+001 1.297780e+002 -2.416927e+001 -1.738749e+002
18022743750 -4.713074e+000 -1.358375e+002 -3.235774e+001 1.282519e+002 -3.240714e+001 1.276556e+002 -2.429823e+001 -1.709004e+002
18041487500 -4.739759e+000 -1.364060e+002 -3.195234e+001 1.259282e+002 -3.199837e+001 1.256300e+002 -2.440318e+001 -1.677210e+002
18060231250 -4.775879e+000 -1.370186e+002 -3.155179e+001 1.237141e+002 -3.157875e+001 1.235329e+002 -2.448180e+001 -1.645300e+002
18078975000 -4.797656e+000 -1.376395e+002 -3.112741e+001 1.216023e+002 -3.115957e+001 1.211086e+002 -2.450331e+001 -1.612418e+002
18097718750 -4.829605e+000 -1.382011e+002 -3.074773e+001 1.194305e+002 -3.075138e+001 1.189529e+002 -2.448898e+001 -1.578551e+002
18116462500 -4.860062e+000 -1.388271e+002 -3.033845e+001 1.172787e+002 -3.034952e+001 1.166303e+002 -2.443661e+001 -1.545738e+002
18135206250 -4.884265e+000 -1.394290e+002 -2.994446e+001 1.151597e+002 -2.996198e+001 1.143955e+002 -2.433661e+001 -1.511499e+002
18153950000 -4.917749e+000 -1.399612e+002 -2.957063e+001 1.128622e+002 -2.956938e+001 1.120212e+002 -2.422263e+001 -1.476668e+002
18172693750 -4.952086e+000 -1.405745e+002 -2.919847e+001 1.104523e+002 -2.917641e+001 1.096615e+002 -2.407530e+001 -1.443499e+002
18191437500 -4.979088e+000 -1.411536e+002 -2.881364e+001 1.080322e+002 -2.878748e+001 1.072856e+002 -2.387187e+001 -1.410810e+002
18210181250 -5.013612e+000 -1.416927e+002 -2.843823e+001 1.057046e+002 -2.842101e+001 1.048836e+002 -2.363295e+001 -1.379188e+002
18228925000 -5.049211e+000 -1.422795e+002 -2.807535e+001 1.032298e+002 -2.805981e+001 1.025029e+002 -2.334599e+001 -1.349670e+002
18247668750 -5.078052e+000 -1.427941e+002 -2.770665e+001 1.007554e+002 -2.770992e+001 1.001571e+002 -2.301064e+001 -1.320263e+002
18266412500 -5.117371e+000 -1.432955e+002 -2.735626e+001 9.825240e+001 -2.736217e+001 9.775195e+001 -2.265105e+001 -1.291138e+002
18285156250 -5.155882e+000 -1.438456e+002 -2.701387e+001 9.567743e+001 -2.701931e+001 9.525538e+001 -2.226058e+001 -1.265296e+002
18303900000 -5.188087e+000 -1.443733e+002 -2.666822e+001 9.310591e+001 -2.668423e+001 9.276350e+001 -2.182996e+001 -1.242414e+002
18322643750 -5.227495e+000 -1.448605e+002 -2.633146e+001 9.064120e+001 -2.636460e+001 9.023501e+001 -2.138777e+001 -1.221977e+002
18341387500 -5.264669e+000 -1.453826e+002 -2.600592e+001 8.810899e+001 -2.604055e+001 8.763941e+001 -2.090358e+001 -1.205812e+002
18360131250 -5.299995e+000 -1.458295e+002 -2.568236e+001 8.549834e+001 -2.571008e+001 8.504200e+001 -2.038954e+001 -1.192771e+002
18378875000 -5.345341e+000 -1.462535e+002 -2.536420e+001 8.298727e+001 -2.540406e+001 8.243395e+001 -1.989628e+001 -1.181168e+002
18397618750 -5.388163e+000 -1.467511e+002 -2.505235e+001 8.030241e+001 -2.510590e+001 7.980775e+001 -1.940556e+001 -1.173629e+002
18416362500 -5.424838e+000 -1.472037e+002 -2.474175e+001 7.769798e+001 -2.481369e+001 7.719411e+001 -1.893389e+001 -1.168624e+002
18435106250 -5.468131e+000 -1.476396e+002 -2.445195e+001 7.503481e+001 -2.452435e+001 7.448595e+001 -1.847708e+001 -1.165684e+002
18453850000 -5.510362e+000 -1.480905e+002 -2.416231e+001 7.235229e+001 -2.424083e+001 7.179126e+001 -1.803676e+001 -1.165305e+002
18472593750 -5.549155e+000 -1.484642e+002 -2.387977e+001 6.982327e+001 -2.396415e+001 6.917188e+001 -1.762036e+001 -1.166192e+002
18491337500 -5.596791e+000 -1.488649e+002 -2.360184e+001 6.717397e+001 -2.369208e+001 6.648571e+001 -1.722317e+001 -1.167452e+002
18510081250 -5.642118e+000 -1.492963e+002 -2.333512e+001 6.450024e+001 -2.342673e+001 6.386263e+001 -1.686027e+001 -1.170478e+002
18528825000 -5.684275e+000 -1.496795e+002 -2.307372e+001 6.180420e+001 -2.316892e+001 6.119072e+001 -1.651578e+001 -1.174073e+002
18547568750 -5.730145e+000 -1.500582e+002 -2.282071e+001 5.905863e+001 -2.290394e+001 5.848591e+001 -1.619248e+001 -1.177850e+002
18566312500 -5.770666e+000 -1.504621e+002 -2.257438e+001 5.628080e+001 -2.265121e+001 5.580840e+001 -1.587611e+001 -1.182681e+002
18585056250 -5.810686e+000 -1.507722e+002 -2.233557e+001 5.356654e+001 -2.241472e+001 5.306589e+001 -1.557809e+001 -1.187964e+002
18603800000 -5.860426e+000 -1.511041e+002 -2.210121e+001 5.080212e+001 -2.217181e+001 5.027498e+001 -1.529414e+001 -1.192684e+002
18622543750 -5.902980e+000 -1.514826e+002 -2.186931e+001 4.803671e+001 -2.195200e+001 4.757407e+001 -1.502904e+001 -1.197581e+002
18641287500 -5.942025e+000 -1.517923e+002 -2.165859e+001 4.526204e+001 -2.174295e+001 4.484198e+001 -1.477845e+001 -1.202668e+002
18660031250 -5.984895e+000 -1.521211e+002 -2.144003e+001 4.250376e+001 -2.152515e+001 4.213472e+001 -1.453870e+001 -1.207309e+002
18678775000 -6.015475e+000 -1.524450e+002 -2.122830e+001 3.978126e+001 -2.131280e+001 3.937881e+001 -1.430903e+001 -1.212501e+002
18697518750 -6.049376e+000 -1.526813e+002 -2.103119e+001 3.697927e+001 -2.111199e+001 3.657368e+001 -1.408156e+001 -1.217963e+002
18716262500 -6.088753e+000 -1.529525e+002 -2.082948e+001 3.422228e+001 -2.090859e+001 3.379742e+001 -1.386312e+001 -1.222502e+002
18735006250 -6.120415e+000 -1.532389e+002 -2.064086e+001 3.148459e+001 -2.072727e+001 3.105838e+001 -1.365795e+001 -1.227186e+002
18753750000 -6.150304e+000 -1.534854e+002 -2.045708e+001 2.862183e+001 -2.055140e+001 2.824435e+001 -1.345775e+001 -1.231979e+002
18772493750 -6.181628e+000 -1.537691e+002 -2.027069e+001 2.584869e+001 -2.036468e+001 2.550050e+001 -1.326473e+001 -1.236985e+002
18791237500 -6.199464e+000 -1.540375e+002 -2.010082e+001 2.313079e+001 -2.019838e+001 2.274278e+001 -1.307840e+001 -1.242314e+002
18809981250 -6.221858e+000 -1.542458e+002 -1.993858e+001 2.029034e+001 -2.003166e+001 1.994663e+001 -1.289615e+001 -1.247093e+002
18828725000 -6.245449e+000 -1.544746e+002 -1.977683e+001 1.754781e+001 -1.986392e+001 1.724920e+001 -1.271603e+001 -1.251636e+002
18847468750 -6.261514e+000 -1.547032e+002 -1.962685e+001 1.480770e+001 -1.971828e+001 1.453120e+001 -1.254277e+001 -1.256508e+002
18866212500 -6.279534e+000 -1.549199e+002 -1.947616e+001 1.206541e+001 -1.956711e+001 1.179049e+001 -1.236946e+001 -1.261510e+002
18884956250 -6.292271e+000 -1.551882e+002 -1.933245e+001 9.346461e+000 -1.941722e+001 9.100027e+000 -1.220367e+001 -1.266503e+002
18903700000 -6.295305e+000 -1.554072e+002 -1.920103e+001 6.603595e+000 -1.929193e+001 6.396640e+000 -1.203858e+001 -1.271633e+002
18922443750 -6.304220e+000 -1.555805e+002 -1.906264e+001 3.861681e+000 -1.915552e+001 3.676809e+000 -1.187303e+001 -1.276931e+002
18941187500 -6.311372e+000 -1.558157e+002 -1.893184e+001 1.212746e+000 -1.903229e+001 9.980315e-001 -1.171325e+001 -1.281942e+002
18959931250 -6.310272e+000 -1.560314e+002 -1.881547e+001 -1.493281e+000 -1.891887e+001 -1.713308e+000 -1.155495e+001 -1.287306e+002
18978675000 -6.315202e+000 -1.562577e+002 -1.869745e+001 -4.153563e+000 -1.880413e+001 -4.375808e+000 -1.140109e+001 -1.293048e+002
18997418750 -6.311918e+000 -1.565248e+002 -1.858726e+001 -6.757288e+000 -1.869514e+001 -6.988050e+000 -1.125031e+001 -1.298701e+002
19016162500 -6.300414e+000 -1.567664e+002 -1.848322e+001 -9.446603e+000 -1.859726e+001 -9.621705e+000 -1.109399e+001 -1.304435e+002
19034906250 -6.295327e+000 -1.569960e+002 -1.837823e+001 -1.205812e+001 -1.849649e+001 -1.222362e+001 -1.093914e+001 -1.310149e+002
19053650000 -6.288477e+000 -1.572643e+002 -1.828367e+001 -1.461701e+001 -1.840051e+001 -1.478812e+001 -1.079017e+001 -1.315748e+002
19072393750 -6.279110e+000 -1.575364e+002 -1.819185e+001 -1.724864e+001 -1.830891e+001 -1.737596e+001 -1.064377e+001 -1.321595e+002
19091137500 -6.272618e+000 -1.578307e+002 -1.809662e+001 -1.979677e+001 -1.822027e+001 -1.990918e+001 -1.050261e+001 -1.327948e+002
19109881250 -6.260107e+000 -1.581759e+002 -1.801863e+001 -2.231303e+001 -1.813547e+001 -2.240333e+001 -1.036363e+001 -1.334372e+002
19128625000 -6.244123e+000 -1.584904e+002 -1.793408e+001 -2.487088e+001 -1.805838e+001 -2.489767e+001 -1.022287e+001 -1.340817e+002
19147368750 -6.235035e+000 -1.588144e+002 -1.785105e+001 -2.731889e+001 -1.798173e+001 -2.737508e+001 -1.008786e+001 -1.347788e+002
19166112500 -6.222327e+000 -1.591854e+002 -1.777944e+001 -2.978963e+001 -1.790633e+001 -2.978068e+001 -9.955451e+000 -1.354306e+002
19184856250 -6.208805e+000 -1.595501e+002 -1.770366e+001 -3.225695e+001 -1.783815e+001 -3.223497e+001 -9.828502e+000 -1.361056e+002
19203600000 -6.200976e+000 -1.599583e+002 -1.763367e+001 -3.465223e+001 -1.777529e+001 -3.466811e+001 -9.705386e+000 -1.368123e+002
19222343750 -6.186583e+000 -1.604109e+002 -1.757084e+001 -3.706975e+001 -1.770675e+001 -3.702399e+001 -9.584651e+000 -1.375239e+002
19241087500 -6.167814e+000 -1.608315e+002 -1.750306e+001 -3.944582e+001 -1.764481e+001 -3.937848e+001 -9.467566e+000 -1.382691e+002
19259831250 -6.158536e+000 -1.612775e+002 -1.743744e+001 -4.178167e+001 -1.758795e+001 -4.175307e+001 -9.352232e+000 -1.390097e+002
19278575000 -6.145261e+000 -1.617556e+002 -1.738103e+001 -4.412682e+001 -1.753130e+001 -4.405962e+001 -9.241072e+000 -1.397307e+002
19297318750 -6.135108e+000 -1.622183e+002 -1.731391e+001 -4.645818e+001 -1.747464e+001 -4.634961e+001 -9.137811e+000 -1.404748e+002
19316062500 -6.130627e+000 -1.627347e+002 -1.725313e+001 -4.870775e+001 -1.741971e+001 -4.862590e+001 -9.037114e+000 -1.412597e+002
19334806250 -6.116381e+000 -1.632945e+002 -1.720089e+001 -5.101774e+001 -1.736102e+001 -5.089458e+001 -8.940835e+000 -1.420533e+002
19353550000 -6.104790e+000 -1.638059e+002 -1.713972e+001 -5.326648e+001 -1.730745e+001 -5.313666e+001 -8.849678e+000 -1.428565e+002
19372293750 -6.099519e+000 -1.643570e+002 -1.708705e+001 -5.551001e+001 -1.725150e+001 -5.536750e+001 -8.755723e+000 -1.436492e+002
19391037500 -6.092272e+000 -1.649015e+002 -1.703173e+001 -5.774469e+001 -1.719535e+001 -5.755339e+001 -8.666691e+000 -1.444318e+002
19409781250 -6.090439e+000 -1.654640e+002 -1.697292e+001 -5.993806e+001 -1.714428e+001 -5.972771e+001 -8.583409e+000 -1.452181e+002
19428525000 -6.090954e+000 -1.660738e+002 -1.691636e+001 -6.207833e+001 -1.709046e+001 -6.189251e+001 -8.504723e+000 -1.460343e+002
19447268750 -6.086743e+000 -1.666878e+002 -1.686543e+001 -6.426293e+001 -1.703536e+001 -6.403866e+001 -8.434828e+000 -1.468590e+002
19466012500 -6.085403e+000 -1.672587e+002 -1.681064e+001 -6.638868e+001 -1.698221e+001 -6.617155e+001 -8.362512e+000 -1.476914e+002
19484756250 -6.089212e+000 -1.678730e+002 -1.675594e+001 -6.850018e+001 -1.692904e+001 -6.831911e+001 -8.294123e+000 -1.485268e+002
19503500000 -6.089235e+000 -1.684816e+002 -1.670431e+001 -7.063067e+001 -1.687855e+001 -7.042467e+001 -8.230731e+000 -1.493467e+002
19522243750 -6.099378e+000 -1.690820e+002 -1.664787e+001 -7.272655e+001 -1.682851e+001 -7.250406e+001 -8.170103e+000 -1.501738e+002
19540987500 -6.112531e+000 -1.697495e+002 -1.658947e+001 -7.483722e+001 -1.677537e+001 -7.457990e+001 -8.114142e+000 -1.510161e+002
19559731250 -6.113770e+000 -1.703864e+002 -1.653575e+001 -7.693369e+001 -1.672128e+001 -7.666535e+001 -8.063568e+000 -1.518527e+002
19578475000 -6.126327e+000 -1.709936e+002 -1.647814e+001 -7.902806e+001 -1.666984e+001 -7.871332e+001 -8.013341e+000 -1.526886e+002
19597218750 -6.140242e+000 -1.716179e+002 -1.642448e+001 -8.108961e+001 -1.661403e+001 -8.078075e+001 -7.965309e+000 -1.535460e+002
19615962500 -6.153000e+000 -1.722158e+002 -1.636913e+001 -8.313428e+001 -1.655330e+001 -8.279246e+001 -7.922980e+000 -1.543684e+002
19634706250 -6.177197e+000 -1.728349e+002 -1.631270e+001 -8.519801e+001 -1.649527e+001 -8.480791e+001 -7.879958e+000 -1.552181e+002
19653450000 -6.199022e+000 -1.735141e+002 -1.625820e+001 -8.723426e+001 -1.644116e+001 -8.681841e+001 -7.839649e+000 -1.560705e+002
19672193750 -6.219057e+000 -1.741425e+002 -1.619860e+001 -8.930109e+001 -1.638268e+001 -8.882336e+001 -7.801662e+000 -1.569061e+002
19690937500 -6.246909e+000 -1.747614e+002 -1.613802e+001 -9.130161e+001 -1.632479e+001 -9.083161e+001 -7.766672e+000 -1.577476e+002
19709681250 -6.275693e+000 -1.754140e+002 -1.608086e+001 -9.331924e+001 -1.626179e+001 -9.283386e+001 -7.735420e+000 -1.585827e+002
19728425000 -6.306619e+000 -1.760229e+002 -1.602522e+001 -9.532909e+001 -1.620241e+001 -9.483613e+001 -7.709530e+000 -1.593715e+002
19747168750 -6.348176e+000 -1.766589e+002 -1.596643e+001 -9.733233e+001 -1.614296e+001 -9.684457e+001 -7.686176e+000 -1.601981e+002
19765912500 -6.385463e+000 -1.773420e+002 -1.590614e+001 -9.931144e+001 -1.608112e+001 -9.880305e+001 -7.661521e+000 -1.610174e+002
19784656250 -6.420194e+000 -1.779685e+002 -1.584650e+001 -1.013194e+002 -1.601851e+001 -1.007712e+002 -7.640127e+000 -1.618288e+002
19803400000 -6.456686e+000 -1.785582e+002 -1.578313e+001 -1.033605e+002 -1.595252e+001 -1.027243e+002 -7.623184e+000 -1.626490e+002
19822143750 -6.507740e+000 -1.792155e+002 -1.571990e+001 -1.053098e+002 -1.588351e+001 -1.046484e+002 -7.607709e+000 -1.634533e+002
19840887500 -6.551762e+000 -1.798469e+002 -1.566346e+001 -1.073186e+002 -1.582489e+001 -1.065957e+002 -7.594886e+000 -1.642142e+002
19859631250 -6.605742e+000 1.795706e+002 -1.559659e+001 -1.093848e+002 -1.576803e+001 -1.085871e+002 -7.586429e+000 -1.649686e+002
19878375000 -6.661005e+000 1.789375e+002 -1.553022e+001 -1.113470e+002 -1.569838e+001 -1.105471e+002 -7.577553e+000 -1.657471e+002
19897118750 -6.718158e+000 1.783024e+002 -1.546996e+001 -1.133801e+002 -1.564130e+001 -1.124916e+002 -7.575173e+000 -1.665136e+002
19915862500 -6.773636e+000 1.776831e+002 -1.540924e+001 -1.153913e+002 -1.557341e+001 -1.144895e+002 -7.573290e+000 -1.672800e+002
19934606250 -6.835412e+000 1.771027e+002 -1.533449e+001 -1.173925e+002 -1.550163e+001 -1.164500e+002 -7.571673e+000 -1.679929e+002
19953350000 -6.905737e+000 1.765210e+002 -1.527934e+001 -1.194144e+002 -1.543858e+001 -1.184168e+002 -7.582590e+000 -1.687050e+002
19972093750 -6.973848e+000 1.758904e+002 -1.521617e+001 -1.214163e+002 -1.536373e+001 -1.204086e+002 -7.593762e+000 -1.694023e+002
19990837500 -7.045360e+000 1.752564e+002 -1.514957e+001 -1.233747e+002 -1.529472e+001 -1.223803e+002 -7.597437e+000 -1.701204e+002
20009581250 -7.119884e+000 1.746869e+002 -1.508512e+001 -1.253597e+002 -1.522917e+001 -1.243738e+002 -7.611126e+000 -1.708052e+002
20028325000 -7.194127e+000 1.741068e+002 -1.501502e+001 -1.273489e+002 -1.515780e+001 -1.264016e+002 -7.623833e+000 -1.714956e+002
20047068750 -7.269538e+000 1.735687e+002 -1.495225e+001 -1.293480e+002 -1.509114e+001 -1.283286e+002 -7.636874e+000 -1.721460e+002
20065812500 -7.358355e+000 1.730408e+002 -1.489151e+001 -1.313756e+002 -1.503377e+001 -1.302932e+002 -7.662228e+000 -1.728002e+002
20084556250 -7.446332e+000 1.724953e+002 -1.481778e+001 -1.333995e+002 -1.495078e+001 -1.323120e+002 -7.685913e+000 -1.734604e+002
20103300000 -7.530861e+000 1.719707e+002 -1.474375e+001 -1.353807e+002 -1.488351e+001 -1.343284e+002 -7.706549e+000 -1.740912e+002
20122043750 -7.617663e+000 1.714724e+002 -1.468255e+001 -1.374881e+002 -1.481769e+001 -1.363428e+002 -7.738610e+000 -1.747348e+002
20140787500 -7.705216e+000 1.710223e+002 -1.461467e+001 -1.394962e+002 -1.474487e+001 -1.383746e+002 -7.766373e+000 -1.753713e+002
20159531250 -7.804024e+000 1.706214e+002 -1.455006e+001 -1.415562e+002 -1.467211e+001 -1.403934e+002 -7.792034e+000 -1.759796e+002
20178275000 -7.902977e+000 1.702473e+002 -1.449119e+001 -1.436496e+002 -1.461085e+001 -1.424390e+002 -7.828048e+000 -1.765425e+002
20197018750 -8.005410e+000 1.698519e+002 -1.442146e+001 -1.457050e+002 -1.453957e+001 -1.445029e+002 -7.861527e+000 -1.771176e+002
20215762500 -8.106685e+000 1.694488e+002 -1.436468e+001 -1.477664e+002 -1.447382e+001 -1.464960e+002 -7.892707e+000 -1.776593e+002
20234506250 -8.220665e+000 1.690993e+002 -1.429645e+001 -1.497975e+002 -1.441526e+001 -1.485842e+002 -7.931255e+000 -1.782198e+002
20253250000 -8.314963e+000 1.688059e+002 -1.422893e+001 -1.518661e+002 -1.434791e+001 -1.506542e+002 -7.965356e+000 -1.787656e+002
20271993750 -8.429708e+000 1.686075e+002 -1.416564e+001 -1.539419e+002 -1.428115e+001 -1.527313e+002 -8.004171e+000 -1.792464e+002
20290737500 -8.552866e+000 1.683345e+002 -1.410583e+001 -1.560261e+002 -1.421462e+001 -1.548602e+002 -8.045817e+000 -1.797593e+002
20309481250 -8.666236e+000 1.680452e+002 -1.404347e+001 -1.580934e+002 -1.415023e+001 -1.569261e+002 -8.086198e+000 1.797566e+002
20328225000 -8.776026e+000 1.678595e+002 -1.398627e+001 -1.601822e+002 -1.407589e+001 -1.589961e+002 -8.123080e+000 1.793264e+002
20346968750 -8.890516e+000 1.677267e+002 -1.391747e+001 -1.623266e+002 -1.401647e+001 -1.611113e+002 -8.162417e+000 1.788859e+002
20365712500 -8.997795e+000 1.676416e+002 -1.386638e+001 -1.643435e+002 -1.395204e+001 -1.632334e+002 -8.197030e+000 1.784478e+002
20384456250 -9.110066e+000 1.676662e+002 -1.380112e+001 -1.664480e+002 -1.389014e+001 -1.652990e+002 -8.228919e+000 1.780718e+002
20403200000 -9.238036e+000 1.676858e+002 -1.373324e+001 -1.685607e+002 -1.384427e+001 -1.674443e+002 -8.269937e+000 1.776707e+002
20421943750 -9.356503e+000 1.676972e+002 -1.367992e+001 -1.706696e+002 -1.378021e+001 -1.695290e+002 -8.307898e+000 1.772845e+002
20440687500 -9.463656e+000 1.677517e+002 -1.363008e+001 -1.728385e+002 -1.372639e+001 -1.716522e+002 -8.343007e+000 1.769243e+002
20459431250 -9.573195e+000 1.678508e+002 -1.357535e+001 -1.749878e+002 -1.367515e+001 -1.738130e+002 -8.381200e+000 1.765763e+002
20478175000 -9.678621e+000 1.679891e+002 -1.352787e+001 -1.770988e+002 -1.361601e+001 -1.759556e+002 -8.408861e+000 1.762454e+002
20496918750 -9.783187e+000 1.682736e+002 -1.347724e+001 -1.792800e+002 -1.356208e+001 -1.781101e+002 -8.436671e+000 1.760050e+002
20515662500 -9.896714e+000 1.684907e+002 -1.342401e+001 1.785612e+002 -1.352200e+001 1.796829e+002 -8.469785e+000 1.757470e+002
20534406250 -9.998596e+000 1.686998e+002 -1.339108e+001 1.764312e+002 -1.346548e+001 1.775683e+002 -8.501563e+000 1.754901e+002
20553150000 -1.010057e+001 1.689746e+002 -1.333996e+001 1.742596e+002 -1.342659e+001 1.754217e+002 -8.533523e+000 1.752814e+002
20571893750 -1.019054e+001 1.692423e+002 -1.328996e+001 1.721256e+002 -1.337772e+001 1.732242e+002 -8.559870e+000 1.750421e+002
20590637500 -1.026000e+001 1.695962e+002 -1.325413e+001 1.699913e+002 -1.333055e+001 1.711200e+002 -8.577455e+000 1.748301e+002
20609381250 -1.034358e+001 1.700273e+002 -1.320443e+001 1.678560e+002 -1.328984e+001 1.689749e+002 -8.598281e+000 1.746530e+002
20628125000 -1.043036e+001 1.704386e+002 -1.316165e+001 1.657372e+002 -1.324555e+001 1.668132e+002 -8.620480e+000 1.744396e+002
20646868750 -1.050144e+001 1.708575e+002 -1.312604e+001 1.635840e+002 -1.319946e+001 1.646297e+002 -8.638543e+000 1.742531e+002
20665612500 -1.056425e+001 1.712879e+002 -1.308570e+001 1.613651e+002 -1.316092e+001 1.624662e+002 -8.657329e+000 1.741036e+002
20684356250 -1.061855e+001 1.717191e+002 -1.305658e+001 1.592449e+002 -1.312974e+001 1.603001e+002 -8.672004e+000 1.739112e+002
20703100000 -1.064709e+001 1.722349e+002 -1.302829e+001 1.570568e+002 -1.308663e+001 1.581564e+002 -8.678503e+000 1.737558e+002
20721843750 -1.068942e+001 1.728201e+002 -1.299776e+001 1.549017e+002 -1.305719e+001 1.560172e+002 -8.691941e+000 1.736307e+002
20740587500 -1.073014e+001 1.733308e+002 -1.297066e+001 1.527934e+002 -1.302741e+001 1.538787e+002 -8.702892e+000 1.734746e+002
20759331250 -1.075693e+001 1.738118e+002 -1.294238e+001 1.506134e+002 -1.300224e+001 1.517218e+002 -8.711703e+000 1.732750e+002
20778075000 -1.078613e+001 1.742941e+002 -1.291163e+001 1.484780e+002 -1.297599e+001 1.495562e+002 -8.724338e+000 1.730930e+002
20796818750 -1.079682e+001 1.747104e+002 -1.289227e+001 1.463268e+002 -1.294853e+001 1.474444e+002 -8.728491e+000 1.728853e+002
20815562500 -1.078795e+001 1.751776e+002 -1.286666e+001 1.441685e+002 -1.292758e+001 1.453020e+002 -8.727008e+000 1.726994e+002
20834306250 -1.078993e+001 1.757243e+002 -1.284442e+001 1.420022e+002 -1.289953e+001 1.431309e+002 -8.729784e+000 1.725519e+002
20853050000 -1.078455e+001 1.761906e+002 -1.282690e+001 1.398747e+002 -1.287699e+001 1.409871e+002 -8.736002e+000 1.723769e+002
20871793750 -1.077724e+001 1.766365e+002 -1.280907e+001 1.377340e+002 -1.285328e+001 1.389111e+002 -8.740207e+000 1.721920e+002
20890537500 -1.076949e+001 1.770594e+002 -1.278830e+001 1.356226e+002 -1.283472e+001 1.368000e+002 -8.739495e+000 1.719472e+002
20909281250 -1.073984e+001 1.773826e+002 -1.277472e+001 1.335076e+002 -1.281592e+001 1.346511e+002 -8.734526e+000 1.716951e+002
20928025000 -1.069883e+001 1.777564e+002 -1.275772e+001 1.314324e+002 -1.280228e+001 1.325487e+002 -8.729184e+000 1.714870e+002
20946768750 -1.066683e+001 1.781958e+002 -1.274430e+001 1.293647e+002 -1.278685e+001 1.304838e+002 -8.732661e+000 1.712693e+002
20965512500 -1.063439e+001 1.785503e+002 -1.273426e+001 1.272574e+002 -1.276801e+001 1.283951e+002 -8.731215e+000 1.710257e+002
20984256250 -1.058876e+001 1.789192e+002 -1.272468e+001 1.251913e+002 -1.274854e+001 1.263363e+002 -8.729033e+000 1.707674e+002
21003000000 -1.055448e+001 1.791412e+002 -1.271294e+001 1.230748e+002 -1.273744e+001 1.242607e+002 -8.727682e+000 1.704521e+002
21021743750 -1.050180e+001 1.793348e+002 -1.269791e+001 1.209898e+002 -1.272266e+001 1.221462e+002 -8.727872e+000 1.701377e+002
21040487500 -1.043989e+001 1.795681e+002 -1.268801e+001 1.188985e+002 -1.271180e+001 1.200530e+002 -8.722575e+000 1.698615e+002
21059231250 -1.039193e+001 1.797730e+002 -1.268289e+001 1.168324e+002 -1.269920e+001 1.179419e+002 -8.728910e+000 1.695774e+002
21077975000 -1.034016e+001 1.799579e+002 -1.267600e+001 1.147391e+002 -1.269197e+001 1.159025e+002 -8.732532e+000 1.692574e+002
21096718750 -1.029126e+001 -1.799030e+002 -1.266568e+001 1.127149e+002 -1.268247e+001 1.138100e+002 -8.740580e+000 1.689192e+002
21115462500 -1.024578e+001 -1.798811e+002 -1.265311e+001 1.106404e+002 -1.267094e+001 1.117336e+002 -8.749681e+000 1.685487e+002
21134206250 -1.018732e+001 -1.798976e+002 -1.264200e+001 1.085816e+002 -1.266716e+001 1.097102e+002 -8.751330e+000 1.681744e+002
21152950000 -1.012479e+001 -1.798693e+002 -1.263036e+001 1.065539e+002 -1.265986e+001 1.076878e+002 -8.755463e+000 1.678755e+002
21171693750 -1.007484e+001 -1.798165e+002 -1.263050e+001 1.044775e+002 -1.264995e+001 1.056429e+002 -8.768459e+000 1.675141e+002
21190437500 -1.002090e+001 -1.797892e+002 -1.262082e+001 1.024416e+002 -1.264104e+001 1.036420e+002 -8.779218e+000 1.671579e+002
21209181250 -9.977073e+000 -1.798396e+002 -1.261938e+001 1.004012e+002 -1.263545e+001 1.016094e+002 -8.799951e+000 1.667977e+002
21227925000 -9.931498e+000 1.799915e+002 -1.261350e+001 9.836810e+001 -1.262605e+001 9.957066e+001 -8.817264e+000 1.663371e+002
21246668750 -9.877091e+000 1.798906e+002 -1.260961e+001 9.633832e+001 -1.261188e+001 9.753999e+001 -8.825751e+000 1.659228e+002
21265412500 -9.821096e+000 1.797518e+002 -1.260805e+001 9.438562e+001 -1.260370e+001 9.553501e+001 -8.843072e+000 1.655460e+002
21284156250 -9.777884e+000 1.796297e+002 -1.260605e+001 9.239991e+001 -1.259796e+001 9.354461e+001 -8.870860e+000 1.651744e+002
21302900000 -9.727951e+000 1.794634e+002 -1.259906e+001 9.040239e+001 -1.258788e+001 9.151010e+001 -8.894182e+000 1.648019e+002
21321643750 -9.691425e+000 1.792556e+002 -1.259505e+001 8.842176e+001 -1.257909e+001 8.951088e+001 -8.932612e+000 1.643930e+002
21340387500 -9.657443e+000 1.789883e+002 -1.259073e+001 8.639671e+001 -1.257963e+001 8.748466e+001 -8.974182e+000 1.639428e+002
21359131250 -9.601934e+000 1.787310e+002 -1.258144e+001 8.440592e+001 -1.256494e+001 8.549130e+001 -9.003157e+000 1.635466e+002
21377875000 -9.556219e+000 1.785052e+002 -1.257622e+001 8.242664e+001 -1.255573e+001 8.347196e+001 -9.042438e+000 1.631654e+002
21396618750 -9.517879e+000 1.782220e+002 -1.257410e+001 8.042123e+001 -1.255591e+001 8.144973e+001 -9.094821e+000 1.627508e+002
21415362500 -9.485335e+000 1.779559e+002 -1.256511e+001 7.849480e+001 -1.255217e+001 7.948102e+001 -9.142838e+000 1.623865e+002
21434106250 -9.462740e+000 1.777086e+002 -1.255972e+001 7.651208e+001 -1.254445e+001 7.751719e+001 -9.204217e+000 1.620104e+002
21452850000 -9.438990e+000 1.773082e+002 -1.255901e+001 7.454807e+001 -1.254826e+001 7.554333e+001 -9.259608e+000 1.615986e+002
21471593750 -9.400097e+000 1.769956e+002 -1.255970e+001 7.257352e+001 -1.253998e+001 7.358205e+001 -9.315991e+000 1.612303e+002
21490337500 -9.365636e+000 1.767398e+002 -1.255326e+001 7.062339e+001 -1.254065e+001 7.166732e+001 -9.381948e+000 1.609119e+002
21509081250 -9.340745e+000 1.764259e+002 -1.254644e+001 6.866758e+001 -1.253936e+001 6.964378e+001 -9.451915e+000 1.605717e+002
21527825000 -9.316310e+000 1.761629e+002 -1.255354e+001 6.670061e+001 -1.253683e+001 6.768572e+001 -9.525070e+000 1.602508e+002
21546568750 -9.298536e+000 1.758671e+002 -1.255077e+001 6.474612e+001 -1.253550e+001 6.571385e+001 -9.604178e+000 1.599098e+002
21565312500 -9.287590e+000 1.754498e+002 -1.254514e+001 6.280352e+001 -1.253099e+001 6.370728e+001 -9.682649e+000 1.595264e+002
21584056250 -9.255401e+000 1.751241e+002 -1.254520e+001 6.086314e+001 -1.252609e+001 6.170456e+001 -9.758136e+000 1.592080e+002
21602800000 -9.230660e+000 1.748337e+002 -1.253707e+001 5.893869e+001 -1.252620e+001 5.976588e+001 -9.842805e+000 1.589498e+002
21621543750 -9.217343e+000 1.744931e+002 -1.253645e+001 5.701450e+001 -1.252452e+001 5.774445e+001 -9.933676e+000 1.586556e+002
21640287500 -9.200837e+000 1.742466e+002 -1.253537e+001 5.507004e+001 -1.251651e+001 5.577351e+001 -1.002885e+001 1.584492e+002
21659031250 -9.199124e+000 1.739551e+002 -1.253016e+001 5.309359e+001 -1.252246e+001 5.381141e+001 -1.013198e+001 1.582454e+002
21677775000 -9.185426e+000 1.735372e+002 -1.252851e+001 5.114248e+001 -1.251931e+001 5.178720e+001 -1.022266e+001 1.580008e+002
21696518750 -9.165903e+000 1.732415e+002 -1.252743e+001 4.917175e+001 -1.251639e+001 4.982434e+001 -1.031650e+001 1.578428e+002
21715262500 -9.147245e+000 1.729020e+002 -1.251975e+001 4.718044e+001 -1.251861e+001 4.782439e+001 -1.042583e+001 1.577080e+002
21734006250 -9.138549e+000 1.726439e+002 -1.251757e+001 4.523309e+001 -1.251954e+001 4.584014e+001 -1.053150e+001 1.575978e+002
21752750000 -9.136909e+000 1.724070e+002 -1.252147e+001 4.323764e+001 -1.251329e+001 4.387464e+001 -1.064294e+001 1.575973e+002
21771493750 -9.149182e+000 1.720955e+002 -1.251627e+001 4.129358e+001 -1.251829e+001 4.189676e+001 -1.076053e+001 1.575033e+002
21790237500 -9.151612e+000 1.717333e+002 -1.252668e+001 3.931203e+001 -1.252100e+001 3.987896e+001 -1.086672e+001 1.574471e+002
21808981250 -9.139644e+000 1.714437e+002 -1.253339e+001 3.733651e+001 -1.252219e+001 3.791140e+001 -1.097303e+001 1.575914e+002
21827725000 -9.135419e+000 1.712635e+002 -1.252900e+001 3.539168e+001 -1.252746e+001 3.593341e+001 -1.109030e+001 1.577702e+002
21846468750 -9.130427e+000 1.710187e+002 -1.253781e+001 3.339169e+001 -1.252854e+001 3.387796e+001 -1.120387e+001 1.578941e+002
21865212500 -9.137947e+000 1.708268e+002 -1.254061e+001 3.143130e+001 -1.253188e+001 3.190118e+001 -1.132170e+001 1.581242e+002
21883956250 -9.156551e+000 1.705521e+002 -1.254030e+001 2.945163e+001 -1.253700e+001 2.991294e+001 -1.143939e+001 1.583519e+002
21902700000 -9.158624e+000 1.701949e+002 -1.253665e+001 2.748491e+001 -1.253903e+001 2.786426e+001 -1.153377e+001 1.586149e+002
21921443750 -9.152432e+000 1.699242e+002 -1.254441e+001 2.545577e+001 -1.253777e+001 2.587356e+001 -1.163624e+001 1.590291e+002
21940187500 -9.148374e+000 1.696995e+002 -1.254240e+001 2.351049e+001 -1.254574e+001 2.387579e+001 -1.175081e+001 1.594594e+002
21958931250 -9.146808e+000 1.694802e+002 -1.254675e+001 2.153699e+001 -1.254481e+001 2.183821e+001 -1.185555e+001 1.599628e+002
21977675000 -9.164920e+000 1.693296e+002 -1.255051e+001 1.950888e+001 -1.254651e+001 1.986835e+001 -1.196156e+001 1.605508e+002
21996418750 -9.178675e+000 1.690586e+002 -1.255729e+001 1.755293e+001 -1.256305e+001 1.786573e+001 -1.207418e+001 1.610777e+002
22015162500 -9.183972e+000 1.687522e+002 -1.256548e+001 1.553360e+001 -1.256550e+001 1.586766e+001 -1.216218e+001 1.616490e+002
22033906250 -9.181129e+000 1.685652e+002 -1.256982e+001 1.353616e+001 -1.257145e+001 1.387450e+001 -1.225386e+001 1.624052e+002
22052650000 -9.181273e+000 1.683949e+002 -1.257263e+001 1.155577e+001 -1.258336e+001 1.186440e+001 -1.234626e+001 1.631781e+002
22071393750 -9.181078e+000 1.682756e+002 -1.258768e+001 9.592882e+000 -1.259115e+001 9.885806e+000 -1.242436e+001 1.639322e+002
22090137500 -9.199117e+000 1.681497e+002 -1.259064e+001 7.582191e+000 -1.259756e+001 7.901378e+000 -1.250520e+001 1.648101e+002
22108881250 -9.214825e+000 1.679277e+002 -1.259774e+001 5.657944e+000 -1.261911e+001 5.902211e+000 -1.258411e+001 1.656405e+002
22127625000 -9.213762e+000 1.676966e+002 -1.261004e+001 3.640412e+000 -1.263127e+001 3.889742e+000 -1.263390e+001 1.665311e+002
22146368750 -9.220371e+000 1.675708e+002 -1.261614e+001 1.640879e+000 -1.264623e+001 1.937767e+000 -1.268329e+001 1.674988e+002
22165112500 -9.219882e+000 1.674397e+002 -1.262549e+001 -3.223239e-001 -1.266589e+001 -1.150506e-001 -1.273118e+001 1.684420e+002
22183856250 -9.216943e+000 1.673639e+002 -1.263647e+001 -2.319084e+000 -1.267579e+001 -2.130264e+000 -1.276297e+001 1.694033e+002
22202600000 -9.225019e+000 1.673102e+002 -1.264125e+001 -4.287559e+000 -1.269360e+001 -4.083469e+000 -1.278551e+001 1.704565e+002
22221343750 -9.239266e+000 1.671126e+002 -1.264817e+001 -6.239311e+000 -1.270828e+001 -6.115286e+000 -1.279708e+001 1.713530e+002
22240087500 -9.240923e+000 1.669551e+002 -1.265968e+001 -8.280305e+000 -1.271791e+001 -8.082282e+000 -1.278265e+001 1.722752e+002
22258831250 -9.241546e+000 1.667871e+002 -1.266501e+001 -1.029347e+001 -1.273921e+001 -1.004796e+001 -1.275974e+001 1.732943e+002
22277575000 -9.238757e+000 1.666845e+002 -1.268277e+001 -1.228743e+001 -1.275435e+001 -1.209517e+001 -1.273484e+001 1.743266e+002
22296318750 -9.234042e+000 1.666471e+002 -1.269703e+001 -1.433581e+001 -1.276487e+001 -1.406908e+001 -1.269983e+001 1.753399e+002
22315062500 -9.237521e+000 1.666286e+002 -1.270712e+001 -1.629090e+001 -1.278737e+001 -1.608365e+001 -1.266619e+001 1.763013e+002
22333806250 -9.245830e+000 1.664792e+002 -1.272959e+001 -1.828969e+001 -1.281244e+001 -1.804829e+001 -1.262898e+001 1.771850e+002
22352550000 -9.247739e+000 1.663341e+002 -1.274256e+001 -2.029179e+001 -1.283047e+001 -2.006186e+001 -1.256196e+001 1.780898e+002
22371293750 -9.243148e+000 1.662091e+002 -1.276243e+001 -2.228968e+001 -1.285243e+001 -2.205934e+001 -1.248830e+001 1.790092e+002
22390037500 -9.234351e+000 1.661059e+002 -1.278316e+001 -2.427089e+001 -1.288228e+001 -2.400546e+001 -1.239661e+001 1.798427e+002
22408781250 -9.219974e+000 1.660656e+002 -1.279949e+001 -2.627619e+001 -1.290211e+001 -2.598657e+001 -1.230757e+001 -1.793270e+002
22427525000 -9.224134e+000 1.660692e+002 -1.281428e+001 -2.822312e+001 -1.292443e+001 -2.799167e+001 -1.221131e+001 -1.785035e+002
22446268750 -9.227015e+000 1.659581e+002 -1.284392e+001 -3.020751e+001 -1.294824e+001 -2.996360e+001 -1.211003e+001 -1.777980e+002
22465012500 -9.220364e+000 1.657800e+002 -1.285927e+001 -3.228177e+001 -1.297308e+001 -3.194324e+001 -1.198911e+001 -1.771128e+002
22483756250 -9.212212e+000 1.656760e+002 -1.288055e+001 -3.424036e+001 -1.300166e+001 -3.394336e+001 -1.187163e+001 -1.764179e+002
22502500000 -9.198494e+000 1.655402e+002 -1.289902e+001 -3.626947e+001 -1.302642e+001 -3.598648e+001 -1.174082e+001 -1.758098e+002
22521243750 -9.186943e+000 1.655331e+002 -1.292102e+001 -3.827210e+001 -1.305278e+001 -3.796980e+001 -1.161035e+001 -1.752589e+002
22539987500 -9.194297e+000 1.654498e+002 -1.294496e+001 -4.026545e+001 -1.308094e+001 -3.998386e+001 -1.148763e+001 -1.747147e+002
22558731250 -9.194743e+000 1.653173e+002 -1.297141e+001 -4.228359e+001 -1.310406e+001 -4.197142e+001 -1.135615e+001 -1.742793e+002
22577475000 -9.186427e+000 1.651851e+002 -1.299415e+001 -4.427193e+001 -1.313119e+001 -4.396801e+001 -1.120743e+001 -1.738373e+002
22596218750 -9.174099e+000 1.650137e+002 -1.302107e+001 -4.630123e+001 -1.315337e+001 -4.592813e+001 -1.106097e+001 -1.734086e+002
22614962500 -9.159856e+000 1.648952e+002 -1.304827e+001 -4.831144e+001 -1.318837e+001 -4.794807e+001 -1.091958e+001 -1.730459e+002
22633706250 -9.145996e+000 1.648327e+002 -1.307907e+001 -5.034309e+001 -1.321004e+001 -4.999962e+001 -1.077842e+001 -1.727251e+002
22652450000 -9.141914e+000 1.647534e+002 -1.310201e+001 -5.234886e+001 -1.324073e+001 -5.195634e+001 -1.065409e+001 -1.724059e+002
22671193750 -9.142529e+000 1.645054e+002 -1.312903e+001 -5.427796e+001 -1.328295e+001 -5.394511e+001 -1.052865e+001 -1.722409e+002
22689937500 -9.120728e+000 1.643144e+002 -1.316273e+001 -5.629781e+001 -1.330670e+001 -5.599217e+001 -1.038666e+001 -1.721420e+002
22708681250 -9.111312e+000 1.641822e+002 -1.318742e+001 -5.831167e+001 -1.333543e+001 -5.792605e+001 -1.025226e+001 -1.719794e+002
22727425000 -9.089929e+000 1.640049e+002 -1.322596e+001 -6.019060e+001 -1.338248e+001 -5.992023e+001 -1.012357e+001 -1.718696e+002
22746168750 -9.074561e+000 1.639155e+002 -1.326169e+001 -6.224929e+001 -1.340522e+001 -6.189571e+001 -9.987146e+000 -1.717898e+002
22764912500 -9.078410e+000 1.638535e+002 -1.328033e+001 -6.423634e+001 -1.343066e+001 -6.385654e+001 -9.864528e+000 -1.717139e+002
22783656250 -9.069248e+000 1.636152e+002 -1.331948e+001 -6.617982e+001 -1.347468e+001 -6.582087e+001 -9.744678e+000 -1.718079e+002
22802400000 -9.056479e+000 1.634558e+002 -1.335136e+001 -6.823488e+001 -1.350557e+001 -6.783974e+001 -9.613260e+000 -1.718959e+002
22821143750 -9.051579e+000 1.632806e+002 -1.337306e+001 -7.020262e+001 -1.353648e+001 -6.979626e+001 -9.502993e+000 -1.719192e+002
22839887500 -9.038141e+000 1.630780e+002 -1.340974e+001 -7.214336e+001 -1.357418e+001 -7.182340e+001 -9.390594e+000 -1.720419e+002
22858631250 -9.023978e+000 1.630102e+002 -1.344491e+001 -7.422274e+001 -1.359899e+001 -7.383231e+001 -9.272043e+000 -1.721555e+002
22877375000 -9.029309e+000 1.628481e+002 -1.346768e+001 -7.615219e+001 -1.363642e+001 -7.581194e+001 -9.169133e+000 -1.722554e+002
22896118750 -9.027167e+000 1.626490e+002 -1.350729e+001 -7.811206e+001 -1.367209e+001 -7.781474e+001 -9.064734e+000 -1.725053e+002
22914862500 -9.014219e+000 1.624646e+002 -1.354098e+001 -8.018812e+001 -1.369929e+001 -7.981316e+001 -8.952413e+000 -1.727023e+002
22933606250 -9.010323e+000 1.622918e+002 -1.356759e+001 -8.216818e+001 -1.374082e+001 -8.168536e+001 -8.855328e+000 -1.728483e+002
22952350000 -8.988400e+000 1.620846e+002 -1.361002e+001 -8.416002e+001 -1.377594e+001 -8.369653e+001 -8.762129e+000 -1.730709e+002
22971093750 -8.982432e+000 1.620383e+002 -1.364339e+001 -8.622354e+001 -1.380831e+001 -8.563729e+001 -8.671271e+000 -1.733000e+002
22989837500 -8.994873e+000 1.619134e+002 -1.368157e+001 -8.816663e+001 -1.385527e+001 -8.761059e+001 -8.590562e+000 -1.735903e+002
23008581250 -8.990860e+000 1.616958e+002 -1.372420e+001 -9.019092e+001 -1.389437e+001 -8.956881e+001 -8.508820e+000 -1.739669e+002
23027325000 -8.989413e+000 1.615641e+002 -1.375325e+001 -9.220354e+001 -1.392956e+001 -9.156986e+001 -8.422112e+000 -1.742482e+002
23046068750 -8.990113e+000 1.613567e+002 -1.378757e+001 -9.416592e+001 -1.397526e+001 -9.352125e+001 -8.345163e+000 -1.745154e+002
23064812500 -8.978484e+000 1.612101e+002 -1.383206e+001 -9.618361e+001 -1.400807e+001 -9.545440e+001 -8.271299e+000 -1.748132e+002
23083556250 -8.984554e+000 1.612017e+002 -1.386601e+001 -9.819555e+001 -1.404375e+001 -9.743319e+001 -8.193954e+000 -1.750786e+002
23102300000 -8.996892e+000 1.611338e+002 -1.390306e+001 -1.001858e+002 -1.407878e+001 -9.944286e+001 -8.129190e+000 -1.753896e+002
23121043750 -9.007778e+000 1.609917e+002 -1.393767e+001 -1.021784e+002 -1.411925e+001 -1.013689e+002 -8.068069e+000 -1.757105e+002
23139787500 -9.007354e+000 1.608335e+002 -1.396969e+001 -1.041214e+002 -1.416586e+001 -1.033390e+002 -7.997185e+000 -1.760558e+002
23158531250 -9.013321e+000 1.607007e+002 -1.399816e+001 -1.061747e+002 -1.419859e+001 -1.053791e+002 -7.933432e+000 -1.763678e+002
23177275000 -9.007898e+000 1.605974e+002 -1.403015e+001 -1.081711e+002 -1.424584e+001 -1.073561e+002 -7.876999e+000 -1.766729e+002
23196018750 -9.016325e+000 1.605562e+002 -1.407060e+001 -1.101879e+002 -1.429054e+001 -1.093533e+002 -7.817372e+000 -1.769746e+002
23214762500 -9.034225e+000 1.604902e+002 -1.410229e+001 -1.122439e+002 -1.432090e+001 -1.113819e+002 -7.764307e+000 -1.772489e+002
23233506250 -9.041615e+000 1.603584e+002 -1.414051e+001 -1.142045e+002 -1.436273e+001 -1.132682e+002 -7.715759e+000 -1.775752e+002
23252250000 -9.039693e+000 1.602601e+002 -1.418156e+001 -1.162599e+002 -1.440190e+001 -1.152568e+002 -7.659365e+000 -1.778729e+002
23270993750 -9.040555e+000 1.601956e+002 -1.422789e+001 -1.183074e+002 -1.444130e+001 -1.172267e+002 -7.615849e+000 -1.781340e+002
23289737500 -9.040015e+000 1.601295e+002 -1.426579e+001 -1.203336e+002 -1.449519e+001 -1.192178e+002 -7.575860e+000 -1.784216e+002
23308481250 -9.046926e+000 1.601979e+002 -1.431212e+001 -1.224236e+002 -1.453860e+001 -1.212719e+002 -7.531795e+000 -1.787110e+002
23327225000 -9.057489e+000 1.601348e+002 -1.435469e+001 -1.244393e+002 -1.457832e+001 -1.233114e+002 -7.496050e+000 -1.789702e+002
23345968750 -9.066915e+000 1.600824e+002 -1.439790e+001 -1.264718e+002 -1.462229e+001 -1.253272e+002 -7.453262e+000 -1.792615e+002
23364712500 -9.069527e+000 1.600365e+002 -1.444483e+001 -1.285185e+002 -1.465885e+001 -1.273937e+002 -7.412027e+000 -1.795050e+002
23383456250 -9.067422e+000 1.600012e+002 -1.449205e+001 -1.305446e+002 -1.469879e+001 -1.294408e+002 -7.377466e+000 -1.797097e+002
23402200000 -9.054353e+000 1.600302e+002 -1.454217e+001 -1.325807e+002 -1.474856e+001 -1.314741e+002 -7.351459e+000 -1.799366e+002
23420943750 -9.055272e+000 1.600734e+002 -1.458714e+001 -1.346989e+002 -1.479161e+001 -1.335159e+002 -7.320189e+000 1.798658e+002
23439687500 -9.068267e+000 1.600734e+002 -1.463301e+001 -1.367526e+002 -1.482985e+001 -1.356265e+002 -7.289564e+000 1.796758e+002
23458431250 -9.063263e+000 1.600396e+002 -1.468385e+001 -1.388387e+002 -1.488662e+001 -1.376421e+002 -7.263866e+000 1.794226e+002
23477175000 -9.053452e+000 1.600474e+002 -1.472703e+001 -1.409939e+002 -1.492419e+001 -1.397075e+002 -7.226498e+000 1.792298e+002
23495918750 -9.044499e+000 1.600517e+002 -1.476925e+001 -1.430830e+002 -1.498295e+001 -1.417335e+002 -7.201134e+000 1.790927e+002
23514662500 -9.024663e+000 1.601130e+002 -1.482679e+001 -1.452296e+002 -1.503310e+001 -1.437624e+002 -7.177884e+000 1.789049e+002
23533406250 -9.014338e+000 1.602028e+002 -1.487832e+001 -1.474023e+002 -1.507526e+001 -1.458675e+002 -7.154564e+000 1.787746e+002
23552150000 -9.010380e+000 1.602053e+002 -1.492733e+001 -1.494933e+002 -1.512671e+001 -1.479674e+002 -7.133889e+000 1.785788e+002
23570893750 -8.996003e+000 1.601903e+002 -1.498831e+001 -1.516497e+002 -1.517608e+001 -1.500695e+002 -7.108558e+000 1.784114e+002
23589637500 -8.977255e+000 1.602428e+002 -1.504112e+001 -1.537932e+002 -1.522120e+001 -1.521654e+002 -7.079351e+000 1.783085e+002
23608381250 -8.957480e+000 1.602564e+002 -1.509564e+001 -1.559250e+002 -1.527321e+001 -1.542578e+002 -7.057909e+000 1.781837e+002
23627125000 -8.925316e+000 1.603673e+002 -1.515792e+001 -1.580754e+002 -1.533138e+001 -1.564032e+002 -7.037770e+000 1.780366e+002
23645868750 -8.907502e+000 1.604745e+002 -1.521597e+001 -1.602684e+002 -1.538938e+001 -1.585337e+002 -7.017630e+000 1.779031e+002
23664612500 -8.888773e+000 1.604874e+002 -1.527129e+001 -1.623898e+002 -1.544818e+001 -1.606448e+002 -6.993321e+000 1.777866e+002
23683356250 -8.858557e+000 1.605131e+002 -1.533373e+001 -1.644993e+002 -1.551366e+001 -1.627952e+002 -6.965558e+000 1.776366e+002
23702100000 -8.830762e+000 1.605438e+002 -1.538596e+001 -1.667000e+002 -1.557471e+001 -1.649832e+002 -6.934259e+000 1.775949e+002
23720843750 -8.791845e+000 1.605488e+002 -1.545057e+001 -1.688418e+002 -1.562986e+001 -1.670948e+002 -6.913431e+000 1.775215e+002
23739587500 -8.753423e+000 1.606184e+002 -1.550935e+001 -1.709817e+002 -1.569404e+001 -1.691763e+002 -6.889237e+000 1.774349e+002
23758331250 -8.731519e+000 1.607191e+002 -1.555988e+001 -1.731411e+002 -1.575277e+001 -1.713248e+002 -6.867408e+000 1.773520e+002
23777075000 -8.701438e+000 1.606542e+002 -1.562367e+001 -1.752630e+002 -1.581963e+001 -1.734241e+002 -6.845237e+000 1.772462e+002
23795818750 -8.655762e+000 1.606398e+002 -1.568987e+001 -1.774782e+002 -1.589324e+001 -1.756385e+002 -6.811325e+000 1.771434e+002
23814562500 -8.624070e+000 1.606101e+002 -1.574310e+001 -1.796862e+002 -1.595969e+001 -1.777558e+002 -6.782310e+000 1.770862e+002
23833306250 -8.576197e+000 1.605669e+002 -1.581368e+001 1.781064e+002 -1.602382e+001 -1.798835e+002 -6.747821e+000 1.770317e+002
23852050000 -8.524682e+000 1.606002e+002 -1.588276e+001 1.759238e+002 -1.609235e+001 1.779357e+002 -6.716615e+000 1.769703e+002
23870793750 -8.485003e+000 1.606061e+002 -1.594721e+001 1.737797e+002 -1.615432e+001 1.757840e+002 -6.686339e+000 1.769186e+002
23889537500 -8.445657e+000 1.605256e+002 -1.602363e+001 1.716513e+002 -1.622296e+001 1.736219e+002 -6.649926e+000 1.768203e+002
23908281250 -8.398487e+000 1.604491e+002 -1.609211e+001 1.694722e+002 -1.630524e+001 1.714195e+002 -6.610618e+000 1.767706e+002
23927025000 -8.349986e+000 1.603627e+002 -1.616388e+001 1.673294e+002 -1.637238e+001 1.692477e+002 -6.573177e+000 1.767214e+002
23945768750 -8.294468e+000 1.601967e+002 -1.623996e+001 1.651881e+002 -1.644732e+001 1.670054e+002 -6.542780e+000 1.766530e+002
23964512500 -8.240576e+000 1.601465e+002 -1.631244e+001 1.629895e+002 -1.652118e+001 1.648501e+002 -6.498592e+000 1.765822e+002
23983256250 -8.203260e+000 1.600832e+002 -1.639359e+001 1.608564e+002 -1.659359e+001 1.626546e+002 -6.460173e+000 1.765313e+002
24002000000 -8.160874e+000 1.599289e+002 -1.647096e+001 1.586486e+002 -1.667447e+001 1.604862e+002 -6.419321e+000 1.764106e+002
24020743750 -8.106861e+000 1.597482e+002 -1.655253e+001 1.564438e+002 -1.676439e+001 1.583182e+002 -6.369680e+000 1.763207e+002
24039487500 -8.058048e+000 1.595539e+002 -1.662679e+001 1.542875e+002 -1.683994e+001 1.561454e+002 -6.329705e+000 1.762744e+002
24058231250 -7.999912e+000 1.592855e+002 -1.670985e+001 1.521251e+002 -1.691409e+001 1.539660e+002 -6.288228e+000 1.761859e+002
24076975000 -7.943358e+000 1.591652e+002 -1.677781e+001 1.499479e+002 -1.699719e+001 1.517544e+002 -6.240028e+000 1.761125e+002
24095718750 -7.909091e+000 1.589778e+002 -1.685768e+001 1.477499e+002 -1.707366e+001 1.494812e+002 -6.200613e+000 1.760303e+002
24114462500 -7.867307e+000 1.587246e+002 -1.694607e+001 1.455101e+002 -1.715135e+001 1.473283e+002 -6.158420e+000 1.759096e+002
24133206250 -7.818987e+000 1.584679e+002 -1.702623e+001 1.433500e+002 -1.723260e+001 1.451466e+002 -6.106784e+000 1.758017e+002
24151950000 -7.777752e+000 1.581699e+002 -1.711739e+001 1.412105e+002 -1.731880e+001 1.429689e+002 -6.058651e+000 1.757356e+002
24170693750 -7.717060e+000 1.578916e+002 -1.720963e+001 1.389462e+002 -1.740479e+001 1.407902e+002 -6.015352e+000 1.756046e+002
24189437500 -7.670177e+000 1.576868e+002 -1.730433e+001 1.367603e+002 -1.750269e+001 1.386171e+002 -5.964114e+000 1.754942e+002
24208181250 -7.632196e+000 1.574614e+002 -1.739881e+001 1.345456e+002 -1.758291e+001 1.364104e+002 -5.919597e+000 1.753528e+002
24226925000 -7.591002e+000 1.571516e+002 -1.749201e+001 1.323604e+002 -1.767170e+001 1.342914e+002 -5.869341e+000 1.751720e+002
24245668750 -7.548113e+000 1.568780e+002 -1.757078e+001 1.302332e+002 -1.776818e+001 1.320957e+002 -5.813376e+000 1.750530e+002
24264412500 -7.512194e+000 1.564852e+002 -1.765791e+001 1.280500e+002 -1.786180e+001 1.297877e+002 -5.765593e+000 1.749146e+002
24283156250 -7.464971e+000 1.561436e+002 -1.773744e+001 1.258331e+002 -1.795500e+001 1.276065e+002 -5.714648e+000 1.747448e+002
24301900000 -7.423508e+000 1.558861e+002 -1.782583e+001 1.236295e+002 -1.805595e+001 1.254394e+002 -5.666309e+000 1.745895e+002
24320643750 -7.393425e+000 1.555531e+002 -1.791521e+001 1.213765e+002 -1.814757e+001 1.231810e+002 -5.623775e+000 1.743805e+002
24339387500 -7.356918e+000 1.552173e+002 -1.801587e+001 1.191644e+002 -1.823560e+001 1.209786e+002 -5.571327e+000 1.741427e+002
24358131250 -7.325845e+000 1.548529e+002 -1.810474e+001 1.169884e+002 -1.833660e+001 1.186923e+002 -5.516501e+000 1.739660e+002
24376875000 -7.295858e+000 1.544702e+002 -1.820460e+001 1.147762e+002 -1.843974e+001 1.165923e+002 -5.466488e+000 1.737629e+002
24395618750 -7.258629e+000 1.541516e+002 -1.829585e+001 1.125088e+002 -1.854053e+001 1.143658e+002 -5.420423e+000 1.735232e+002
24414362500 -7.231655e+000 1.538229e+002 -1.839276e+001 1.102571e+002 -1.864383e+001 1.121412e+002 -5.372079e+000 1.733433e+002
24433106250 -7.206111e+000 1.534387e+002 -1.848721e+001 1.079469e+002 -1.872555e+001 1.099042e+002 -5.328808e+000 1.731199e+002
24451850000 -7.180379e+000 1.530830e+002 -1.857775e+001 1.056968e+002 -1.882607e+001 1.077606e+002 -5.279299e+000 1.728729e+002
24470593750 -7.169265e+000 1.527402e+002 -1.868321e+001 1.034881e+002 -1.892820e+001 1.055025e+002 -5.226041e+000 1.726916e+002
24489337500 -7.151030e+000 1.523751e+002 -1.878685e+001 1.012118e+002 -1.902185e+001 1.032751e+002 -5.180899e+000 1.724682e+002
24508081250 -7.131275e+000 1.520394e+002 -1.889754e+001 9.895480e+001 -1.912814e+001 1.011943e+002 -5.135371e+000 1.722363e+002
24526825000 -7.115462e+000 1.517254e+002 -1.901402e+001 9.667054e+001 -1.923420e+001 9.892209e+001 -5.089848e+000 1.720278e+002
24545568750 -7.103117e+000 1.513369e+002 -1.911640e+001 9.442513e+001 -1.933806e+001 9.668456e+001 -5.043617e+000 1.717573e+002
24564312500 -7.087534e+000 1.510046e+002 -1.921935e+001 9.219618e+001 -1.944991e+001 9.448013e+001 -4.990202e+000 1.714828e+002
24583056250 -7.086461e+000 1.506693e+002 -1.933357e+001 8.994217e+001 -1.956242e+001 9.224445e+001 -4.941603e+000 1.712406e+002
24601800000 -7.080359e+000 1.502632e+002 -1.944322e+001 8.770564e+001 -1.965016e+001 9.000610e+001 -4.895246e+000 1.709710e+002
24620543750 -7.064155e+000 1.499234e+002 -1.954750e+001 8.546390e+001 -1.975708e+001 8.782088e+001 -4.847826e+000 1.706974e+002
24639287500 -7.062264e+000 1.495959e+002 -1.965890e+001 8.326650e+001 -1.987517e+001 8.554471e+001 -4.803031e+000 1.704663e+002
24658031250 -7.060136e+000 1.492172e+002 -1.976802e+001 8.093813e+001 -1.998059e+001 8.326891e+001 -4.762745e+000 1.701618e+002
24676775000 -7.055696e+000 1.489405e+002 -1.989451e+001 7.858792e+001 -2.009623e+001 8.098018e+001 -4.711463e+000 1.698790e+002
24695518750 -7.059941e+000 1.486709e+002 -2.003472e+001 7.636012e+001 -2.020235e+001 7.875056e+001 -4.664197e+000 1.696402e+002
24714262500 -7.057913e+000 1.483526e+002 -2.015524e+001 7.414919e+001 -2.031020e+001 7.655614e+001 -4.621712e+000 1.693486e+002
24733006250 -7.054408e+000 1.480882e+002 -2.028698e+001 7.179988e+001 -2.042840e+001 7.435721e+001 -4.567546e+000 1.690745e+002
24751750000 -7.061539e+000 1.477879e+002 -2.041620e+001 6.951798e+001 -2.054814e+001 7.221779e+001 -4.522408e+000 1.688603e+002
24770493750 -7.056577e+000 1.474720e+002 -2.053874e+001 6.725134e+001 -2.065821e+001 7.012074e+001 -4.478321e+000 1.685729e+002
24789237500 -7.056374e+000 1.472726e+002 -2.066217e+001 6.499123e+001 -2.077730e+001 6.790035e+001 -4.430026e+000 1.683285e+002
24807981250 -7.066033e+000 1.470433e+002 -2.078462e+001 6.270441e+001 -2.088700e+001 6.554697e+001 -4.386443e+000 1.681204e+002
24826725000 -7.065845e+000 1.467957e+002 -2.092376e+001 6.049114e+001 -2.100974e+001 6.344099e+001 -4.343429e+000 1.678540e+002
24845468750 -7.064268e+000 1.466376e+002 -2.106162e+001 5.825326e+001 -2.114183e+001 6.117329e+001 -4.294724e+000 1.675956e+002
24864212500 -7.071419e+000 1.464328e+002 -2.119099e+001 5.599483e+001 -2.126679e+001 5.883838e+001 -4.250083e+000 1.673175e+002
24882956250 -7.068970e+000 1.462375e+002 -2.132958e+001 5.377544e+001 -2.138216e+001 5.659988e+001 -4.202441e+000 1.670221e+002
24901700000 -7.059837e+000 1.461174e+002 -2.147372e+001 5.151982e+001 -2.152393e+001 5.439308e+001 -4.149523e+000 1.667598e+002
24920443750 -7.063026e+000 1.459467e+002 -2.159984e+001 4.925094e+001 -2.166730e+001 5.218333e+001 -4.102052e+000 1.664855e+002
24939187500 -7.050601e+000 1.458087e+002 -2.174664e+001 4.705433e+001 -2.182142e+001 4.996642e+001 -4.047967e+000 1.661829e+002
24957931250 -7.050188e+000 1.457019e+002 -2.189348e+001 4.478601e+001 -2.196107e+001 4.775840e+001 -3.994101e+000 1.658821e+002
24976675000 -7.052649e+000 1.455729e+002 -2.203777e+001 4.254337e+001 -2.208301e+001 4.550301e+001 -3.950324e+000 1.656134e+002
24995418750 -7.043007e+000 1.454689e+002 -2.219145e+001 4.033458e+001 -2.222090e+001 4.346172e+001 -3.900234e+000 1.652731e+002
25014162500 -7.034929e+000 1.454167e+002 -2.234408e+001 3.809779e+001 -2.236817e+001 4.124015e+001 -3.851342e+000 1.649714e+002
25032906250 -7.029789e+000 1.453171e+002 -2.248543e+001 3.592527e+001 -2.251189e+001 3.902134e+001 -3.804704e+000 1.646665e+002
25051650000 -7.019709e+000 1.452495e+002 -2.264620e+001 3.366873e+001 -2.264634e+001 3.686489e+001 -3.752460e+000 1.643025e+002
25070393750 -7.006649e+000 1.452441e+002 -2.278794e+001 3.147631e+001 -2.278584e+001 3.465288e+001 -3.703717e+000 1.639902e+002
25089137500 -6.997290e+000 1.451754e+002 -2.294852e+001 2.941983e+001 -2.293065e+001 3.240245e+001 -3.656959e+000 1.636548e+002
25107881250 -6.978359e+000 1.450763e+002 -2.311231e+001 2.732536e+001 -2.310531e+001 3.024684e+001 -3.606994e+000 1.633110e+002
25126625000 -6.963139e+000 1.450451e+002 -2.324625e+001 2.510152e+001 -2.326234e+001 2.811801e+001 -3.561281e+000 1.629913e+002
25145368750 -6.946623e+000 1.449705e+002 -2.341068e+001 2.302943e+001 -2.341517e+001 2.604891e+001 -3.520744e+000 1.626391e+002
25164112500 -6.922998e+000 1.449374e+002 -2.356278e+001 2.098314e+001 -2.357884e+001 2.374225e+001 -3.475823e+000 1.622752e+002
25182856250 -6.907624e+000 1.449366e+002 -2.371895e+001 1.884723e+001 -2.372387e+001 2.152168e+001 -3.435707e+000 1.619236e+002
25201600000 -6.892408e+000 1.448487e+002 -2.389308e+001 1.683953e+001 -2.389295e+001 1.931438e+001 -3.394457e+000 1.615321e+002
25220343750 -6.865489e+000 1.447465e+002 -2.407097e+001 1.467247e+001 -2.404912e+001 1.737550e+001 -3.348965e+000 1.611456e+002
25239087500 -6.837986e+000 1.447280e+002 -2.423716e+001 1.270791e+001 -2.422932e+001 1.542399e+001 -3.304264e+000 1.608004e+002
25257831250 -6.809347e+000 1.446187e+002 -2.440776e+001 1.073005e+001 -2.441478e+001 1.333527e+001 -3.264832e+000 1.604426e+002
25276575000 -6.767255e+000 1.445760e+002 -2.459969e+001 8.689518e+000 -2.458301e+001 1.129090e+001 -3.222219e+000 1.600765e+002
25295318750 -6.738579e+000 1.445542e+002 -2.479780e+001 6.793346e+000 -2.476475e+001 9.360050e+000 -3.188899e+000 1.597404e+002
25314062500 -6.706872e+000 1.444369e+002 -2.497568e+001 4.911314e+000 -2.495612e+001 7.432773e+000 -3.154320e+000 1.593218e+002
25332806250 -6.664389e+000 1.443330e+002 -2.513520e+001 2.943139e+000 -2.513839e+001 5.522191e+000 -3.110700e+000 1.589336e+002
25351550000 -6.626894e+000 1.442528e+002 -2.533415e+001 9.202617e-001 -2.530256e+001 3.509617e+000 -3.077512e+000 1.586012e+002
25370293750 -6.586381e+000 1.440900e+002 -2.549802e+001 -9.442901e-001 -2.545027e+001 1.725766e+000 -3.044676e+000 1.582426e+002
25389037500 -6.540487e+000 1.440013e+002 -2.567803e+001 -2.758341e+000 -2.562170e+001 -8.811378e-002 -3.015089e+000 1.578849e+002
25407781250 -6.500210e+000 1.439634e+002 -2.584060e+001 -4.696155e+000 -2.578323e+001 -1.931051e+000 -2.977683e+000 1.575449e+002
25426525000 -6.470541e+000 1.437772e+002 -2.599439e+001 -6.455130e+000 -2.597012e+001 -3.900113e+000 -2.956545e+000 1.572138e+002
25445268750 -6.416964e+000 1.436020e+002 -2.614920e+001 -8.275795e+000 -2.610718e+001 -5.739585e+000 -2.922822e+000 1.568357e+002
25464012500 -6.370584e+000 1.434743e+002 -2.630705e+001 -9.931452e+000 -2.628982e+001 -7.447309e+000 -2.890357e+000 1.565423e+002
25482756250 -6.317242e+000 1.433165e+002 -2.649721e+001 -1.169959e+001 -2.645243e+001 -9.341051e+000 -2.868463e+000 1.562954e+002
25501500000 -6.269191e+000 1.431595e+002 -2.666964e+001 -1.357852e+001 -2.662714e+001 -1.092994e+001 -2.842872e+000 1.558816e+002
25520243750 -6.222776e+000 1.430087e+002 -2.686248e+001 -1.518598e+001 -2.682913e+001 -1.245508e+001 -2.805730e+000 1.556041e+002
25538987500 -6.174926e+000 1.427945e+002 -2.703331e+001 -1.690657e+001 -2.695967e+001 -1.424337e+001 -2.787522e+000 1.553116e+002
25557731250 -6.118364e+000 1.425740e+002 -2.719980e+001 -1.852770e+001 -2.710423e+001 -1.568946e+001 -2.758574e+000 1.549448e+002
25576475000 -6.063212e+000 1.423903e+002 -2.736371e+001 -2.024301e+001 -2.730517e+001 -1.745206e+001 -2.718282e+000 1.546907e+002
25595218750 -6.005504e+000 1.421734e+002 -2.752700e+001 -2.196321e+001 -2.744574e+001 -1.911397e+001 -2.704453e+000 1.544302e+002
25613962500 -5.942514e+000 1.419971e+002 -2.768884e+001 -2.357619e+001 -2.765183e+001 -2.084225e+001 -2.672198e+000 1.540548e+002
25632706250 -5.887773e+000 1.418282e+002 -2.784550e+001 -2.503079e+001 -2.782933e+001 -2.245618e+001 -2.640078e+000 1.537955e+002
25651450000 -5.836781e+000 1.416053e+002 -2.797506e+001 -2.651224e+001 -2.798858e+001 -2.418903e+001 -2.622627e+000 1.534915e+002
25670193750 -5.778783e+000 1.413066e+002 -2.815436e+001 -2.828490e+001 -2.814869e+001 -2.575818e+001 -2.590885e+000 1.531023e+002
25688937500 -5.723355e+000 1.410395e+002 -2.832591e+001 -2.996618e+001 -2.831758e+001 -2.729372e+001 -2.559092e+000 1.528480e+002
25707681250 -5.672489e+000 1.407341e+002 -2.845443e+001 -3.152151e+001 -2.847609e+001 -2.884274e+001 -2.543887e+000 1.525381e+002
25726425000 -5.614037e+000 1.405115e+002 -2.860687e+001 -3.288413e+001 -2.861403e+001 -3.045994e+001 -2.514647e+000 1.521779e+002
25745168750 -5.566045e+000 1.402584e+002 -2.880659e+001 -3.446288e+001 -2.874719e+001 -3.211416e+001 -2.490197e+000 1.519241e+002
25763912500 -5.518354e+000 1.399294e+002 -2.899635e+001 -3.595931e+001 -2.887990e+001 -3.377465e+001 -2.480453e+000 1.516016e+002
25782656250 -5.465435e+000 1.396313e+002 -2.911772e+001 -3.734214e+001 -2.902692e+001 -3.537250e+001 -2.449346e+000 1.512448e+002
25801400000 -5.416299e+000 1.393342e+002 -2.926821e+001 -3.872850e+001 -2.916164e+001 -3.746368e+001 -2.425911e+000 1.509891e+002
25820143750 -5.361000e+000 1.390162e+002 -2.938755e+001 -4.013145e+001 -2.930419e+001 -3.888464e+001 -2.408323e+000 1.506688e+002
25838887500 -5.309989e+000 1.386615e+002 -2.953261e+001 -4.152017e+001 -2.947982e+001 -4.025425e+001 -2.386460e+000 1.503005e+002
25857631250 -5.251858e+000 1.383385e+002 -2.969771e+001 -4.297990e+001 -2.960254e+001 -4.186817e+001 -2.355958e+000 1.499886e+002
25876375000 -5.206535e+000 1.379681e+002 -2.986826e+001 -4.452230e+001 -2.979967e+001 -4.335910e+001 -2.341354e+000 1.496781e+002
25895118750 -5.157974e+000 1.375851e+002 -3.003858e+001 -4.612019e+001 -2.996024e+001 -4.466093e+001 -2.316477e+000 1.493160e+002
25913862500 -5.107536e+000 1.371798e+002 -3.017695e+001 -4.741152e+001 -3.011499e+001 -4.632008e+001 -2.292593e+000 1.490110e+002
25932606250 -5.056939e+000 1.367925e+002 -3.036313e+001 -4.885060e+001 -3.028414e+001 -4.743060e+001 -2.276267e+000 1.487502e+002
25951350000 -5.014392e+000 1.364201e+002 -3.047666e+001 -5.044131e+001 -3.042287e+001 -4.856693e+001 -2.265285e+000 1.483787e+002
25970093750 -4.969565e+000 1.360272e+002 -3.063064e+001 -5.182618e+001 -3.056397e+001 -4.989087e+001 -2.240505e+000 1.480348e+002
25988837500 -4.928283e+000 1.356115e+002 -3.079316e+001 -5.313737e+001 -3.070913e+001 -5.147149e+001 -2.225244e+000 1.477178e+002
26007581250 -4.884358e+000 1.351639e+002 -3.092829e+001 -5.461946e+001 -3.082343e+001 -5.273947e+001 -2.209640e+000 1.473464e+002
26026325000 -4.842287e+000 1.347433e+002 -3.108286e+001 -5.574999e+001 -3.102276e+001 -5.392037e+001 -2.186221e+000 1.470425e+002
26045068750 -4.800752e+000 1.343410e+002 -3.124453e+001 -5.720068e+001 -3.114979e+001 -5.499531e+001 -2.180284e+000 1.467525e+002
26063812500 -4.766116e+000 1.339106e+002 -3.140138e+001 -5.881884e+001 -3.126363e+001 -5.630978e+001 -2.170909e+000 1.463911e+002
26082556250 -4.726430e+000 1.334692e+002 -3.157123e+001 -6.027951e+001 -3.141995e+001 -5.761170e+001 -2.151901e+000 1.460785e+002
26101300000 -4.690284e+000 1.330351e+002 -3.165919e+001 -6.130233e+001 -3.157564e+001 -5.902538e+001 -2.144962e+000 1.457691e+002
26120043750 -4.649768e+000 1.326065e+002 -3.183931e+001 -6.256318e+001 -3.180448e+001 -6.051151e+001 -2.127784e+000 1.454061e+002
26138787500 -4.610736e+000 1.321698e+002 -3.196413e+001 -6.361839e+001 -3.195261e+001 -6.136906e+001 -2.111673e+000 1.451179e+002
26157531250 -4.574749e+000 1.317238e+002 -3.210070e+001 -6.509076e+001 -3.214134e+001 -6.305406e+001 -2.104774e+000 1.447887e+002
26176275000 -4.544077e+000 1.312638e+002 -3.223253e+001 -6.627565e+001 -3.231157e+001 -6.419104e+001 -2.091169e+000 1.444301e+002
26195018750 -4.513305e+000 1.308051e+002 -3.235492e+001 -6.789837e+001 -3.242778e+001 -6.549400e+001 -2.074723e+000 1.441284e+002
26213762500 -4.477775e+000 1.303306e+002 -3.252224e+001 -6.905228e+001 -3.256004e+001 -6.640562e+001 -2.070569e+000 1.438138e+002
26232506250 -4.444350e+000 1.298427e+002 -3.271138e+001 -7.031307e+001 -3.276551e+001 -6.705154e+001 -2.059705e+000 1.434743e+002
26251250000 -4.407434e+000 1.293938e+002 -3.282687e+001 -7.173707e+001 -3.292625e+001 -6.812099e+001 -2.048191e+000 1.431904e+002
26269993750 -4.376778e+000 1.289801e+002 -3.300728e+001 -7.291124e+001 -3.309199e+001 -6.946545e+001 -2.047483e+000 1.428743e+002
26288737500 -4.351912e+000 1.285303e+002 -3.317091e+001 -7.422088e+001 -3.324425e+001 -7.090345e+001 -2.038943e+000 1.425155e+002
26307481250 -4.320799e+000 1.280733e+002 -3.327629e+001 -7.514811e+001 -3.335419e+001 -7.175291e+001 -2.024622e+000 1.422219e+002
26326225000 -4.291949e+000 1.276145e+002 -3.340849e+001 -7.613029e+001 -3.349590e+001 -7.281953e+001 -2.021376e+000 1.418754e+002
26344968750 -4.261970e+000 1.271693e+002 -3.353152e+001 -7.719760e+001 -3.362549e+001 -7.367989e+001 -2.010301e+000 1.415017e+002
26363712500 -4.230129e+000 1.267478e+002 -3.358048e+001 -7.850312e+001 -3.375434e+001 -7.518835e+001 -2.005149e+000 1.412022e+002
26382456250 -4.202631e+000 1.263456e+002 -3.373868e+001 -7.932535e+001 -3.388094e+001 -7.685340e+001 -2.005333e+000 1.408429e+002
26401200000 -4.180749e+000 1.258998e+002 -3.379395e+001 -8.041410e+001 -3.400412e+001 -7.774127e+001 -1.994413e+000 1.404592e+002
26419943750 -4.156886e+000 1.254499e+002 -3.389821e+001 -8.182993e+001 -3.418299e+001 -7.873538e+001 -1.987271e+000 1.401590e+002
26438687500 -4.133886e+000 1.250129e+002 -3.408653e+001 -8.288485e+001 -3.432777e+001 -8.018349e+001 -1.988496e+000 1.398170e+002
26457431250 -4.109900e+000 1.245135e+002 -3.418865e+001 -8.398598e+001 -3.445179e+001 -8.089511e+001 -1.979409e+000 1.394661e+002
26476175000 -4.084443e+000 1.240584e+002 -3.429100e+001 -8.493710e+001 -3.453952e+001 -8.184607e+001 -1.979570e+000 1.391492e+002
26494918750 -4.061825e+000 1.236357e+002 -3.445296e+001 -8.574371e+001 -3.473169e+001 -8.259476e+001 -1.981656e+000 1.387514e+002
26513662500 -4.046822e+000 1.231734e+002 -3.462254e+001 -8.672997e+001 -3.494921e+001 -8.310375e+001 -1.974950e+000 1.383153e+002
26532406250 -4.026022e+000 1.227264e+002 -3.480479e+001 -8.804161e+001 -3.508698e+001 -8.410303e+001 -1.969429e+000 1.379969e+002
26551150000 -4.010291e+000 1.222586e+002 -3.489235e+001 -8.865874e+001 -3.508607e+001 -8.504899e+001 -1.965944e+000 1.376208e+002
26569893750 -3.986609e+000 1.217980e+002 -3.507606e+001 -9.003033e+001 -3.514790e+001 -8.663783e+001 -1.962167e+000 1.372746e+002
26588637500 -3.966436e+000 1.213925e+002 -3.521678e+001 -9.104506e+001 -3.530914e+001 -8.697224e+001 -1.967061e+000 1.369912e+002
26607381250 -3.951986e+000 1.209849e+002 -3.538662e+001 -9.169168e+001 -3.540060e+001 -8.787244e+001 -1.972923e+000 1.365730e+002
26626125000 -3.937262e+000 1.205390e+002 -3.549733e+001 -9.210199e+001 -3.558082e+001 -8.840629e+001 -1.969405e+000 1.361793e+002
26644868750 -3.921626e+000 1.200621e+002 -3.565726e+001 -9.282247e+001 -3.569296e+001 -8.913891e+001 -1.968662e+000 1.358224e+002
26663612500 -3.908396e+000 1.196191e+002 -3.575173e+001 -9.399867e+001 -3.581725e+001 -8.995248e+001 -1.964401e+000 1.354005e+002
26682356250 -3.890063e+000 1.191713e+002 -3.589567e+001 -9.475706e+001 -3.593464e+001 -9.098827e+001 -1.960274e+000 1.350725e+002
26701100000 -3.870281e+000 1.187577e+002 -3.599596e+001 -9.562995e+001 -3.607936e+001 -9.187405e+001 -1.966595e+000 1.347351e+002
26719843750 -3.859911e+000 1.183367e+002 -3.612421e+001 -9.640318e+001 -3.616583e+001 -9.176161e+001 -1.971704e+000 1.343139e+002
26738587500 -3.851911e+000 1.179011e+002 -3.623327e+001 -9.730757e+001 -3.624989e+001 -9.275961e+001 -1.972181e+000 1.339267e+002
26757331250 -3.837018e+000 1.174536e+002 -3.636149e+001 -9.787482e+001 -3.641289e+001 -9.334856e+001 -1.977759e+000 1.335439e+002
26776075000 -3.825320e+000 1.169909e+002 -3.648746e+001 -9.874666e+001 -3.656324e+001 -9.411315e+001 -1.979904e+000 1.331702e+002
26794818750 -3.809402e+000 1.165498e+002 -3.666824e+001 -9.936874e+001 -3.675803e+001 -9.486734e+001 -1.974465e+000 1.328242e+002
26813562500 -3.794516e+000 1.161415e+002 -3.678637e+001 -9.975726e+001 -3.685906e+001 -9.542595e+001 -1.982673e+000 1.324827e+002
26832306250 -3.785379e+000 1.157424e+002 -3.706504e+001 -1.003333e+002 -3.702360e+001 -9.645140e+001 -1.988704e+000 1.320761e+002
26851050000 -3.775342e+000 1.153159e+002 -3.723728e+001 -1.009065e+002 -3.714233e+001 -9.692624e+001 -1.986227e+000 1.316819e+002
26869793750 -3.768750e+000 1.148664e+002 -3.736990e+001 -1.013453e+002 -3.727924e+001 -9.683270e+001 -1.990787e+000 1.313051e+002
26888537500 -3.757936e+000 1.144440e+002 -3.756521e+001 -1.019038e+002 -3.733361e+001 -9.789122e+001 -1.990901e+000 1.308962e+002
26907281250 -3.744472e+000 1.140305e+002 -3.772292e+001 -1.025791e+002 -3.751091e+001 -9.854779e+001 -1.986531e+000 1.305815e+002
26926025000 -3.731688e+000 1.136535e+002 -3.789896e+001 -1.028399e+002 -3.765937e+001 -9.928417e+001 -1.996105e+000 1.302161e+002
26944768750 -3.721971e+000 1.132655e+002 -3.805935e+001 -1.027016e+002 -3.774880e+001 -1.005907e+002 -1.999069e+000 1.298201e+002
26963512500 -3.715416e+000 1.128220e+002 -3.818140e+001 -1.029394e+002 -3.790446e+001 -1.011103e+002 -1.997525e+000 1.294328e+002
26982256250 -3.705196e+000 1.123974e+002 -3.826309e+001 -1.039994e+002 -3.796832e+001 -1.010893e+002 -2.006876e+000 1.290254e+002
27001000000 -3.702766e+000 1.119803e+002 -3.846917e+001 -1.042313e+002 -3.813548e+001 -1.011750e+002 -2.001393e+000 1.286332e+002
27019743750 -3.688578e+000 1.115430e+002 -3.863355e+001 -1.041304e+002 -3.824858e+001 -1.019842e+002 -2.003394e+000 1.282642e+002
27038487500 -3.676255e+000 1.111684e+002 -3.862529e+001 -1.047278e+002 -3.836378e+001 -1.029292e+002 -2.011907e+000 1.278987e+002
27057231250 -3.669890e+000 1.107934e+002 -3.871563e+001 -1.052573e+002 -3.838352e+001 -1.035458e+002 -2.009754e+000 1.274659e+002
27075975000 -3.666947e+000 1.104254e+002 -3.881113e+001 -1.057824e+002 -3.853603e+001 -1.043063e+002 -2.008264e+000 1.271169e+002
27094718750 -3.657763e+000 1.100228e+002 -3.894286e+001 -1.057814e+002 -3.856462e+001 -1.050275e+002 -2.013121e+000 1.267158e+002
27113462500 -3.654599e+000 1.096013e+002 -3.911670e+001 -1.066626e+002 -3.862603e+001 -1.053257e+002 -2.008138e+000 1.263061e+002
27132206250 -3.646057e+000 1.091828e+002 -3.912267e+001 -1.067158e+002 -3.865486e+001 -1.062159e+002 -2.013241e+000 1.259443e+002
27150950000 -3.635482e+000 1.088104e+002 -3.927255e+001 -1.071640e+002 -3.888295e+001 -1.072115e+002 -2.023590e+000 1.255224e+002
27169693750 -3.628989e+000 1.084513e+002 -3.936240e+001 -1.074994e+002 -3.898410e+001 -1.075162e+002 -2.019221e+000 1.250939e+002
27188437500 -3.628652e+000 1.080528e+002 -3.950820e+001 -1.083704e+002 -3.888110e+001 -1.074244e+002 -2.018228e+000 1.247489e+002
27207181250 -3.626341e+000 1.076412e+002 -3.955632e+001 -1.091280e+002 -3.890451e+001 -1.072379e+002 -2.015284e+000 1.243140e+002
27225925000 -3.624067e+000 1.071928e+002 -3.959343e+001 -1.093212e+002 -3.887224e+001 -1.077867e+002 -2.012200e+000 1.239353e+002
27244668750 -3.615964e+000 1.067786e+002 -3.964937e+001 -1.098246e+002 -3.893929e+001 -1.078946e+002 -2.016692e+000 1.235842e+002
27263412500 -3.612580e+000 1.063818e+002 -3.965669e+001 -1.102618e+002 -3.908905e+001 -1.078207e+002 -2.023608e+000 1.231650e+002
27282156250 -3.608622e+000 1.059996e+002 -3.964812e+001 -1.106705e+002 -3.924789e+001 -1.081729e+002 -2.018998e+000 1.227596e+002
27300900000 -3.605935e+000 1.055672e+002 -3.971910e+001 -1.106737e+002 -3.922419e+001 -1.087039e+002 -2.020924e+000 1.223678e+002
27319643750 -3.603280e+000 1.051400e+002 -3.975146e+001 -1.117806e+002 -3.940148e+001 -1.084158e+002 -2.019015e+000 1.219420e+002
27338387500 -3.599360e+000 1.047106e+002 -3.970605e+001 -1.122119e+002 -3.931313e+001 -1.086322e+002 -2.008919e+000 1.215841e+002
27357131250 -3.595577e+000 1.043029e+002 -3.975663e+001 -1.141165e+002 -3.923075e+001 -1.096466e+002 -2.009549e+000 1.212393e+002
27375875000 -3.591655e+000 1.039080e+002 -3.976380e+001 -1.152994e+002 -3.916970e+001 -1.086618e+002 -2.011010e+000 1.208334e+002
27394618750 -3.593379e+000 1.035048e+002 -3.983419e+001 -1.162314e+002 -3.913460e+001 -1.087362e+002 -2.003553e+000 1.204496e+002
27413362500 -3.594917e+000 1.030764e+002 -3.998872e+001 -1.164878e+002 -3.928269e+001 -1.094068e+002 -2.007840e+000 1.201110e+002
27432106250 -3.591547e+000 1.026562e+002 -3.985217e+001 -1.165647e+002 -3.925832e+001 -1.100301e+002 -2.005139e+000 1.196760e+002
27450850000 -3.594021e+000 1.022341e+002 -3.994306e+001 -1.174023e+002 -3.934344e+001 -1.107436e+002 -1.996318e+000 1.193166e+002
27469593750 -3.589874e+000 1.018071e+002 -4.002309e+001 -1.182637e+002 -3.943190e+001 -1.106293e+002 -2.007654e+000 1.189391e+002
27488337500 -3.588598e+000 1.014037e+002 -4.003996e+001 -1.189355e+002 -3.950378e+001 -1.113231e+002 -2.013069e+000 1.184787e+002
27507081250 -3.590424e+000 1.009989e+002 -3.996755e+001 -1.197879e+002 -3.941216e+001 -1.111313e+002 -2.010265e+000 1.180926e+002
27525825000 -3.590626e+000 1.005918e+002 -3.993830e+001 -1.206211e+002 -3.941029e+001 -1.112426e+002 -2.015066e+000 1.177130e+002
27544568750 -3.588519e+000 1.001912e+002 -3.991732e+001 -1.205892e+002 -3.945501e+001 -1.115061e+002 -2.010975e+000 1.172864e+002
27563312500 -3.587918e+000 9.981147e+001 -4.005767e+001 -1.212273e+002 -3.944058e+001 -1.111855e+002 -1.998212e+000 1.169775e+002
27582056250 -3.586246e+000 9.940328e+001 -3.995822e+001 -1.215967e+002 -3.943103e+001 -1.115251e+002 -2.003586e+000 1.166496e+002
27600800000 -3.589763e+000 9.900076e+001 -3.997362e+001 -1.217348e+002 -3.938596e+001 -1.125607e+002 -2.000252e+000 1.162417e+002
27619543750 -3.588080e+000 9.860052e+001 -3.998059e+001 -1.219873e+002 -3.952256e+001 -1.137287e+002 -1.993985e+000 1.158868e+002
27638287500 -3.584039e+000 9.822894e+001 -4.005753e+001 -1.223460e+002 -3.958745e+001 -1.152057e+002 -2.003707e+000 1.155226e+002
27657031250 -3.585712e+000 9.784884e+001 -4.013648e+001 -1.234265e+002 -3.966863e+001 -1.156165e+002 -1.993164e+000 1.150999e+002
27675775000 -3.590525e+000 9.741107e+001 -4.020041e+001 -1.253080e+002 -3.971621e+001 -1.167192e+002 -1.983513e+000 1.148009e+002
27694518750 -3.587749e+000 9.701196e+001 -4.019081e+001 -1.259911e+002 -3.962861e+001 -1.175054e+002 -1.986817e+000 1.144650e+002
27713262500 -3.592699e+000 9.662131e+001 -4.025709e+001 -1.265205e+002 -3.954954e+001 -1.184140e+002 -1.983739e+000 1.140539e+002
27732006250 -3.599204e+000 9.627586e+001 -4.018075e+001 -1.276137e+002 -3.962745e+001 -1.194395e+002 -1.974844e+000 1.137643e+002
27750750000 -3.600101e+000 9.589199e+001 -4.017633e+001 -1.276608e+002 -3.955227e+001 -1.209884e+002 -1.985202e+000 1.133821e+002
27769493750 -3.606952e+000 9.548595e+001 -4.020284e+001 -1.280444e+002 -3.958780e+001 -1.220693e+002 -1.978270e+000 1.129598e+002
27788237500 -3.610422e+000 9.506306e+001 -4.022013e+001 -1.276382e+002 -3.985082e+001 -1.228593e+002 -1.976972e+000 1.126718e+002
27806981250 -3.613914e+000 9.466024e+001 -4.019862e+001 -1.285164e+002 -3.988426e+001 -1.245493e+002 -1.987607e+000 1.123115e+002
27825725000 -3.613187e+000 9.430145e+001 -4.017336e+001 -1.292188e+002 -3.990706e+001 -1.252271e+002 -1.987558e+000 1.119170e+002
27844468750 -3.617589e+000 9.391928e+001 -4.004788e+001 -1.304386e+002 -3.986877e+001 -1.258936e+002 -1.986021e+000 1.115765e+002
27863212500 -3.620672e+000 9.354928e+001 -4.004221e+001 -1.317162e+002 -4.002380e+001 -1.265088e+002 -1.991369e+000 1.111804e+002
27881956250 -3.626823e+000 9.315437e+001 -3.990320e+001 -1.322854e+002 -3.982969e+001 -1.264736e+002 -1.981077e+000 1.107970e+002
27900700000 -3.633480e+000 9.271217e+001 -3.993610e+001 -1.331188e+002 -3.980766e+001 -1.277369e+002 -1.970005e+000 1.105563e+002
27919443750 -3.638111e+000 9.232599e+001 -4.013866e+001 -1.338359e+002 -3.980480e+001 -1.284826e+002 -1.977005e+000 1.102327e+002
27938187500 -3.641785e+000 9.194013e+001 -4.010804e+001 -1.339481e+002 -3.992558e+001 -1.298320e+002 -1.967750e+000 1.098477e+002
27956931250 -3.650706e+000 9.155510e+001 -4.018649e+001 -1.342347e+002 -4.003529e+001 -1.310519e+002 -1.968014e+000 1.095688e+002
27975675000 -3.658122e+000 9.116644e+001 -4.021578e+001 -1.346239e+002 -3.999784e+001 -1.320868e+002 -1.974334e+000 1.092001e+002
27994418750 -3.670619e+000 9.075117e+001 -4.025504e+001 -1.355694e+002 -4.012836e+001 -1.335465e+002 -1.964588e+000 1.088188e+002
28013162500 -3.677302e+000 9.035490e+001 -4.031416e+001 -1.365184e+002 -4.000419e+001 -1.341738e+002 -1.961612e+000 1.085543e+002
28031906250 -3.678853e+000 8.997773e+001 -4.042773e+001 -1.379636e+002 -4.019031e+001 -1.343173e+002 -1.968549e+000 1.082205e+002
28050650000 -3.689109e+000 8.957400e+001 -4.031400e+001 -1.387829e+002 -4.027072e+001 -1.357542e+002 -1.964638e+000 1.078919e+002
28069393750 -3.701869e+000 8.915649e+001 -4.022822e+001 -1.397758e+002 -4.025812e+001 -1.366904e+002 -1.967886e+000 1.076067e+002
28088137500 -3.710761e+000 8.878339e+001 -4.015860e+001 -1.402294e+002 -4.026058e+001 -1.377514e+002 -1.977623e+000 1.072382e+002
28106881250 -3.723036e+000 8.841190e+001 -4.009738e+001 -1.402602e+002 -4.023957e+001 -1.380956e+002 -1.969031e+000 1.069110e+002
28125625000 -3.730455e+000 8.800885e+001 -4.008535e+001 -1.415823e+002 -4.016927e+001 -1.385076e+002 -1.974008e+000 1.066381e+002
28144368750 -3.738958e+000 8.763245e+001 -4.008076e+001 -1.427241e+002 -4.014867e+001 -1.387179e+002 -1.979173e+000 1.062790e+002
28163112500 -3.749469e+000 8.725433e+001 -4.009405e+001 -1.440247e+002 -4.019147e+001 -1.401884e+002 -1.976524e+000 1.059501e+002
28181856250 -3.760669e+000 8.688293e+001 -4.015665e+001 -1.449562e+002 -4.026206e+001 -1.406912e+002 -1.981047e+000 1.056818e+002
28200600000 -3.770941e+000 8.657533e+001 -4.031737e+001 -1.459159e+002 -4.034180e+001 -1.413405e+002 -1.985442e+000 1.053389e+002
28219343750 -3.785928e+000 8.620448e+001 -4.016622e+001 -1.471180e+002 -4.026207e+001 -1.423100e+002 -1.976605e+000 1.050862e+002
28238087500 -3.792258e+000 8.581960e+001 -4.015224e+001 -1.479053e+002 -4.034167e+001 -1.435430e+002 -1.977231e+000 1.048276e+002
28256831250 -3.802064e+000 8.548733e+001 -4.018932e+001 -1.488872e+002 -4.033307e+001 -1.451523e+002 -1.980771e+000 1.045360e+002
28275575000 -3.815916e+000 8.515203e+001 -4.040728e+001 -1.490761e+002 -4.051347e+001 -1.463124e+002 -1.976333e+000 1.042666e+002
28294318750 -3.826023e+000 8.481371e+001 -4.053396e+001 -1.497014e+002 -4.049068e+001 -1.467659e+002 -1.984618e+000 1.039952e+002
28313062500 -3.840052e+000 8.449593e+001 -4.077925e+001 -1.513730e+002 -4.056651e+001 -1.483390e+002 -1.983041e+000 1.036870e+002
28331806250 -3.858840e+000 8.417831e+001 -4.084540e+001 -1.518277e+002 -4.063937e+001 -1.495933e+002 -1.976687e+000 1.034033e+002
28350550000 -3.868591e+000 8.384077e+001 -4.081605e+001 -1.524934e+002 -4.089218e+001 -1.504532e+002 -1.984146e+000 1.031800e+002
28369293750 -3.886080e+000 8.353318e+001 -4.111928e+001 -1.540233e+002 -4.091822e+001 -1.516821e+002 -1.989921e+000 1.028820e+002
28388037500 -3.897103e+000 8.318111e+001 -4.114085e+001 -1.554371e+002 -4.109436e+001 -1.529338e+002 -1.996013e+000 1.026113e+002
28406781250 -3.907309e+000 8.286913e+001 -4.117781e+001 -1.570222e+002 -4.130183e+001 -1.533974e+002 -2.007805e+000 1.023174e+002
28425525000 -3.916441e+000 8.258717e+001 -4.117100e+001 -1.579979e+002 -4.136180e+001 -1.543151e+002 -2.008637e+000 1.019912e+002
28444268750 -3.933256e+000 8.224246e+001 -4.130855e+001 -1.588411e+002 -4.155385e+001 -1.560424e+002 -2.011575e+000 1.017237e+002
28463012500 -3.949664e+000 8.193212e+001 -4.126807e+001 -1.606066e+002 -4.157925e+001 -1.577869e+002 -2.019483e+000 1.014560e+002
28481756250 -3.964563e+000 8.168511e+001 -4.138779e+001 -1.621248e+002 -4.161329e+001 -1.587396e+002 -2.021930e+000 1.011464e+002
28500500000 -3.977248e+000 8.139131e+001 -4.163138e+001 -1.618823e+002 -4.172086e+001 -1.588743e+002 -2.023687e+000 1.008954e+002
28519243750 -3.987003e+000 8.112692e+001 -4.186760e+001 -1.625124e+002 -4.195990e+001 -1.602289e+002 -2.030864e+000 1.006251e+002
28537987500 -3.997794e+000 8.087946e+001 -4.211558e+001 -1.630057e+002 -4.209098e+001 -1.597447e+002 -2.035014e+000 1.003152e+002
28556731250 -4.012478e+000 8.060082e+001 -4.232316e+001 -1.629969e+002 -4.233364e+001 -1.606713e+002 -2.034943e+000 1.000505e+002
28575475000 -4.017591e+000 8.030847e+001 -4.247003e+001 -1.627442e+002 -4.239749e+001 -1.614741e+002 -2.048777e+000 9.977059e+001
28594218750 -4.024723e+000 8.001731e+001 -4.281209e+001 -1.626335e+002 -4.252339e+001 -1.614725e+002 -2.054376e+000 9.946987e+001
28612962500 -4.033609e+000 7.971606e+001 -4.303191e+001 -1.634836e+002 -4.268521e+001 -1.611035e+002 -2.055951e+000 9.918881e+001
28631706250 -4.038786e+000 7.943132e+001 -4.315521e+001 -1.630340e+002 -4.282426e+001 -1.614730e+002 -2.062010e+000 9.887590e+001
28650450000 -4.051616e+000 7.915199e+001 -4.337965e+001 -1.631680e+002 -4.339273e+001 -1.605965e+002 -2.062593e+000 9.854489e+001
28669193750 -4.065421e+000 7.886882e+001 -4.361230e+001 -1.630622e+002 -4.357212e+001 -1.596367e+002 -2.067649e+000 9.831302e+001
28687937500 -4.071578e+000 7.858754e+001 -4.374628e+001 -1.619126e+002 -4.386443e+001 -1.589619e+002 -2.076937e+000 9.799197e+001
28706681250 -4.084782e+000 7.829361e+001 -4.385161e+001 -1.620166e+002 -4.401968e+001 -1.578401e+002 -2.083902e+000 9.768962e+001
28725425000 -4.092022e+000 7.799227e+001 -4.409958e+001 -1.620741e+002 -4.425703e+001 -1.584966e+002 -2.093149e+000 9.741373e+001
28744168750 -4.097070e+000 7.772419e+001 -4.401571e+001 -1.615028e+002 -4.451303e+001 -1.582351e+002 -2.106196e+000 9.708503e+001
28762912500 -4.107889e+000 7.746384e+001 -4.409574e+001 -1.612497e+002 -4.472214e+001 -1.565498e+002 -2.110139e+000 9.675668e+001
28781656250 -4.115908e+000 7.714541e+001 -4.414949e+001 -1.604553e+002 -4.472516e+001 -1.572045e+002 -2.111144e+000 9.645668e+001
28800400000 -4.120247e+000 7.685932e+001 -4.415697e+001 -1.597802e+002 -4.485454e+001 -1.568919e+002 -2.119164e+000 9.617297e+001
28819143750 -4.133626e+000 7.658145e+001 -4.428238e+001 -1.597539e+002 -4.494844e+001 -1.554694e+002 -2.120488e+000 9.587679e+001
28837887500 -4.141301e+000 7.627670e+001 -4.441693e+001 -1.592785e+002 -4.498340e+001 -1.560969e+002 -2.126863e+000 9.560416e+001
28856631250 -4.153665e+000 7.599156e+001 -4.484545e+001 -1.580282e+002 -4.521070e+001 -1.540727e+002 -2.140743e+000 9.527806e+001
28875375000 -4.167369e+000 7.573023e+001 -4.485466e+001 -1.570079e+002 -4.544981e+001 -1.531000e+002 -2.143708e+000 9.496943e+001
28894118750 -4.174908e+000 7.542228e+001 -4.505661e+001 -1.543506e+002 -4.560308e+001 -1.525144e+002 -2.158198e+000 9.465297e+001
28912862500 -4.183554e+000 7.511148e+001 -4.529107e+001 -1.529263e+002 -4.564820e+001 -1.512879e+002 -2.171005e+000 9.431870e+001
28931606250 -4.196800e+000 7.480492e+001 -4.516174e+001 -1.528242e+002 -4.578949e+001 -1.510866e+002 -2.177885e+000 9.397143e+001
28950350000 -4.206572e+000 7.448736e+001 -4.519587e+001 -1.524093e+002 -4.579350e+001 -1.493105e+002 -2.192499e+000 9.365514e+001
28969093750 -4.218049e+000 7.421999e+001 -4.509415e+001 -1.529528e+002 -4.579408e+001 -1.504983e+002 -2.198512e+000 9.330335e+001
28987837500 -4.234601e+000 7.394263e+001 -4.503361e+001 -1.520983e+002 -4.572541e+001 -1.493262e+002 -2.205715e+000 9.302423e+001
29006581250 -4.247509e+000 7.366434e+001 -4.534473e+001 -1.511313e+002 -4.596108e+001 -1.485137e+002 -2.221225e+000 9.277880e+001
29025325000 -4.262703e+000 7.339647e+001 -4.516360e+001 -1.504012e+002 -4.585221e+001 -1.481477e+002 -2.239594e+000 9.242426e+001
29044068750 -4.278141e+000 7.309815e+001 -4.503409e+001 -1.496224e+002 -4.570008e+001 -1.484342e+002 -2.252158e+000 9.209587e+001
29062812500 -4.292132e+000 7.279384e+001 -4.495652e+001 -1.496903e+002 -4.575685e+001 -1.486274e+002 -2.273585e+000 9.175173e+001
29081556250 -4.303216e+000 7.257660e+001 -4.488969e+001 -1.492286e+002 -4.522394e+001 -1.489775e+002 -2.286208e+000 9.135991e+001
29100300000 -4.319645e+000 7.231912e+001 -4.469754e+001 -1.485526e+002 -4.507401e+001 -1.499302e+002 -2.292836e+000 9.102240e+001
29119043750 -4.340443e+000 7.206893e+001 -4.467909e+001 -1.485286e+002 -4.494336e+001 -1.502607e+002 -2.311683e+000 9.069123e+001
29137787500 -4.353818e+000 7.180184e+001 -4.451592e+001 -1.478868e+002 -4.468866e+001 -1.515760e+002 -2.322611e+000 9.031090e+001
29156531250 -4.369977e+000 7.151634e+001 -4.432369e+001 -1.480289e+002 -4.446793e+001 -1.513275e+002 -2.332156e+000 9.000310e+001
29175275000 -4.379660e+000 7.124828e+001 -4.429748e+001 -1.481641e+002 -4.427129e+001 -1.510279e+002 -2.352458e+000 8.965092e+001
29194018750 -4.388943e+000 7.103636e+001 -4.420604e+001 -1.481457e+002 -4.417185e+001 -1.520624e+002 -2.365758e+000 8.927300e+001
29212762500 -4.405227e+000 7.080334e+001 -4.409266e+001 -1.492455e+002 -4.405038e+001 -1.509509e+002 -2.378806e+000 8.895044e+001
29231506250 -4.414191e+000 7.056557e+001 -4.397967e+001 -1.499195e+002 -4.388276e+001 -1.511814e+002 -2.399480e+000 8.858796e+001
29250250000 -4.431518e+000 7.034019e+001 -4.390124e+001 -1.493995e+002 -4.359870e+001 -1.521409e+002 -2.415314e+000 8.814751e+001
29268993750 -4.445428e+000 7.007202e+001 -4.382183e+001 -1.497211e+002 -4.360633e+001 -1.519479e+002 -2.428439e+000 8.779829e+001
29287737500 -4.449449e+000 6.984237e+001 -4.338847e+001 -1.508137e+002 -4.340993e+001 -1.535775e+002 -2.447821e+000 8.742844e+001
29306481250 -4.462021e+000 6.964427e+001 -4.330022e+001 -1.520822e+002 -4.301763e+001 -1.537602e+002 -2.455022e+000 8.704919e+001
29325225000 -4.474760e+000 6.943135e+001 -4.309794e+001 -1.538678e+002 -4.286166e+001 -1.540678e+002 -2.464249e+000 8.673531e+001
29343968750 -4.487827e+000 6.924137e+001 -4.280422e+001 -1.543749e+002 -4.276698e+001 -1.550030e+002 -2.484456e+000 8.635802e+001
29362712500 -4.501823e+000 6.903561e+001 -4.281808e+001 -1.551110e+002 -4.258491e+001 -1.552882e+002 -2.494858e+000 8.595301e+001
29381456250 -4.509276e+000 6.876862e+001 -4.261657e+001 -1.556492e+002 -4.232603e+001 -1.560324e+002 -2.507638e+000 8.557993e+001
29400200000 -4.511031e+000 6.854692e+001 -4.250984e+001 -1.554727e+002 -4.221636e+001 -1.560151e+002 -2.528332e+000 8.517419e+001
29418943750 -4.519269e+000 6.834774e+001 -4.239710e+001 -1.565793e+002 -4.218717e+001 -1.573838e+002 -2.534837e+000 8.475504e+001
29437687500 -4.531028e+000 6.814805e+001 -4.197569e+001 -1.581026e+002 -4.199078e+001 -1.593550e+002 -2.542093e+000 8.437720e+001
29456431250 -4.538709e+000 6.796781e+001 -4.193272e+001 -1.590594e+002 -4.190167e+001 -1.606108e+002 -2.559174e+000 8.398943e+001
29475175000 -4.551027e+000 6.776658e+001 -4.184119e+001 -1.600135e+002 -4.190351e+001 -1.616645e+002 -2.568292e+000 8.361092e+001
29493918750 -4.554229e+000 6.752856e+001 -4.173120e+001 -1.612128e+002 -4.173427e+001 -1.623986e+002 -2.583414e+000 8.325610e+001
29512662500 -4.556077e+000 6.733920e+001 -4.171941e+001 -1.620605e+002 -4.161011e+001 -1.627241e+002 -2.601185e+000 8.283372e+001
29531406250 -4.563796e+000 6.718231e+001 -4.170080e+001 -1.631492e+002 -4.151267e+001 -1.629446e+002 -2.608558e+000 8.244563e+001
29550150000 -4.569406e+000 6.699014e+001 -4.149866e+001 -1.644812e+002 -4.141328e+001 -1.629783e+002 -2.623509e+000 8.209752e+001
29568893750 -4.577662e+000 6.683344e+001 -4.141627e+001 -1.660716e+002 -4.141508e+001 -1.638560e+002 -2.644104e+000 8.167070e+001
29587637500 -4.588686e+000 6.662553e+001 -4.126557e+001 -1.665418e+002 -4.138264e+001 -1.645228e+002 -2.655231e+000 8.124039e+001
29606381250 -4.586645e+000 6.640768e+001 -4.115536e+001 -1.673253e+002 -4.135794e+001 -1.650148e+002 -2.668934e+000 8.085255e+001
29625125000 -4.586327e+000 6.622340e+001 -4.106118e+001 -1.692481e+002 -4.112472e+001 -1.660535e+002 -2.683518e+000 8.042992e+001
29643868750 -4.590941e+000 6.607172e+001 -4.106343e+001 -1.702750e+002 -4.095091e+001 -1.678561e+002 -2.690781e+000 8.002677e+001
29662612500 -4.596663e+000 6.587923e+001 -4.096280e+001 -1.715244e+002 -4.094324e+001 -1.685129e+002 -2.708488e+000 7.963894e+001
29681356250 -4.602405e+000 6.569799e+001 -4.073908e+001 -1.735822e+002 -4.096281e+001 -1.695182e+002 -2.725961e+000 7.923691e+001
29700100000 -4.610961e+000 6.546758e+001 -4.063602e+001 -1.749910e+002 -4.078397e+001 -1.714829e+002 -2.735966e+000 7.880015e+001
29718843750 -4.612610e+000 6.523456e+001 -4.059648e+001 -1.770250e+002 -4.057484e+001 -1.728086e+002 -2.749270e+000 7.840247e+001
29737587500 -4.608736e+000 6.507394e+001 -4.057206e+001 -1.785031e+002 -4.062467e+001 -1.751404e+002 -2.761100e+000 7.794247e+001
29756331250 -4.616267e+000 6.489373e+001 -4.054274e+001 -1.797726e+002 -4.049836e+001 -1.763264e+002 -2.771861e+000 7.755744e+001
29775075000 -4.619246e+000 6.469893e+001 -4.061459e+001 1.779669e+002 -4.061605e+001 -1.778573e+002 -2.788485e+000 7.719265e+001
29793818750 -4.623106e+000 6.448274e+001 -4.056978e+001 1.757201e+002 -4.053730e+001 1.797983e+002 -2.806524e+000 7.681718e+001
29812562500 -4.636803e+000 6.428794e+001 -4.056807e+001 1.737085e+002 -4.048415e+001 1.773723e+002 -2.816208e+000 7.646243e+001
29831306250 -4.648756e+000 6.402366e+001 -4.056894e+001 1.717769e+002 -4.044367e+001 1.749058e+002 -2.831606e+000 7.613712e+001
29850050000 -4.651791e+000 6.380233e+001 -4.056700e+001 1.697072e+002 -4.035017e+001 1.726106e+002 -2.851331e+000 7.576668e+001
29868793750 -4.657578e+000 6.359150e+001 -4.054459e+001 1.676380e+002 -4.021914e+001 1.710613e+002 -2.860062e+000 7.543258e+001
29887537500 -4.661045e+000 6.337954e+001 -4.046132e+001 1.654250e+002 -4.021716e+001 1.698322e+002 -2.868177e+000 7.514726e+001
29906281250 -4.665033e+000 6.323956e+001 -4.041745e+001 1.637689e+002 -4.011650e+001 1.679311e+002 -2.880898e+000 7.483852e+001
29925025000 -4.678922e+000 6.307302e+001 -4.040631e+001 1.619533e+002 -4.007441e+001 1.663634e+002 -2.885805e+000 7.458636e+001
29943768750 -4.687018e+000 6.284317e+001 -4.032441e+001 1.601911e+002 -4.002181e+001 1.641860e+002 -2.897806e+000 7.437532e+001
29962512500 -4.687506e+000 6.265441e+001 -4.032954e+001 1.581646e+002 -4.000114e+001 1.619529e+002 -2.912844e+000 7.409792e+001
29981256250 -4.690716e+000 6.247126e+001 -4.038577e+001 1.562768e+002 -3.991404e+001 1.594061e+002 -2.915964e+000 7.386938e+001
30000000000 -4.689907e+000 6.232363e+001 -4.037067e+001 1.547305e+002 -3.981531e+001 1.579144e+002 -2.921041e+000 7.371210e+001
