!Agilent Technologies,E8364B,MY43040894,A.07.50.67
!Agilent E8364B: A.07.50.67
!Date: Tuesday, May 12, 2020 09:45:26
!Correction: S11(Full 2 Port(1,2)) 
!S21(Full 2 Port(1,2)) 
!S12(Full 2 Port(1,2)) 
!S22(Full 2 Port(1,2)) 
!S2P File: Measurements: S11, S21, S12, S22:
# Hz S  dB   R 50
10000000 -5.519761e-001 -8.949394e+000 -4.732962e+001 4.947195e+001 -4.632233e+001 1.707318e+001 3.414413e-002 -2.195998e+000
28743750 -5.715061e-001 -1.024776e+001 -4.829146e+001 4.579327e+001 -4.727564e+001 1.533962e+001 2.654388e-002 -2.577807e+000
47487500 -5.924277e-001 -1.166810e+001 -4.937737e+001 3.493328e+001 -4.869548e+001 1.342750e+001 1.905488e-002 -3.005017e+000
66231250 -6.128932e-001 -1.317336e+001 -5.011676e+001 2.705836e+001 -5.024047e+001 3.707793e+000 1.178516e-002 -3.437301e+000
84975000 -6.355882e-001 -1.477838e+001 -5.071532e+001 1.975502e+001 -5.110101e+001 -1.241662e+001 3.730299e-003 -3.913029e+000
103718750 -6.646863e-001 -1.649726e+001 -5.136980e+001 1.292615e+001 -5.209526e+001 -3.079096e+001 -3.178874e-003 -4.411633e+000
122462500 -6.932815e-001 -1.829743e+001 -5.217634e+001 7.768160e+000 -5.291267e+001 -4.881097e+001 -8.630271e-003 -4.935177e+000
141206250 -7.225024e-001 -2.020222e+001 -5.300367e+001 3.870104e-002 -5.375007e+001 -6.926351e+001 -1.546786e-002 -5.492971e+000
159950000 -7.553262e-001 -2.221272e+001 -5.373926e+001 -9.625531e+000 -5.474619e+001 -8.417477e+001 -2.038211e-002 -6.085389e+000
178693750 -7.901941e-001 -2.431844e+001 -5.431267e+001 -1.897752e+001 -5.582813e+001 -9.706557e+001 -2.662583e-002 -6.697121e+000
197437500 -8.240057e-001 -2.650257e+001 -5.502697e+001 -2.490004e+001 -5.712574e+001 -1.100716e+002 -3.164708e-002 -7.351688e+000
216181250 -8.623197e-001 -2.878057e+001 -5.574294e+001 -2.886609e+001 -5.814742e+001 -1.268487e+002 -3.595662e-002 -8.022138e+000
234925000 -9.003342e-001 -3.116724e+001 -5.643050e+001 -3.352034e+001 -5.883125e+001 -1.440926e+002 -4.047679e-002 -8.731236e+000
253668750 -9.401696e-001 -3.351369e+001 -5.659132e+001 -3.066042e+001 -5.899486e+001 -1.616846e+002 -3.639447e-002 -9.414392e+000
272412500 -9.799789e-001 -3.582228e+001 -5.727414e+001 -3.833006e+001 -5.933971e+001 1.749802e+002 -3.055928e-002 -1.008484e+001
291156250 -1.018283e+000 -3.812391e+001 -5.769779e+001 -4.096879e+001 -5.981927e+001 1.486909e+002 -2.431750e-002 -1.077194e+001
309900000 -1.056656e+000 -4.041137e+001 -5.804184e+001 -4.414941e+001 -6.008086e+001 1.199846e+002 -1.985536e-002 -1.146021e+001
328643750 -1.096404e+000 -4.267076e+001 -5.826804e+001 -4.678613e+001 -6.049060e+001 9.645010e+001 -1.474285e-002 -1.213867e+001
347387500 -1.136279e+000 -4.492710e+001 -5.825613e+001 -4.961448e+001 -6.064175e+001 7.289128e+001 -8.866120e-003 -1.283587e+001
366131250 -1.174069e+000 -4.714622e+001 -5.911153e+001 -5.305530e+001 -6.124132e+001 5.550104e+001 -4.191037e-003 -1.352121e+001
384875000 -1.216281e+000 -4.933215e+001 -5.953836e+001 -5.973673e+001 -6.249094e+001 4.640820e+001 1.255867e-004 -1.419596e+001
403618750 -1.257928e+000 -5.154407e+001 -5.933946e+001 -6.481348e+001 -6.242247e+001 2.795144e+001 3.291993e-003 -1.488248e+001
422362500 -1.296932e+000 -5.372231e+001 -5.935345e+001 -6.448344e+001 -6.233632e+001 2.464162e+000 7.227367e-003 -1.555905e+001
441106250 -1.336796e+000 -5.586359e+001 -5.937445e+001 -6.976063e+001 -6.286179e+001 -1.441813e+001 1.061458e-002 -1.623180e+001
459850000 -1.376891e+000 -5.801147e+001 -5.951474e+001 -7.787450e+001 -6.345787e+001 -2.175616e+001 1.407409e-002 -1.691690e+001
478593750 -1.415657e+000 -6.012010e+001 -5.924988e+001 -8.662099e+001 -6.330561e+001 -3.094523e+001 1.703917e-002 -1.758057e+001
497337500 -1.456294e+000 -6.223520e+001 -5.953026e+001 -9.560217e+001 -6.277646e+001 -3.303569e+001 1.975428e-002 -1.827010e+001
516081250 -1.497838e+000 -6.432211e+001 -6.013676e+001 -1.037374e+002 -6.333535e+001 -3.514588e+001 2.242201e-002 -1.894393e+001
534825000 -1.534657e+000 -6.638014e+001 -6.070722e+001 -1.178828e+002 -6.353727e+001 -3.460996e+001 2.470581e-002 -1.962828e+001
553568750 -1.573401e+000 -6.844225e+001 -6.143018e+001 -1.262574e+002 -6.358707e+001 -3.491539e+001 2.503550e-002 -2.032051e+001
572312500 -1.613069e+000 -7.047614e+001 -6.158802e+001 -1.316378e+002 -6.393256e+001 -2.532276e+001 2.502947e-002 -2.100853e+001
591056250 -1.651045e+000 -7.249671e+001 -6.186488e+001 -1.318693e+002 -6.424538e+001 -2.279250e+001 2.381352e-002 -2.168275e+001
609800000 -1.688367e+000 -7.449472e+001 -6.233633e+001 -1.257778e+002 -6.425938e+001 -2.753596e+001 2.425201e-002 -2.238384e+001
628543750 -1.729104e+000 -7.648544e+001 -6.269440e+001 -1.253574e+002 -6.420065e+001 -3.291388e+001 2.404943e-002 -2.306953e+001
647287500 -1.766492e+000 -7.847074e+001 -6.293695e+001 -1.265494e+002 -6.425258e+001 -2.842000e+001 2.263164e-002 -2.376800e+001
666031250 -1.803965e+000 -8.042636e+001 -6.327905e+001 -1.204444e+002 -6.478195e+001 -3.107858e+001 2.036969e-002 -2.446545e+001
684775000 -1.842761e+000 -8.235332e+001 -6.357631e+001 -1.089615e+002 -6.508193e+001 -3.122470e+001 1.660164e-002 -2.516385e+001
703518750 -1.880615e+000 -8.429790e+001 -6.388476e+001 -9.878934e+001 -6.506754e+001 -3.051681e+001 1.210859e-002 -2.587296e+001
722262500 -1.918830e+000 -8.620354e+001 -6.410549e+001 -8.447818e+001 -6.481197e+001 -2.825844e+001 7.390782e-003 -2.658416e+001
741006250 -1.959201e+000 -8.809042e+001 -6.388981e+001 -6.845316e+001 -6.488759e+001 -2.267320e+001 2.474836e-003 -2.728400e+001
759750000 -1.997429e+000 -8.996738e+001 -6.441322e+001 -4.903949e+001 -6.504497e+001 -1.851789e+001 -3.668598e-003 -2.798755e+001
778493750 -2.032209e+000 -9.182443e+001 -6.441812e+001 -3.232899e+001 -6.576522e+001 -1.949160e+001 -1.003801e-002 -2.869245e+001
797237500 -2.069477e+000 -9.368026e+001 -6.497329e+001 -1.620700e+001 -6.596275e+001 -2.490113e+001 -1.575190e-002 -2.939482e+001
815981250 -2.104634e+000 -9.553081e+001 -6.505666e+001 -6.921248e-002 -6.519538e+001 -2.998664e+001 -2.030035e-002 -3.010919e+001
834725000 -2.138327e+000 -9.733928e+001 -6.531231e+001 4.519894e+000 -6.550120e+001 -2.822279e+001 -2.436073e-002 -3.081922e+001
853468750 -2.174388e+000 -9.913512e+001 -6.584132e+001 2.599766e-001 -6.602406e+001 -3.037946e+001 -3.103022e-002 -3.153268e+001
872212500 -2.209148e+000 -1.009395e+002 -6.628242e+001 -2.205725e+000 -6.624020e+001 -3.015550e+001 -3.943744e-002 -3.225811e+001
890956250 -2.244407e+000 -1.027085e+002 -6.620601e+001 1.206638e+000 -6.581470e+001 -3.607620e+001 -4.633560e-002 -3.297258e+001
909700000 -2.278515e+000 -1.044725e+002 -6.639456e+001 1.452016e+001 -6.613390e+001 -4.589147e+001 -5.368797e-002 -3.369483e+001
928443750 -2.313129e+000 -1.062146e+002 -6.663950e+001 2.726392e+001 -6.634219e+001 -5.449762e+001 -6.231200e-002 -3.440077e+001
947187500 -2.346852e+000 -1.079467e+002 -6.635680e+001 3.649145e+001 -6.591148e+001 -5.031887e+001 -6.966669e-002 -3.511766e+001
965931250 -2.379952e+000 -1.096789e+002 -6.633385e+001 4.750224e+001 -6.614316e+001 -4.360105e+001 -7.854078e-002 -3.583212e+001
984675000 -2.413900e+000 -1.113869e+002 -6.607372e+001 5.649929e+001 -6.680397e+001 -3.488149e+001 -8.812719e-002 -3.655308e+001
1003418750 -2.448495e+000 -1.130821e+002 -6.656071e+001 5.741575e+001 -6.717726e+001 -3.135799e+001 -9.428946e-002 -3.727403e+001
1022162500 -2.479880e+000 -1.147512e+002 -6.670779e+001 6.209857e+001 -6.696936e+001 -3.129953e+001 -1.029588e-001 -3.799954e+001
1040906250 -2.512371e+000 -1.164118e+002 -6.667809e+001 6.107477e+001 -6.729879e+001 -2.232179e+001 -1.120926e-001 -3.871723e+001
1059650000 -2.543244e+000 -1.180657e+002 -6.705289e+001 6.840093e+001 -6.743755e+001 -1.832429e+001 -1.230550e-001 -3.941797e+001
1078393750 -2.574020e+000 -1.196968e+002 -6.735703e+001 7.063760e+001 -6.747211e+001 -2.284743e+001 -1.339976e-001 -4.013527e+001
1097137500 -2.607662e+000 -1.213215e+002 -6.748189e+001 6.169123e+001 -6.744886e+001 -1.686650e+001 -1.431423e-001 -4.083715e+001
1115881250 -2.639478e+000 -1.229399e+002 -6.721835e+001 4.175279e+001 -6.777588e+001 -1.709267e+001 -1.533540e-001 -4.153821e+001
1134625000 -2.671335e+000 -1.245455e+002 -6.712762e+001 2.417997e+001 -6.811916e+001 -2.113615e+001 -1.612023e-001 -4.225122e+001
1153368750 -2.699950e+000 -1.261263e+002 -6.734366e+001 -2.498906e+000 -6.829140e+001 -1.896718e+001 -1.686557e-001 -4.296336e+001
1172112500 -2.729485e+000 -1.276866e+002 -6.760728e+001 -3.101365e+001 -6.886492e+001 -2.865696e+001 -1.779391e-001 -4.367406e+001
1190856250 -2.757874e+000 -1.292399e+002 -6.794264e+001 -6.789300e+001 -6.911293e+001 -3.359324e+001 -1.851385e-001 -4.439391e+001
1209600000 -2.787933e+000 -1.307910e+002 -6.801439e+001 -9.935725e+001 -6.831133e+001 -3.149551e+001 -1.925334e-001 -4.510533e+001
1228343750 -2.816957e+000 -1.323393e+002 -6.734296e+001 -1.246919e+002 -6.855929e+001 -2.442819e+001 -2.009492e-001 -4.581369e+001
1247087500 -2.846178e+000 -1.338662e+002 -6.708448e+001 -1.505492e+002 -6.898665e+001 -2.533086e+001 -2.088174e-001 -4.651928e+001
1265831250 -2.874468e+000 -1.353900e+002 -6.714040e+001 -1.684132e+002 -6.886713e+001 -2.556919e+001 -2.172957e-001 -4.722527e+001
1284575000 -2.902671e+000 -1.368915e+002 -6.722646e+001 -1.785459e+002 -6.851459e+001 -1.591034e+001 -2.248905e-001 -4.793327e+001
1303318750 -2.932746e+000 -1.383784e+002 -6.786564e+001 1.670646e+002 -6.882803e+001 -1.080490e+001 -2.305561e-001 -4.863375e+001
1322062500 -2.959217e+000 -1.398702e+002 -6.784866e+001 1.577238e+002 -6.917138e+001 -3.390306e+000 -2.361373e-001 -4.933570e+001
1340806250 -2.988060e+000 -1.413269e+002 -6.789272e+001 1.525145e+002 -6.884053e+001 1.675871e+001 -2.409683e-001 -5.003373e+001
1359550000 -3.015736e+000 -1.427990e+002 -6.835470e+001 1.436917e+002 -6.877575e+001 3.580077e+001 -2.442084e-001 -5.073677e+001
1378293750 -3.043202e+000 -1.442762e+002 -6.838655e+001 1.298317e+002 -6.926689e+001 4.560153e+001 -2.479043e-001 -5.145264e+001
1397037500 -3.070324e+000 -1.457171e+002 -6.836243e+001 1.229889e+002 -6.919164e+001 5.091540e+001 -2.515329e-001 -5.217039e+001
1415781250 -3.097524e+000 -1.471512e+002 -6.897321e+001 1.142836e+002 -6.880117e+001 5.648142e+001 -2.553028e-001 -5.287025e+001
1434525000 -3.122555e+000 -1.485569e+002 -6.871294e+001 1.148292e+002 -6.922273e+001 6.351588e+001 -2.603822e-001 -5.357245e+001
1453268750 -3.148517e+000 -1.499553e+002 -6.886266e+001 1.093631e+002 -6.921777e+001 7.449138e+001 -2.636361e-001 -5.425570e+001
1472012500 -3.171547e+000 -1.513585e+002 -6.894759e+001 1.025138e+002 -6.910063e+001 8.269277e+001 -2.646356e-001 -5.493777e+001
1490756250 -3.198534e+000 -1.527677e+002 -6.886230e+001 9.075050e+001 -6.894572e+001 9.641846e+001 -2.640355e-001 -5.564923e+001
1509500000 -3.224275e+000 -1.541712e+002 -6.837777e+001 8.803710e+001 -6.887416e+001 1.105789e+002 -2.664646e-001 -5.635636e+001
1528243750 -3.249712e+000 -1.555438e+002 -6.843369e+001 9.367329e+001 -6.925707e+001 1.199788e+002 -2.680370e-001 -5.707230e+001
1546987500 -3.272686e+000 -1.569062e+002 -6.881839e+001 9.664156e+001 -6.937213e+001 1.409298e+002 -2.713478e-001 -5.777518e+001
1565731250 -3.293704e+000 -1.582516e+002 -6.900674e+001 1.083184e+002 -6.929025e+001 1.713091e+002 -2.754872e-001 -5.847070e+001
1584475000 -3.314253e+000 -1.596075e+002 -6.869418e+001 1.230758e+002 -6.901772e+001 -1.663042e+002 -2.769594e-001 -5.914943e+001
1603218750 -3.334741e+000 -1.609742e+002 -6.946644e+001 1.368624e+002 -6.884691e+001 -1.432075e+002 -2.761819e-001 -5.983621e+001
1621962500 -3.358193e+000 -1.623268e+002 -6.892841e+001 1.608116e+002 -6.817151e+001 -1.289681e+002 -2.781371e-001 -6.054339e+001
1640706250 -3.381901e+000 -1.636699e+002 -6.926850e+001 -1.731974e+002 -6.830791e+001 -1.141705e+002 -2.795168e-001 -6.124825e+001
1659450000 -3.404463e+000 -1.649816e+002 -6.904218e+001 -1.469171e+002 -6.821653e+001 -1.080613e+002 -2.825992e-001 -6.195647e+001
1678193750 -3.424687e+000 -1.662861e+002 -6.923080e+001 -1.080779e+002 -6.803085e+001 -1.069808e+002 -2.848626e-001 -6.264736e+001
1696937500 -3.443795e+000 -1.675873e+002 -6.920518e+001 -7.325687e+001 -6.777222e+001 -1.080242e+002 -2.854074e-001 -6.334440e+001
1715681250 -3.462549e+000 -1.689058e+002 -6.919360e+001 -4.397765e+001 -6.770007e+001 -1.156496e+002 -2.861310e-001 -6.402734e+001
1734425000 -3.481468e+000 -1.702141e+002 -6.832288e+001 -5.829860e+000 -6.697672e+001 -1.218524e+002 -2.866049e-001 -6.470983e+001
1753168750 -3.502690e+000 -1.715050e+002 -6.848792e+001 3.029055e+001 -6.622442e+001 -1.335262e+002 -2.912084e-001 -6.540165e+001
1771912500 -3.523541e+000 -1.728038e+002 -6.878783e+001 6.410186e+001 -6.598896e+001 -1.512592e+002 -2.958232e-001 -6.610927e+001
1790656250 -3.543259e+000 -1.740693e+002 -6.853545e+001 9.398607e+001 -6.579638e+001 -1.706576e+002 -3.009816e-001 -6.682167e+001
1809400000 -3.559813e+000 -1.753258e+002 -6.861917e+001 1.279747e+002 -6.545206e+001 1.718909e+002 -3.061298e-001 -6.749878e+001
1828143750 -3.574756e+000 -1.765849e+002 -6.910620e+001 1.524726e+002 -6.553619e+001 1.636565e+002 -3.084456e-001 -6.817783e+001
1846887500 -3.589659e+000 -1.778470e+002 -6.817569e+001 1.726559e+002 -6.543785e+001 1.526674e+002 -3.091946e-001 -6.886357e+001
1865631250 -3.606502e+000 -1.791404e+002 -6.851340e+001 -1.634635e+002 -6.449297e+001 1.417210e+002 -3.126868e-001 -6.956989e+001
1884375000 -3.625886e+000 1.795845e+002 -6.820788e+001 -1.451309e+002 -6.418404e+001 1.284361e+002 -3.179933e-001 -7.028764e+001
1903118750 -3.646801e+000 1.783309e+002 -6.865055e+001 -1.187348e+002 -6.432608e+001 1.078234e+002 -3.264742e-001 -7.099691e+001
1921862500 -3.661781e+000 1.770933e+002 -6.857217e+001 -9.405516e+001 -6.397406e+001 9.061980e+001 -3.352770e-001 -7.168587e+001
1940606250 -3.678177e+000 1.758634e+002 -6.905228e+001 -7.730084e+001 -6.399231e+001 6.952285e+001 -3.371442e-001 -7.237594e+001
1959350000 -3.693084e+000 1.746202e+002 -6.901054e+001 -6.625375e+001 -6.369600e+001 4.626075e+001 -3.419455e-001 -7.305652e+001
1978093750 -3.707093e+000 1.733722e+002 -6.850543e+001 -4.521442e+001 -6.336581e+001 1.938869e+001 -3.443278e-001 -7.376553e+001
1996837500 -3.726123e+000 1.721351e+002 -6.866113e+001 -3.784783e+001 -6.307783e+001 -1.094266e+001 -3.483448e-001 -7.448888e+001
2015581250 -3.746928e+000 1.708958e+002 -6.929521e+001 -3.441979e+001 -6.326598e+001 -3.338668e+001 -3.584673e-001 -7.519997e+001
2034325000 -3.765118e+000 1.696707e+002 -6.861920e+001 -2.954720e+001 -6.344961e+001 -5.138541e+001 -3.711261e-001 -7.591441e+001
2053068750 -3.778965e+000 1.684575e+002 -6.875594e+001 -2.553934e+001 -6.407087e+001 -5.917931e+001 -3.798612e-001 -7.659165e+001
2071812500 -3.791338e+000 1.672542e+002 -6.845694e+001 -2.766096e+001 -6.419798e+001 -6.955627e+001 -3.895091e-001 -7.728532e+001
2090556250 -3.804664e+000 1.660303e+002 -6.851524e+001 -3.853233e+001 -6.394311e+001 -6.961109e+001 -3.952706e-001 -7.799857e+001
2109300000 -3.819579e+000 1.647971e+002 -6.849379e+001 -6.394248e+001 -6.377520e+001 -5.684770e+001 -4.065777e-001 -7.871194e+001
2128043750 -3.837922e+000 1.635769e+002 -6.843513e+001 -8.938599e+001 -6.417700e+001 -4.956443e+001 -4.187827e-001 -7.942153e+001
2146787500 -3.855804e+000 1.623915e+002 -6.804930e+001 -1.050742e+002 -6.458666e+001 -3.561779e+001 -4.314231e-001 -8.014317e+001
2165531250 -3.869598e+000 1.612013e+002 -6.828284e+001 -1.214279e+002 -6.462915e+001 -2.415062e+001 -4.449959e-001 -8.085137e+001
2184275000 -3.883487e+000 1.599949e+002 -6.834462e+001 -1.379650e+002 -6.522662e+001 -6.442122e+000 -4.534675e-001 -8.155520e+001
2203018750 -3.895380e+000 1.588068e+002 -6.836814e+001 -1.589072e+002 -6.526327e+001 5.811453e+000 -4.616309e-001 -8.225551e+001
2221762500 -3.907497e+000 1.575958e+002 -6.788930e+001 1.799064e+002 -6.531808e+001 2.355098e+001 -4.702550e-001 -8.296635e+001
2240506250 -3.922848e+000 1.564069e+002 -6.805367e+001 1.569779e+002 -6.541168e+001 3.648245e+001 -4.804878e-001 -8.369133e+001
2259250000 -3.939387e+000 1.552076e+002 -6.744149e+001 1.411189e+002 -6.493700e+001 3.793884e+001 -4.934985e-001 -8.440812e+001
2277993750 -3.952689e+000 1.540221e+002 -6.753645e+001 1.313058e+002 -6.523817e+001 4.416519e+001 -5.100720e-001 -8.511611e+001
2296737500 -3.965192e+000 1.528488e+002 -6.729605e+001 1.138302e+002 -6.545507e+001 3.955892e+001 -5.197759e-001 -8.580737e+001
2315481250 -3.975298e+000 1.516701e+002 -6.811538e+001 1.002607e+002 -6.572130e+001 3.601130e+001 -5.281914e-001 -8.651760e+001
2334225000 -3.983547e+000 1.504893e+002 -6.827116e+001 7.353284e+001 -6.572692e+001 3.480679e+001 -5.363233e-001 -8.723959e+001
2352968750 -3.996896e+000 1.493034e+002 -6.812019e+001 5.113894e+001 -6.584862e+001 3.627828e+001 -5.466096e-001 -8.797546e+001
2371712500 -4.006202e+000 1.481110e+002 -6.827685e+001 3.864669e+001 -6.570023e+001 3.817791e+001 -5.612841e-001 -8.867898e+001
2390456250 -4.016505e+000 1.469383e+002 -6.832553e+001 3.348328e+001 -6.533801e+001 4.932546e+001 -5.754621e-001 -8.939220e+001
2409200000 -4.028335e+000 1.457652e+002 -6.833010e+001 1.842822e+001 -6.519469e+001 6.099170e+001 -5.890194e-001 -9.008828e+001
2427943750 -4.037635e+000 1.445823e+002 -6.777835e+001 1.262774e+001 -6.508598e+001 7.767027e+001 -6.008653e-001 -9.077612e+001
2446687500 -4.045451e+000 1.434178e+002 -6.703841e+001 1.252319e+001 -6.503443e+001 8.116759e+001 -6.076353e-001 -9.150522e+001
2465431250 -4.054358e+000 1.422399e+002 -6.664795e+001 6.649314e+000 -6.424825e+001 9.068070e+001 -6.133889e-001 -9.222250e+001
2484175000 -4.066633e+000 1.410622e+002 -6.678950e+001 3.708931e+000 -6.370618e+001 9.523996e+001 -6.251758e-001 -9.296143e+001
2502918750 -4.079034e+000 1.398846e+002 -6.737309e+001 -1.482521e+000 -6.344551e+001 9.997011e+001 -6.380577e-001 -9.368214e+001
2521662500 -4.090193e+000 1.387216e+002 -6.746048e+001 -8.526485e+000 -6.340437e+001 1.050743e+002 -6.519156e-001 -9.436889e+001
2540406250 -4.100853e+000 1.375596e+002 -6.757085e+001 -7.938643e+000 -6.348700e+001 1.004061e+002 -6.607930e-001 -9.508996e+001
2559150000 -4.108562e+000 1.363991e+002 -6.740998e+001 -7.041069e+000 -6.323417e+001 1.009584e+002 -6.683837e-001 -9.580137e+001
2577893750 -4.112840e+000 1.352160e+002 -6.770668e+001 -1.891032e+001 -6.305730e+001 1.024320e+002 -6.760266e-001 -9.651582e+001
2596637500 -4.121825e+000 1.340267e+002 -6.768301e+001 -3.860748e+001 -6.294035e+001 1.006726e+002 -6.859226e-001 -9.725719e+001
2615381250 -4.128081e+000 1.328679e+002 -6.754666e+001 -5.789108e+001 -6.302126e+001 9.848386e+001 -7.001404e-001 -9.797501e+001
2634125000 -4.136493e+000 1.316707e+002 -6.760091e+001 -7.653986e+001 -6.289668e+001 1.023373e+002 -7.166415e-001 -9.867440e+001
2652868750 -4.145781e+000 1.304950e+002 -6.795316e+001 -9.114710e+001 -6.389610e+001 9.886799e+001 -7.297429e-001 -9.938149e+001
2671612500 -4.152453e+000 1.293283e+002 -6.804340e+001 -1.087654e+002 -6.357665e+001 1.020945e+002 -7.396933e-001 -1.000964e+002
2690356250 -4.159688e+000 1.281550e+002 -6.815940e+001 -1.276241e+002 -6.380261e+001 1.156992e+002 -7.487387e-001 -1.008219e+002
2709100000 -4.167443e+000 1.269765e+002 -6.847954e+001 -1.444432e+002 -6.350290e+001 1.295095e+002 -7.550476e-001 -1.015615e+002
2727843750 -4.173065e+000 1.258126e+002 -6.846299e+001 -1.658132e+002 -6.347802e+001 1.510965e+002 -7.698569e-001 -1.023008e+002
2746587500 -4.180324e+000 1.246386e+002 -6.751742e+001 1.770249e+002 -6.345376e+001 1.733922e+002 -7.867424e-001 -1.030284e+002
2765331250 -4.187433e+000 1.234599e+002 -6.725361e+001 1.624897e+002 -6.310254e+001 -1.598399e+002 -8.022116e-001 -1.037256e+002
2784075000 -4.191074e+000 1.222758e+002 -6.725580e+001 1.474204e+002 -6.326360e+001 -1.374704e+002 -8.142819e-001 -1.044381e+002
2802818750 -4.197458e+000 1.210972e+002 -6.733536e+001 1.193934e+002 -6.371554e+001 -1.096943e+002 -8.262464e-001 -1.051608e+002
2821562500 -4.201780e+000 1.199086e+002 -6.731335e+001 8.485084e+001 -6.391438e+001 -8.367734e+001 -8.385648e-001 -1.058923e+002
2840306250 -4.207796e+000 1.187375e+002 -6.750346e+001 5.915452e+001 -6.392472e+001 -6.722973e+001 -8.495892e-001 -1.066270e+002
2859050000 -4.212337e+000 1.175685e+002 -6.784803e+001 2.696536e+001 -6.459274e+001 -5.809436e+001 -8.637994e-001 -1.073604e+002
2877793750 -4.215428e+000 1.163677e+002 -6.794435e+001 -1.077326e+001 -6.434627e+001 -4.130525e+001 -8.819207e-001 -1.080658e+002
2896537500 -4.220860e+000 1.152070e+002 -6.804263e+001 -4.368013e+001 -6.465830e+001 -2.744883e+001 -8.985057e-001 -1.088123e+002
2915281250 -4.227845e+000 1.140171e+002 -6.764213e+001 -7.659463e+001 -6.497078e+001 -8.022699e+000 -9.090807e-001 -1.095368e+002
2934025000 -4.228575e+000 1.128246e+002 -6.706941e+001 -1.030935e+002 -6.496230e+001 5.113100e+000 -9.225904e-001 -1.102437e+002
2952768750 -4.232309e+000 1.116545e+002 -6.704061e+001 -1.274791e+002 -6.482257e+001 1.079810e+001 -9.361886e-001 -1.110038e+002
2971512500 -4.237173e+000 1.104415e+002 -6.673246e+001 -1.551498e+002 -6.482811e+001 2.527366e+001 -9.497176e-001 -1.117280e+002
2990256250 -4.237354e+000 1.092537e+002 -6.688969e+001 -1.738235e+002 -6.500826e+001 4.666777e+001 -9.693055e-001 -1.124639e+002
3009000000 -4.245497e+000 1.080817e+002 -6.704372e+001 1.780125e+002 -6.477888e+001 6.921769e+001 -9.853315e-001 -1.132074e+002
3027743750 -4.249851e+000 1.068662e+002 -6.702039e+001 1.753481e+002 -6.506740e+001 8.982456e+001 -9.993538e-001 -1.139247e+002
3046487500 -4.249014e+000 1.056732e+002 -6.694058e+001 1.661820e+002 -6.484472e+001 1.137235e+002 -1.014619e+000 -1.146599e+002
3065231250 -4.254957e+000 1.044874e+002 -6.647704e+001 1.525106e+002 -6.491601e+001 1.327205e+002 -1.021660e+000 -1.154149e+002
3083975000 -4.257054e+000 1.032512e+002 -6.634571e+001 1.421620e+002 -6.413206e+001 1.516120e+002 -1.039171e+000 -1.161445e+002
3102718750 -4.254016e+000 1.020578e+002 -6.604087e+001 1.374553e+002 -6.510550e+001 1.757280e+002 -1.058960e+000 -1.168758e+002
3121462500 -4.260718e+000 1.008534e+002 -6.585889e+001 1.356857e+002 -6.497929e+001 -1.635457e+002 -1.072752e+000 -1.176261e+002
3140206250 -4.260597e+000 9.958288e+001 -6.603984e+001 1.269968e+002 -6.514080e+001 -1.452744e+002 -1.093198e+000 -1.183516e+002
3158950000 -4.257486e+000 9.839785e+001 -6.604698e+001 1.191616e+002 -6.495246e+001 -1.271430e+002 -1.110698e+000 -1.190971e+002
3177693750 -4.264510e+000 9.717928e+001 -6.609897e+001 1.123586e+002 -6.491615e+001 -1.126196e+002 -1.120741e+000 -1.198395e+002
3196437500 -4.264949e+000 9.589432e+001 -6.587684e+001 1.064891e+002 -6.510883e+001 -9.471714e+001 -1.138406e+000 -1.205887e+002
3215181250 -4.263201e+000 9.471651e+001 -6.566054e+001 9.987923e+001 -6.530498e+001 -8.110350e+001 -1.160325e+000 -1.213603e+002
3233925000 -4.270031e+000 9.349521e+001 -6.536507e+001 9.763734e+001 -6.583130e+001 -6.756725e+001 -1.171611e+000 -1.221324e+002
3252668750 -4.266882e+000 9.220144e+001 -6.505061e+001 9.482944e+001 -6.613386e+001 -5.021500e+001 -1.190376e+000 -1.228718e+002
3271412500 -4.263153e+000 9.097360e+001 -6.496201e+001 9.282678e+001 -6.620981e+001 -2.723794e+001 -1.212031e+000 -1.236324e+002
3290156250 -4.270658e+000 8.970860e+001 -6.460590e+001 9.928898e+001 -6.581938e+001 -4.771964e+000 -1.225337e+000 -1.243889e+002
3308900000 -4.269189e+000 8.843399e+001 -6.454997e+001 1.145821e+002 -6.668186e+001 1.695165e+001 -1.241896e+000 -1.251375e+002
3327643750 -4.267254e+000 8.719342e+001 -6.479639e+001 1.236823e+002 -6.669108e+001 3.282758e+001 -1.259047e+000 -1.258929e+002
3346387500 -4.268186e+000 8.592661e+001 -6.490430e+001 1.220845e+002 -6.675301e+001 4.199042e+001 -1.276212e+000 -1.266604e+002
3365131250 -4.266611e+000 8.463615e+001 -6.492289e+001 1.191360e+002 -6.750547e+001 5.171997e+001 -1.294273e+000 -1.274277e+002
3383875000 -4.263384e+000 8.336700e+001 -6.497074e+001 1.177722e+002 -6.763216e+001 6.774761e+001 -1.314138e+000 -1.281919e+002
3402618750 -4.264545e+000 8.209577e+001 -6.555957e+001 1.192047e+002 -6.750593e+001 8.000761e+001 -1.332125e+000 -1.289703e+002
3421362500 -4.260878e+000 8.078879e+001 -6.575085e+001 1.092660e+002 -6.709067e+001 8.723853e+001 -1.349498e+000 -1.297279e+002
3440106250 -4.257247e+000 7.950302e+001 -6.582716e+001 1.022566e+002 -6.726042e+001 8.795629e+001 -1.367052e+000 -1.304964e+002
3458850000 -4.256566e+000 7.822095e+001 -6.576050e+001 9.814178e+001 -6.710477e+001 8.766125e+001 -1.386071e+000 -1.312788e+002
3477593750 -4.253579e+000 7.688915e+001 -6.557641e+001 9.330363e+001 -6.710701e+001 7.587231e+001 -1.402812e+000 -1.320605e+002
3496337500 -4.247472e+000 7.560452e+001 -6.559208e+001 9.296252e+001 -6.695969e+001 6.705296e+001 -1.426228e+000 -1.328345e+002
3515081250 -4.246017e+000 7.430425e+001 -6.559801e+001 8.963743e+001 -6.671786e+001 5.907658e+001 -1.441544e+000 -1.336253e+002
3533825000 -4.243115e+000 7.297596e+001 -6.572727e+001 9.107407e+001 -6.574033e+001 4.395488e+001 -1.457523e+000 -1.344139e+002
3552568750 -4.238897e+000 7.167528e+001 -6.584464e+001 8.560152e+001 -6.562653e+001 2.791234e+001 -1.480172e+000 -1.351864e+002
3571312500 -4.239058e+000 7.033861e+001 -6.535455e+001 8.362930e+001 -6.523022e+001 9.457615e+000 -1.499195e+000 -1.359774e+002
3590056250 -4.240913e+000 6.895374e+001 -6.558186e+001 9.216890e+001 -6.533577e+001 -1.229039e+001 -1.515924e+000 -1.367493e+002
3608800000 -4.229372e+000 6.758656e+001 -6.549050e+001 9.079595e+001 -6.531042e+001 -2.558644e+001 -1.539633e+000 -1.375345e+002
3627543750 -4.227537e+000 6.629021e+001 -6.530723e+001 8.926575e+001 -6.517451e+001 -4.565476e+001 -1.556861e+000 -1.383405e+002
3646287500 -4.226441e+000 6.489021e+001 -6.525207e+001 8.421809e+001 -6.479910e+001 -5.595132e+001 -1.571664e+000 -1.391172e+002
3665031250 -4.216532e+000 6.351449e+001 -6.475780e+001 8.450321e+001 -6.387182e+001 -6.793412e+001 -1.597149e+000 -1.399142e+002
3683775000 -4.214160e+000 6.222432e+001 -6.470386e+001 8.707482e+001 -6.427576e+001 -8.792220e+001 -1.614736e+000 -1.407332e+002
3702518750 -4.215809e+000 6.078357e+001 -6.497124e+001 9.470589e+001 -6.455698e+001 -1.030005e+002 -1.630703e+000 -1.415311e+002
3721262500 -4.199094e+000 5.936514e+001 -6.510246e+001 9.936684e+001 -6.434313e+001 -1.117511e+002 -1.654924e+000 -1.423350e+002
3740006250 -4.196006e+000 5.803675e+001 -6.536276e+001 1.069759e+002 -6.391855e+001 -1.181298e+002 -1.674095e+000 -1.431720e+002
3758750000 -4.194316e+000 5.656810e+001 -6.546857e+001 1.168263e+002 -6.405650e+001 -1.236621e+002 -1.693720e+000 -1.439703e+002
3777493750 -4.180386e+000 5.513607e+001 -6.589529e+001 1.247726e+002 -6.418645e+001 -1.292807e+002 -1.719413e+000 -1.447712e+002
3796237500 -4.179392e+000 5.376722e+001 -6.596829e+001 1.370623e+002 -6.359324e+001 -1.279922e+002 -1.739344e+000 -1.456151e+002
3814981250 -4.177627e+000 5.225192e+001 -6.599296e+001 1.555110e+002 -6.384723e+001 -1.280302e+002 -1.759432e+000 -1.464207e+002
3833725000 -4.161519e+000 5.080582e+001 -6.644106e+001 1.729808e+002 -6.375153e+001 -1.296062e+002 -1.784785e+000 -1.472347e+002
3852468750 -4.165045e+000 4.939689e+001 -6.637923e+001 -1.631743e+002 -6.400728e+001 -1.292620e+002 -1.807284e+000 -1.480770e+002
3871212500 -4.157579e+000 4.785807e+001 -6.662978e+001 -1.413443e+002 -6.363867e+001 -1.295100e+002 -1.830169e+000 -1.489005e+002
3889956250 -4.144762e+000 4.638952e+001 -6.640759e+001 -1.317867e+002 -6.348542e+001 -1.241844e+002 -1.855974e+000 -1.497292e+002
3908700000 -4.147686e+000 4.494386e+001 -6.671415e+001 -1.142612e+002 -6.320334e+001 -1.147443e+002 -1.878237e+000 -1.505796e+002
3927443750 -4.141531e+000 4.336301e+001 -6.688418e+001 -9.972639e+001 -6.330312e+001 -1.066741e+002 -1.903024e+000 -1.514112e+002
3946187500 -4.127608e+000 4.187862e+001 -6.683514e+001 -8.312029e+001 -6.347544e+001 -9.109944e+001 -1.932821e+000 -1.522701e+002
3964931250 -4.131911e+000 4.036325e+001 -6.684254e+001 -7.279893e+001 -6.363285e+001 -7.002853e+001 -1.957985e+000 -1.531346e+002
3983675000 -4.119906e+000 3.875022e+001 -6.663885e+001 -5.724341e+001 -6.381248e+001 -5.685537e+001 -1.984744e+000 -1.539860e+002
4002418750 -4.108184e+000 3.728287e+001 -6.664810e+001 -4.670739e+001 -6.408092e+001 -4.100655e+001 -2.013279e+000 -1.548669e+002
4021162500 -4.108805e+000 3.573801e+001 -6.652631e+001 -4.252806e+001 -6.402822e+001 -2.717665e+001 -2.039852e+000 -1.557448e+002
4039906250 -4.101192e+000 3.413222e+001 -6.707516e+001 -3.146091e+001 -6.446021e+001 -1.536959e+001 -2.066772e+000 -1.566174e+002
4058650000 -4.091085e+000 3.257134e+001 -6.705849e+001 -1.619911e+001 -6.450691e+001 1.732970e-001 -2.099872e+000 -1.575191e+002
4077393750 -4.091835e+000 3.098423e+001 -6.693533e+001 -1.109913e+000 -6.506595e+001 1.095717e+001 -2.127082e+000 -1.584047e+002
4096137500 -4.084859e+000 2.932446e+001 -6.698934e+001 1.318101e+001 -6.605116e+001 2.389931e+001 -2.158437e+000 -1.592706e+002
4114881250 -4.080014e+000 2.770528e+001 -6.691273e+001 2.359853e+001 -6.510681e+001 3.431729e+001 -2.194919e+000 -1.601680e+002
4133625000 -4.078035e+000 2.608417e+001 -6.705830e+001 3.104288e+001 -6.501492e+001 4.111048e+001 -2.226771e+000 -1.610658e+002
4152368750 -4.073694e+000 2.439818e+001 -6.707574e+001 3.354561e+001 -6.581152e+001 4.149669e+001 -2.263607e+000 -1.619665e+002
4171112500 -4.069557e+000 2.271619e+001 -6.672043e+001 3.090080e+001 -6.573843e+001 4.060532e+001 -2.301633e+000 -1.629120e+002
4189856250 -4.069121e+000 2.103650e+001 -6.627011e+001 3.106281e+001 -6.525319e+001 3.774647e+001 -2.334379e+000 -1.638432e+002
4208600000 -4.064687e+000 1.931357e+001 -6.551622e+001 3.770052e+001 -6.503705e+001 3.998973e+001 -2.370631e+000 -1.647661e+002
4227343750 -4.062696e+000 1.758995e+001 -6.531481e+001 3.872556e+001 -6.514938e+001 3.942684e+001 -2.408233e+000 -1.657177e+002
4246087500 -4.064237e+000 1.585623e+001 -6.545947e+001 3.539263e+001 -6.481881e+001 3.650151e+001 -2.442192e+000 -1.666647e+002
4264831250 -4.064626e+000 1.406441e+001 -6.464426e+001 3.517920e+001 -6.512751e+001 3.413041e+001 -2.483598e+000 -1.676068e+002
4283575000 -4.061966e+000 1.227693e+001 -6.449189e+001 3.297539e+001 -6.491819e+001 3.199284e+001 -2.521428e+000 -1.685853e+002
4302318750 -4.064286e+000 1.050518e+001 -6.373421e+001 2.643764e+001 -6.519456e+001 2.792028e+001 -2.564175e+000 -1.695574e+002
4321062500 -4.070789e+000 8.666056e+000 -6.397982e+001 3.227594e+001 -6.539947e+001 2.768813e+001 -2.604147e+000 -1.705417e+002
4339806250 -4.071507e+000 6.779172e+000 -6.381429e+001 2.567048e+001 -6.549030e+001 2.912753e+001 -2.649429e+000 -1.715204e+002
4358550000 -4.076898e+000 4.939786e+000 -6.336575e+001 2.350521e+001 -6.549524e+001 3.378815e+001 -2.693274e+000 -1.725392e+002
4377293750 -4.087005e+000 3.014807e+000 -6.303920e+001 2.185710e+001 -6.500354e+001 3.289174e+001 -2.740881e+000 -1.735329e+002
4396037500 -4.090735e+000 1.078978e+000 -6.264752e+001 2.289559e+001 -6.472843e+001 2.419777e+001 -2.785360e+000 -1.745630e+002
4414781250 -4.104963e+000 -8.656390e-001 -6.247903e+001 2.348520e+001 -6.442729e+001 2.447636e+001 -2.830978e+000 -1.755751e+002
4433525000 -4.118329e+000 -2.883956e+000 -6.200156e+001 2.534051e+001 -6.423685e+001 2.234308e+001 -2.882175e+000 -1.765946e+002
4452268750 -4.129942e+000 -4.891686e+000 -6.138768e+001 2.925159e+001 -6.415472e+001 2.519664e+001 -2.931941e+000 -1.776617e+002
4471012500 -4.153675e+000 -6.917718e+000 -6.049040e+001 3.042984e+001 -6.364548e+001 2.552905e+001 -2.983433e+000 -1.786906e+002
4489756250 -4.176013e+000 -9.027349e+000 -6.001116e+001 3.045943e+001 -6.311337e+001 2.635762e+001 -3.038749e+000 -1.797556e+002
4508500000 -4.196715e+000 -1.114916e+001 -5.985333e+001 3.088381e+001 -6.223340e+001 2.507097e+001 -3.092648e+000 1.791733e+002
4527243750 -4.226733e+000 -1.325757e+001 -5.955019e+001 2.962308e+001 -6.088694e+001 2.197975e+001 -3.148706e+000 1.780930e+002
4545987500 -4.259030e+000 -1.547600e+001 -5.930054e+001 3.134839e+001 -6.054522e+001 2.315411e+001 -3.208700e+000 1.769818e+002
4564731250 -4.294584e+000 -1.767241e+001 -5.833267e+001 2.873680e+001 -5.974098e+001 2.294044e+001 -3.266097e+000 1.758524e+002
4583475000 -4.338953e+000 -1.987805e+001 -5.764457e+001 3.041041e+001 -5.857716e+001 2.213006e+001 -3.326678e+000 1.747452e+002
4602218750 -4.386057e+000 -2.218401e+001 -5.712590e+001 3.168318e+001 -5.771909e+001 2.009303e+001 -3.387106e+000 1.736387e+002
4620962500 -4.433142e+000 -2.447885e+001 -5.656119e+001 3.331204e+001 -5.726168e+001 2.259930e+001 -3.457086e+000 1.724952e+002
4639706250 -4.495234e+000 -2.678946e+001 -5.597634e+001 3.335687e+001 -5.644950e+001 2.191210e+001 -3.524317e+000 1.713130e+002
4658450000 -4.555869e+000 -2.921389e+001 -5.520004e+001 3.331292e+001 -5.556168e+001 2.218526e+001 -3.595793e+000 1.701541e+002
4677193750 -4.621583e+000 -3.160733e+001 -5.407962e+001 3.373401e+001 -5.471188e+001 2.416887e+001 -3.670069e+000 1.689247e+002
4695937500 -4.706523e+000 -3.402033e+001 -5.312785e+001 3.194707e+001 -5.354013e+001 2.557784e+001 -3.746871e+000 1.677148e+002
4714681250 -4.795787e+000 -3.656993e+001 -5.218766e+001 3.143780e+001 -5.279009e+001 2.493969e+001 -3.832096e+000 1.665025e+002
4733425000 -4.894609e+000 -3.909759e+001 -5.131963e+001 3.054424e+001 -5.176022e+001 2.611198e+001 -3.912967e+000 1.652363e+002
4752168750 -5.003291e+000 -4.166000e+001 -5.021018e+001 2.464879e+001 -5.066297e+001 2.476584e+001 -4.006309e+000 1.640189e+002
4770912500 -5.123365e+000 -4.430175e+001 -4.913592e+001 2.546348e+001 -4.966053e+001 2.274529e+001 -4.103616e+000 1.627276e+002
4789656250 -5.255355e+000 -4.691538e+001 -4.826550e+001 2.442683e+001 -4.863388e+001 1.941868e+001 -4.196789e+000 1.614076e+002
4808400000 -5.407757e+000 -4.955898e+001 -4.719112e+001 2.190162e+001 -4.783886e+001 1.732400e+001 -4.298022e+000 1.601273e+002
4827143750 -5.567556e+000 -5.231570e+001 -4.621303e+001 2.024384e+001 -4.688466e+001 1.836913e+001 -4.411960e+000 1.587846e+002
4845887500 -5.741869e+000 -5.499755e+001 -4.518681e+001 1.802182e+001 -4.585405e+001 1.587396e+001 -4.523899e+000 1.574085e+002
4864631250 -5.945116e+000 -5.774421e+001 -4.424399e+001 1.540885e+001 -4.472585e+001 1.374244e+001 -4.643057e+000 1.560921e+002
4883375000 -6.152129e+000 -6.057341e+001 -4.305874e+001 1.238301e+001 -4.342317e+001 1.112714e+001 -4.778423e+000 1.547057e+002
4902118750 -6.382072e+000 -6.330419e+001 -4.213415e+001 1.046159e+001 -4.219234e+001 9.679769e+000 -4.911940e+000 1.532623e+002
4920862500 -6.647708e+000 -6.609579e+001 -4.111636e+001 7.379586e+000 -4.112639e+001 6.845348e+000 -5.055122e+000 1.518926e+002
4939606250 -6.922379e+000 -6.890692e+001 -4.000667e+001 4.838484e+000 -4.004533e+001 3.687247e+000 -5.214328e+000 1.504378e+002
4958350000 -7.230944e+000 -7.159352e+001 -3.899455e+001 1.545531e+000 -3.898088e+001 1.768810e+000 -5.374876e+000 1.489707e+002
4977093750 -7.571215e+000 -7.432664e+001 -3.788797e+001 -1.693291e+000 -3.793008e+001 -1.341326e+000 -5.548993e+000 1.475703e+002
4995837500 -7.926132e+000 -7.699395e+001 -3.683285e+001 -4.811703e+000 -3.688225e+001 -4.945231e+000 -5.742379e+000 1.461044e+002
5014581250 -8.325017e+000 -7.948512e+001 -3.578994e+001 -8.626521e+000 -3.577311e+001 -8.111814e+000 -5.940685e+000 1.446481e+002
5033325000 -8.757365e+000 -8.194371e+001 -3.476481e+001 -1.267331e+001 -3.474176e+001 -1.205909e+001 -6.158543e+000 1.432229e+002
5052068750 -9.212670e+000 -8.421120e+001 -3.372665e+001 -1.665735e+001 -3.366325e+001 -1.626267e+001 -6.387108e+000 1.417917e+002
5070812500 -9.707735e+000 -8.622063e+001 -3.272119e+001 -2.068816e+001 -3.261538e+001 -2.047880e+001 -6.632475e+000 1.404298e+002
5089556250 -1.023402e+001 -8.803588e+001 -3.173580e+001 -2.487290e+001 -3.162379e+001 -2.469883e+001 -6.900285e+000 1.390808e+002
5108300000 -1.077083e+001 -8.949579e+001 -3.077938e+001 -2.911811e+001 -3.069750e+001 -2.919657e+001 -7.186255e+000 1.378063e+002
5127043750 -1.133286e+001 -9.057881e+001 -2.980511e+001 -3.386017e+001 -2.973127e+001 -3.357090e+001 -7.481366e+000 1.365928e+002
5145787500 -1.189323e+001 -9.135411e+001 -2.884073e+001 -3.858586e+001 -2.879988e+001 -3.824391e+001 -7.794126e+000 1.354533e+002
5164531250 -1.244380e+001 -9.177918e+001 -2.791080e+001 -4.352618e+001 -2.786966e+001 -4.312323e+001 -8.126151e+000 1.344392e+002
5183275000 -1.298120e+001 -9.182907e+001 -2.700472e+001 -4.853157e+001 -2.695684e+001 -4.811347e+001 -8.469099e+000 1.335515e+002
5202018750 -1.350094e+001 -9.158456e+001 -2.609776e+001 -5.374042e+001 -2.607887e+001 -5.321788e+001 -8.832274e+000 1.328481e+002
5220762500 -1.399731e+001 -9.110196e+001 -2.524566e+001 -5.890620e+001 -2.521276e+001 -5.860478e+001 -9.210520e+000 1.323032e+002
5239506250 -1.446598e+001 -9.036151e+001 -2.442771e+001 -6.429800e+001 -2.438219e+001 -6.400654e+001 -9.588913e+000 1.319212e+002
5258250000 -1.491188e+001 -8.938430e+001 -2.360365e+001 -6.979321e+001 -2.357969e+001 -6.959049e+001 -9.966321e+000 1.317707e+002
5276993750 -1.532450e+001 -8.827484e+001 -2.281734e+001 -7.544217e+001 -2.279306e+001 -7.523133e+001 -1.034685e+001 1.317983e+002
5295737500 -1.569913e+001 -8.697633e+001 -2.206598e+001 -8.115746e+001 -2.202875e+001 -8.087220e+001 -1.071276e+001 1.320175e+002
5314481250 -1.605484e+001 -8.551276e+001 -2.133744e+001 -8.680580e+001 -2.129959e+001 -8.656940e+001 -1.107427e+001 1.324462e+002
5333225000 -1.637160e+001 -8.395487e+001 -2.063954e+001 -9.265791e+001 -2.059811e+001 -9.236989e+001 -1.142581e+001 1.329873e+002
5351968750 -1.664560e+001 -8.221089e+001 -1.996706e+001 -9.850677e+001 -1.993217e+001 -9.825183e+001 -1.175591e+001 1.337028e+002
5370712500 -1.689494e+001 -8.035717e+001 -1.932942e+001 -1.043587e+002 -1.929006e+001 -1.041641e+002 -1.207052e+001 1.345491e+002
5389456250 -1.709594e+001 -7.849094e+001 -1.870744e+001 -1.102829e+002 -1.867679e+001 -1.100895e+002 -1.236280e+001 1.354911e+002
5408200000 -1.725833e+001 -7.646490e+001 -1.812094e+001 -1.162137e+002 -1.809655e+001 -1.160973e+002 -1.262688e+001 1.365685e+002
5426943750 -1.738115e+001 -7.445135e+001 -1.756617e+001 -1.222063e+002 -1.753143e+001 -1.220253e+002 -1.288336e+001 1.377231e+002
5445687500 -1.744822e+001 -7.245174e+001 -1.702745e+001 -1.281805e+002 -1.700508e+001 -1.279622e+002 -1.311370e+001 1.388832e+002
5464431250 -1.746947e+001 -7.039859e+001 -1.652342e+001 -1.341007e+002 -1.650449e+001 -1.339788e+002 -1.332192e+001 1.401432e+002
5483175000 -1.744991e+001 -6.851957e+001 -1.604479e+001 -1.400317e+002 -1.601914e+001 -1.398693e+002 -1.351309e+001 1.413876e+002
5501918750 -1.738336e+001 -6.677546e+001 -1.558716e+001 -1.459520e+002 -1.557676e+001 -1.457764e+002 -1.367495e+001 1.426275e+002
5520662500 -1.727003e+001 -6.518247e+001 -1.516549e+001 -1.517934e+002 -1.514371e+001 -1.516774e+002 -1.381243e+001 1.439876e+002
5539406250 -1.712580e+001 -6.389124e+001 -1.475959e+001 -1.576561e+002 -1.474074e+001 -1.574230e+002 -1.394210e+001 1.453087e+002
5558150000 -1.693727e+001 -6.291207e+001 -1.437148e+001 -1.634080e+002 -1.437263e+001 -1.632140e+002 -1.404391e+001 1.465635e+002
5576893750 -1.673644e+001 -6.213678e+001 -1.402022e+001 -1.691545e+002 -1.400537e+001 -1.689661e+002 -1.412781e+001 1.478366e+002
5595637500 -1.652963e+001 -6.169946e+001 -1.367723e+001 -1.748566e+002 -1.367288e+001 -1.745862e+002 -1.419719e+001 1.489970e+002
5614381250 -1.631957e+001 -6.156155e+001 -1.335855e+001 1.795894e+002 -1.335776e+001 1.797566e+002 -1.423727e+001 1.500598e+002
5633125000 -1.611466e+001 -6.165718e+001 -1.306670e+001 1.740189e+002 -1.304854e+001 1.742249e+002 -1.425748e+001 1.510823e+002
5651868750 -1.591377e+001 -6.200747e+001 -1.277658e+001 1.685266e+002 -1.277732e+001 1.688141e+002 -1.427700e+001 1.520212e+002
5670612500 -1.572584e+001 -6.253461e+001 -1.251499e+001 1.631966e+002 -1.250985e+001 1.633783e+002 -1.427964e+001 1.527960e+002
5689356250 -1.554937e+001 -6.322115e+001 -1.226500e+001 1.578276e+002 -1.225479e+001 1.581236e+002 -1.428654e+001 1.534818e+002
5708100000 -1.538759e+001 -6.408057e+001 -1.202088e+001 1.526397e+002 -1.202472e+001 1.528904e+002 -1.429080e+001 1.539936e+002
5726843750 -1.523983e+001 -6.505523e+001 -1.180486e+001 1.475053e+002 -1.179631e+001 1.477201e+002 -1.428900e+001 1.543941e+002
5745587500 -1.510529e+001 -6.614314e+001 -1.158938e+001 1.423845e+002 -1.158370e+001 1.426829e+002 -1.429055e+001 1.547920e+002
5764331250 -1.498497e+001 -6.737741e+001 -1.138427e+001 1.374244e+002 -1.138778e+001 1.376571e+002 -1.430813e+001 1.550836e+002
5783075000 -1.488110e+001 -6.868346e+001 -1.120217e+001 1.324767e+002 -1.118965e+001 1.327200e+002 -1.432669e+001 1.553007e+002
5801818750 -1.478945e+001 -7.009618e+001 -1.101823e+001 1.276103e+002 -1.100295e+001 1.278659e+002 -1.435963e+001 1.554843e+002
5820562500 -1.472333e+001 -7.158244e+001 -1.084195e+001 1.228351e+002 -1.082751e+001 1.230807e+002 -1.440413e+001 1.556421e+002
5839306250 -1.467140e+001 -7.318436e+001 -1.067493e+001 1.181169e+002 -1.066304e+001 1.183786e+002 -1.445407e+001 1.557595e+002
5858050000 -1.464203e+001 -7.480294e+001 -1.051187e+001 1.134669e+002 -1.050549e+001 1.137154e+002 -1.450025e+001 1.559691e+002
5876793750 -1.463916e+001 -7.647188e+001 -1.036120e+001 1.088576e+002 -1.035296e+001 1.091662e+002 -1.455965e+001 1.562164e+002
5895537500 -1.465306e+001 -7.823226e+001 -1.021305e+001 1.043474e+002 -1.021607e+001 1.046340e+002 -1.463166e+001 1.563924e+002
5914281250 -1.468976e+001 -7.993968e+001 -1.007761e+001 9.988427e+001 -1.007634e+001 1.000971e+002 -1.469656e+001 1.566256e+002
5933025000 -1.475523e+001 -8.168346e+001 -9.946344e+000 9.544179e+001 -9.941108e+000 9.573260e+001 -1.476238e+001 1.569197e+002
5951768750 -1.483806e+001 -8.345965e+001 -9.815861e+000 9.109169e+001 -9.821078e+000 9.134991e+001 -1.482873e+001 1.571336e+002
5970512500 -1.494391e+001 -8.513082e+001 -9.697366e+000 8.678397e+001 -9.692142e+000 8.699025e+001 -1.488054e+001 1.574781e+002
5989256250 -1.508454e+001 -8.674462e+001 -9.578393e+000 8.251801e+001 -9.573722e+000 8.278850e+001 -1.494253e+001 1.578557e+002
6008000000 -1.523673e+001 -8.834820e+001 -9.463784e+000 7.833570e+001 -9.468207e+000 7.854166e+001 -1.500550e+001 1.581901e+002
6026743750 -1.541537e+001 -8.979248e+001 -9.360489e+000 7.416792e+001 -9.353787e+000 7.436500e+001 -1.505225e+001 1.585746e+002
6045487500 -1.562954e+001 -9.115410e+001 -9.252795e+000 7.004366e+001 -9.251148e+000 7.030848e+001 -1.510082e+001 1.589640e+002
6064231250 -1.585150e+001 -9.242121e+001 -9.153032e+000 6.601099e+001 -9.157829e+000 6.622558e+001 -1.514374e+001 1.593212e+002
6082975000 -1.609236e+001 -9.351340e+001 -9.060920e+000 6.197294e+001 -9.055516e+000 6.220700e+001 -1.516431e+001 1.596907e+002
6101718750 -1.634614e+001 -9.441203e+001 -8.964849e+000 5.797722e+001 -8.968030e+000 5.825932e+001 -1.519495e+001 1.600926e+002
6120462500 -1.660618e+001 -9.515834e+001 -8.878350e+000 5.407048e+001 -8.883489e+000 5.429075e+001 -1.522028e+001 1.604456e+002
6139206250 -1.688421e+001 -9.563583e+001 -8.792640e+000 5.014574e+001 -8.794212e+000 5.040834e+001 -1.523347e+001 1.607835e+002
6157950000 -1.716688e+001 -9.594546e+001 -8.706795e+000 4.632597e+001 -8.716861e+000 4.654890e+001 -1.525327e+001 1.610771e+002
6176693750 -1.744571e+001 -9.607453e+001 -8.633893e+000 4.250874e+001 -8.638956e+000 4.271374e+001 -1.526529e+001 1.612921e+002
6195437500 -1.772064e+001 -9.598565e+001 -8.556894e+000 3.870274e+001 -8.556636e+000 3.896872e+001 -1.526619e+001 1.615482e+002
6214181250 -1.797419e+001 -9.573288e+001 -8.477963e+000 3.501179e+001 -8.489855e+000 3.524858e+001 -1.527144e+001 1.617308e+002
6232925000 -1.821699e+001 -9.523965e+001 -8.407914e+000 3.129869e+001 -8.423755e+000 3.154741e+001 -1.527056e+001 1.618880e+002
6251668750 -1.844180e+001 -9.455608e+001 -8.341670e+000 2.762678e+001 -8.356102e+000 2.787273e+001 -1.527246e+001 1.619895e+002
6270412500 -1.865671e+001 -9.370960e+001 -8.283278e+000 2.398428e+001 -8.290059e+000 2.423806e+001 -1.527475e+001 1.620425e+002
6289156250 -1.884206e+001 -9.276915e+001 -8.220808e+000 2.037802e+001 -8.230544e+000 2.065280e+001 -1.527866e+001 1.619875e+002
6307900000 -1.899459e+001 -9.176426e+001 -8.160650e+000 1.687017e+001 -8.171237e+000 1.705548e+001 -1.528277e+001 1.618898e+002
6326643750 -1.912698e+001 -9.065578e+001 -8.108372e+000 1.330481e+001 -8.106229e+000 1.353664e+001 -1.528498e+001 1.618905e+002
6345387500 -1.922947e+001 -8.942629e+001 -8.045422e+000 9.787809e+000 -8.053660e+000 1.007591e+001 -1.530488e+001 1.617766e+002
6364131250 -1.929055e+001 -8.815530e+001 -7.992687e+000 6.368852e+000 -8.002045e+000 6.566545e+000 -1.532510e+001 1.615874e+002
6382875000 -1.934166e+001 -8.676424e+001 -7.946067e+000 2.902723e+000 -7.941381e+000 3.161909e+000 -1.534648e+001 1.614463e+002
6401618750 -1.935923e+001 -8.544254e+001 -7.888975e+000 -4.982392e-001 -7.896728e+000 -2.120484e-001 -1.538009e+001 1.611887e+002
6420362500 -1.934198e+001 -8.418519e+001 -7.845330e+000 -3.832114e+000 -7.847488e+000 -3.623197e+000 -1.541080e+001 1.609452e+002
6439106250 -1.930425e+001 -8.290971e+001 -7.800396e+000 -7.220899e+000 -7.795491e+000 -6.932521e+000 -1.544830e+001 1.607498e+002
6457850000 -1.923148e+001 -8.171606e+001 -7.747371e+000 -1.051529e+001 -7.756203e+000 -1.023241e+001 -1.551221e+001 1.604796e+002
6476593750 -1.912196e+001 -8.056953e+001 -7.709693e+000 -1.378573e+001 -7.711652e+000 -1.356872e+001 -1.557064e+001 1.602101e+002
6495337500 -1.900187e+001 -7.946070e+001 -7.665610e+000 -1.709328e+001 -7.662475e+000 -1.680309e+001 -1.562926e+001 1.599554e+002
6514081250 -1.885401e+001 -7.853804e+001 -7.617858e+000 -2.030327e+001 -7.627616e+000 -2.004253e+001 -1.571227e+001 1.596984e+002
6532825000 -1.868469e+001 -7.778126e+001 -7.584123e+000 -2.350183e+001 -7.581397e+000 -2.328899e+001 -1.578473e+001 1.594753e+002
6551568750 -1.850134e+001 -7.718816e+001 -7.543501e+000 -2.671966e+001 -7.536638e+000 -2.645140e+001 -1.586967e+001 1.592932e+002
6570312500 -1.828624e+001 -7.674683e+001 -7.504419e+000 -2.985758e+001 -7.501412e+000 -2.962129e+001 -1.597161e+001 1.591008e+002
6589056250 -1.806575e+001 -7.644275e+001 -7.471038e+000 -3.302834e+001 -7.458612e+000 -3.278358e+001 -1.606351e+001 1.589355e+002
6607800000 -1.784185e+001 -7.633685e+001 -7.428077e+000 -3.615797e+001 -7.418973e+000 -3.587986e+001 -1.616624e+001 1.588450e+002
6626543750 -1.761160e+001 -7.640925e+001 -7.391870e+000 -3.922495e+001 -7.391951e+000 -3.901043e+001 -1.627791e+001 1.587550e+002
6645287500 -1.739783e+001 -7.665268e+001 -7.363118e+000 -4.235275e+001 -7.351185e+000 -4.212382e+001 -1.638424e+001 1.587321e+002
6664031250 -1.717969e+001 -7.715048e+001 -7.324745e+000 -4.543359e+001 -7.318275e+000 -4.514193e+001 -1.650853e+001 1.587813e+002
6682775000 -1.696375e+001 -7.775571e+001 -7.293818e+000 -4.843585e+001 -7.290825e+000 -4.822552e+001 -1.663149e+001 1.588082e+002
6701518750 -1.675448e+001 -7.846719e+001 -7.260990e+000 -5.149280e+001 -7.253688e+000 -5.125810e+001 -1.674809e+001 1.589123e+002
6720262500 -1.656535e+001 -7.936166e+001 -7.226492e+000 -5.448101e+001 -7.221827e+000 -5.425591e+001 -1.686996e+001 1.591165e+002
6739006250 -1.639044e+001 -8.030308e+001 -7.198889e+000 -5.747502e+001 -7.193865e+000 -5.727364e+001 -1.699494e+001 1.593679e+002
6757750000 -1.623000e+001 -8.134933e+001 -7.166740e+000 -6.045871e+001 -7.160625e+000 -6.023956e+001 -1.710734e+001 1.596350e+002
6776493750 -1.607888e+001 -8.257282e+001 -7.137119e+000 -6.339851e+001 -7.133504e+000 -6.318023e+001 -1.722618e+001 1.600526e+002
6795237500 -1.594107e+001 -8.377656e+001 -7.109451e+000 -6.636491e+001 -7.104193e+000 -6.613448e+001 -1.734282e+001 1.604182e+002
6813981250 -1.582331e+001 -8.508352e+001 -7.077320e+000 -6.929520e+001 -7.075646e+000 -6.904943e+001 -1.744725e+001 1.608866e+002
6832725000 -1.571980e+001 -8.647280e+001 -7.050246e+000 -7.219879e+001 -7.052256e+000 -7.197018e+001 -1.754683e+001 1.614178e+002
6851468750 -1.563322e+001 -8.781868e+001 -7.022859e+000 -7.512402e+001 -7.023427e+000 -7.489710e+001 -1.764321e+001 1.619568e+002
6870212500 -1.556502e+001 -8.926839e+001 -6.993228e+000 -7.799486e+001 -6.997472e+000 -7.777731e+001 -1.772933e+001 1.626060e+002
6888956250 -1.550144e+001 -9.073598e+001 -6.971939e+000 -8.085983e+001 -6.970931e+000 -8.066435e+001 -1.780528e+001 1.633062e+002
6907700000 -1.545533e+001 -9.217258e+001 -6.944232e+000 -8.375169e+001 -6.944541e+000 -8.351670e+001 -1.788420e+001 1.639672e+002
6926443750 -1.542690e+001 -9.367478e+001 -6.916647e+000 -8.656085e+001 -6.923368e+000 -8.636580e+001 -1.794641e+001 1.646993e+002
6945187500 -1.541164e+001 -9.514402e+001 -6.896423e+000 -8.939799e+001 -6.898377e+000 -8.922175e+001 -1.799994e+001 1.654472e+002
6963931250 -1.541029e+001 -9.659351e+001 -6.867152e+000 -9.224030e+001 -6.875413e+000 -9.203550e+001 -1.804965e+001 1.661730e+002
6982675000 -1.541916e+001 -9.808857e+001 -6.843298e+000 -9.503500e+001 -6.857235e+000 -9.485964e+001 -1.807934e+001 1.669682e+002
7001418750 -1.543674e+001 -9.956660e+001 -6.824638e+000 -9.785803e+001 -6.834450e+000 -9.767314e+001 -1.810554e+001 1.678059e+002
7020162500 -1.546944e+001 -1.009610e+002 -6.796941e+000 -1.006441e+002 -6.814293e+000 -1.004286e+002 -1.812890e+001 1.685432e+002
7038906250 -1.551443e+001 -1.023624e+002 -6.780246e+000 -1.033975e+002 -6.795821e+000 -1.032269e+002 -1.813029e+001 1.692991e+002
7057650000 -1.557683e+001 -1.037413e+002 -6.761781e+000 -1.062052e+002 -6.770487e+000 -1.059881e+002 -1.812859e+001 1.700493e+002
7076393750 -1.564875e+001 -1.050806e+002 -6.737274e+000 -1.089510e+002 -6.754284e+000 -1.087266e+002 -1.811908e+001 1.707231e+002
7095137500 -1.573223e+001 -1.064070e+002 -6.723130e+000 -1.116796e+002 -6.735967e+000 -1.115113e+002 -1.809063e+001 1.714725e+002
7113881250 -1.581787e+001 -1.076840e+002 -6.704956e+000 -1.144526e+002 -6.712970e+000 -1.142403e+002 -1.806613e+001 1.721701e+002
7132625000 -1.591493e+001 -1.088943e+002 -6.682134e+000 -1.171499e+002 -6.700913e+000 -1.169549e+002 -1.803249e+001 1.727689e+002
7151368750 -1.602654e+001 -1.100415e+002 -6.671661e+000 -1.198713e+002 -6.684952e+000 -1.196952e+002 -1.799071e+001 1.733987e+002
7170112500 -1.614588e+001 -1.111382e+002 -6.652969e+000 -1.226095e+002 -6.667085e+000 -1.223749e+002 -1.794565e+001 1.739300e+002
7188856250 -1.627871e+001 -1.122007e+002 -6.636410e+000 -1.252734e+002 -6.657288e+000 -1.250756e+002 -1.789699e+001 1.743880e+002
7207600000 -1.641866e+001 -1.132047e+002 -6.629598e+000 -1.279706e+002 -6.641416e+000 -1.277984e+002 -1.783302e+001 1.748856e+002
7226343750 -1.655943e+001 -1.141141e+002 -6.610917e+000 -1.306682e+002 -6.625557e+000 -1.304534e+002 -1.778311e+001 1.753367e+002
7245087500 -1.670620e+001 -1.148990e+002 -6.598826e+000 -1.333009e+002 -6.618097e+000 -1.331438e+002 -1.772646e+001 1.756643e+002
7263831250 -1.686250e+001 -1.155926e+002 -6.594179e+000 -1.359867e+002 -6.600657e+000 -1.358267e+002 -1.766604e+001 1.760343e+002
7282575000 -1.702736e+001 -1.162399e+002 -6.575891e+000 -1.386553e+002 -6.589692e+000 -1.384314e+002 -1.760880e+001 1.762908e+002
7301318750 -1.719319e+001 -1.168086e+002 -6.568233e+000 -1.412587e+002 -6.583201e+000 -1.410931e+002 -1.754248e+001 1.764504e+002
7320062500 -1.736576e+001 -1.173233e+002 -6.560886e+000 -1.439404e+002 -6.567265e+000 -1.437383e+002 -1.748421e+001 1.766383e+002
7338806250 -1.752394e+001 -1.176837e+002 -6.546515e+000 -1.465490e+002 -6.559576e+000 -1.463315e+002 -1.743213e+001 1.767570e+002
7357550000 -1.768812e+001 -1.179035e+002 -6.543708e+000 -1.491506e+002 -6.553352e+000 -1.489802e+002 -1.737885e+001 1.768176e+002
7376293750 -1.785902e+001 -1.180358e+002 -6.537091e+000 -1.518145e+002 -6.537233e+000 -1.515912e+002 -1.732802e+001 1.768816e+002
7395037500 -1.802952e+001 -1.181209e+002 -6.527499e+000 -1.544140e+002 -6.531895e+000 -1.541638e+002 -1.728045e+001 1.768810e+002
7413781250 -1.819941e+001 -1.180578e+002 -6.522408e+000 -1.569909e+002 -6.525212e+000 -1.567752e+002 -1.723833e+001 1.768092e+002
7432525000 -1.836219e+001 -1.179398e+002 -6.514115e+000 -1.595874e+002 -6.514239e+000 -1.593440e+002 -1.719584e+001 1.767580e+002
7451268750 -1.850910e+001 -1.177948e+002 -6.507293e+000 -1.621616e+002 -6.511532e+000 -1.619234e+002 -1.716244e+001 1.767454e+002
7470012500 -1.864371e+001 -1.174717e+002 -6.501435e+000 -1.647696e+002 -6.507672e+000 -1.645308e+002 -1.713169e+001 1.766533e+002
7488756250 -1.877044e+001 -1.170123e+002 -6.493617e+000 -1.673145e+002 -6.499555e+000 -1.670843e+002 -1.710451e+001 1.765723e+002
7507500000 -1.889744e+001 -1.165976e+002 -6.494687e+000 -1.698588e+002 -6.500178e+000 -1.696250e+002 -1.708989e+001 1.764642e+002
7526243750 -1.900820e+001 -1.160381e+002 -6.487831e+000 -1.724489e+002 -6.496368e+000 -1.722017e+002 -1.707682e+001 1.763041e+002
7544987500 -1.910604e+001 -1.155397e+002 -6.481600e+000 -1.749822e+002 -6.489578e+000 -1.747302e+002 -1.707080e+001 1.762053e+002
7563731250 -1.918716e+001 -1.150093e+002 -6.485673e+000 -1.775162e+002 -6.491358e+000 -1.772608e+002 -1.707363e+001 1.760848e+002
7582475000 -1.924261e+001 -1.143380e+002 -6.479011e+000 1.799210e+002 -6.488255e+000 -1.798205e+002 -1.707361e+001 1.759568e+002
7601218750 -1.929617e+001 -1.136045e+002 -6.474332e+000 1.774216e+002 -6.482269e+000 1.776571e+002 -1.707774e+001 1.759051e+002
7619962500 -1.933745e+001 -1.128816e+002 -6.478874e+000 1.748773e+002 -6.484129e+000 1.751546e+002 -1.709527e+001 1.758291e+002
7638706250 -1.936565e+001 -1.121476e+002 -6.469550e+000 1.723501e+002 -6.480177e+000 1.726106e+002 -1.711030e+001 1.757351e+002
7657450000 -1.938070e+001 -1.114879e+002 -6.469734e+000 1.698768e+002 -6.477334e+000 1.701312e+002 -1.713237e+001 1.757641e+002
7676193750 -1.936528e+001 -1.108638e+002 -6.474049e+000 1.673361e+002 -6.480917e+000 1.676431e+002 -1.716420e+001 1.757198e+002
7694937500 -1.933675e+001 -1.101921e+002 -6.464932e+000 1.648318e+002 -6.478703e+000 1.651167e+002 -1.719075e+001 1.756661e+002
7713681250 -1.929310e+001 -1.095137e+002 -6.469501e+000 1.623768e+002 -6.475608e+000 1.626327e+002 -1.722554e+001 1.757478e+002
7732425000 -1.925185e+001 -1.088631e+002 -6.471962e+000 1.598315e+002 -6.478904e+000 1.601467e+002 -1.726811e+001 1.757950e+002
7751168750 -1.919031e+001 -1.082565e+002 -6.465813e+000 1.573538e+002 -6.480568e+000 1.576311e+002 -1.730103e+001 1.759229e+002
7769912500 -1.912919e+001 -1.078105e+002 -6.470747e+000 1.548850e+002 -6.479102e+000 1.551645e+002 -1.734046e+001 1.761287e+002
7788656250 -1.904174e+001 -1.074225e+002 -6.471730e+000 1.523624e+002 -6.486498e+000 1.526858e+002 -1.738902e+001 1.763217e+002
7807400000 -1.893691e+001 -1.070239e+002 -6.466924e+000 1.499155e+002 -6.488924e+000 1.501904e+002 -1.742372e+001 1.765688e+002
7826143750 -1.882961e+001 -1.066742e+002 -6.474937e+000 1.474813e+002 -6.489981e+000 1.477407e+002 -1.746981e+001 1.768892e+002
7844887500 -1.872367e+001 -1.064003e+002 -6.480515e+000 1.449713e+002 -6.498943e+000 1.452641e+002 -1.751642e+001 1.772405e+002
7863631250 -1.861384e+001 -1.062575e+002 -6.479033e+000 1.425221e+002 -6.498752e+000 1.427605e+002 -1.755886e+001 1.776531e+002
7882375000 -1.849982e+001 -1.061589e+002 -6.488293e+000 1.400827e+002 -6.502197e+000 1.403341e+002 -1.760588e+001 1.780910e+002
7901118750 -1.838385e+001 -1.061773e+002 -6.494227e+000 1.376158e+002 -6.509905e+000 1.378736e+002 -1.765083e+001 1.785405e+002
7919862500 -1.826048e+001 -1.062681e+002 -6.496932e+000 1.351556e+002 -6.511175e+000 1.354039e+002 -1.767924e+001 1.791196e+002
7938606250 -1.813116e+001 -1.062782e+002 -6.500909e+000 1.327061e+002 -6.516071e+000 1.329734e+002 -1.771350e+001 1.797587e+002
7957350000 -1.802349e+001 -1.064583e+002 -6.507906e+000 1.302464e+002 -6.526217e+000 1.305138e+002 -1.774343e+001 -1.796005e+002
7976093750 -1.791025e+001 -1.067000e+002 -6.511536e+000 1.278067e+002 -6.529662e+000 1.280590e+002 -1.775564e+001 -1.788654e+002
7994837500 -1.779572e+001 -1.069690e+002 -6.517109e+000 1.253543e+002 -6.535226e+000 1.256266e+002 -1.777272e+001 -1.780585e+002
8013581250 -1.768770e+001 -1.073819e+002 -6.524532e+000 1.229046e+002 -6.544278e+000 1.231662e+002 -1.778206e+001 -1.773189e+002
8032325000 -1.757605e+001 -1.078281e+002 -6.531196e+000 1.204645e+002 -6.547807e+000 1.207218e+002 -1.777987e+001 -1.765102e+002
8051068750 -1.746964e+001 -1.082057e+002 -6.535875e+000 1.180184e+002 -6.555517e+000 1.182831e+002 -1.777100e+001 -1.756073e+002
8069812500 -1.738082e+001 -1.086793e+002 -6.545671e+000 1.155706e+002 -6.566601e+000 1.158315e+002 -1.775766e+001 -1.747512e+002
8088556250 -1.729471e+001 -1.092101e+002 -6.554366e+000 1.131211e+002 -6.574633e+000 1.133751e+002 -1.772492e+001 -1.738248e+002
8107300000 -1.721857e+001 -1.097905e+002 -6.560778e+000 1.106902e+002 -6.584969e+000 1.109384e+002 -1.768913e+001 -1.728623e+002
8126043750 -1.714833e+001 -1.104420e+002 -6.572825e+000 1.082577e+002 -6.597033e+000 1.084829e+002 -1.764881e+001 -1.719650e+002
8144787500 -1.707260e+001 -1.110581e+002 -6.582228e+000 1.058108e+002 -6.606432e+000 1.060370e+002 -1.758703e+001 -1.710052e+002
8163531250 -1.700136e+001 -1.116316e+002 -6.589783e+000 1.033824e+002 -6.619177e+000 1.035967e+002 -1.751947e+001 -1.699951e+002
8182275000 -1.695611e+001 -1.123047e+002 -6.603459e+000 1.009449e+002 -6.631082e+000 1.011530e+002 -1.744753e+001 -1.690444e+002
8201018750 -1.690490e+001 -1.129431e+002 -6.615045e+000 9.848471e+001 -6.643637e+000 9.871067e+001 -1.735663e+001 -1.680710e+002
8219762500 -1.686281e+001 -1.136492e+002 -6.624910e+000 9.605696e+001 -6.656025e+000 9.628312e+001 -1.726143e+001 -1.671248e+002
8238506250 -1.682789e+001 -1.143810e+002 -6.640693e+000 9.362526e+001 -6.670527e+000 9.383924e+001 -1.716126e+001 -1.662410e+002
8257250000 -1.678683e+001 -1.150136e+002 -6.650885e+000 9.115440e+001 -6.685522e+000 9.139337e+001 -1.703784e+001 -1.653301e+002
8275993750 -1.675991e+001 -1.156390e+002 -6.663207e+000 8.872215e+001 -6.699001e+000 8.894746e+001 -1.690905e+001 -1.644431e+002
8294737500 -1.674348e+001 -1.162685e+002 -6.682285e+000 8.627113e+001 -6.714957e+000 8.651260e+001 -1.677428e+001 -1.636282e+002
8313481250 -1.672896e+001 -1.168938e+002 -6.693671e+000 8.379128e+001 -6.732625e+000 8.405119e+001 -1.662560e+001 -1.628135e+002
8332225000 -1.671529e+001 -1.175339e+002 -6.707069e+000 8.137292e+001 -6.748068e+000 8.160912e+001 -1.647416e+001 -1.620234e+002
8350968750 -1.670421e+001 -1.181723e+002 -6.727773e+000 7.890982e+001 -6.768394e+000 7.917005e+001 -1.631918e+001 -1.613744e+002
8369712500 -1.669018e+001 -1.187492e+002 -6.741048e+000 7.645193e+001 -6.785738e+000 7.669582e+001 -1.614460e+001 -1.606710e+002
8388456250 -1.668578e+001 -1.192408e+002 -6.760029e+000 7.402867e+001 -6.802145e+000 7.426374e+001 -1.596719e+001 -1.600310e+002
8407200000 -1.669546e+001 -1.197219e+002 -6.783282e+000 7.155624e+001 -6.825133e+000 7.180992e+001 -1.579001e+001 -1.594799e+002
8425943750 -1.670093e+001 -1.202109e+002 -6.797575e+000 6.910807e+001 -6.845903e+000 6.934107e+001 -1.560290e+001 -1.589549e+002
8444687500 -1.671185e+001 -1.206766e+002 -6.821932e+000 6.667738e+001 -6.866398e+000 6.691388e+001 -1.542088e+001 -1.585164e+002
8463431250 -1.671225e+001 -1.211314e+002 -6.846185e+000 6.418263e+001 -6.894233e+000 6.446783e+001 -1.522718e+001 -1.581385e+002
8482175000 -1.670601e+001 -1.215030e+002 -6.865771e+000 6.174628e+001 -6.916420e+000 6.199273e+001 -1.502672e+001 -1.578197e+002
8500918750 -1.671026e+001 -1.218004e+002 -6.891485e+000 5.930743e+001 -6.938901e+000 5.956538e+001 -1.482883e+001 -1.575134e+002
8519662500 -1.671450e+001 -1.221083e+002 -6.916525e+000 5.681250e+001 -6.967161e+000 5.710802e+001 -1.462695e+001 -1.573090e+002
8538406250 -1.671319e+001 -1.223568e+002 -6.935962e+000 5.437624e+001 -6.989676e+000 5.462745e+001 -1.442545e+001 -1.571188e+002
8557150000 -1.671500e+001 -1.226048e+002 -6.967462e+000 5.192818e+001 -7.014291e+000 5.221438e+001 -1.422459e+001 -1.569520e+002
8575893750 -1.670377e+001 -1.228605e+002 -6.992390e+000 4.942321e+001 -7.045799e+000 4.975285e+001 -1.402145e+001 -1.569028e+002
8594637500 -1.668736e+001 -1.230045e+002 -7.018302e+000 4.698886e+001 -7.070390e+000 4.727832e+001 -1.381623e+001 -1.568933e+002
8613381250 -1.667363e+001 -1.230850e+002 -7.054042e+000 4.453522e+001 -7.101709e+000 4.486128e+001 -1.361154e+001 -1.569263e+002
8632125000 -1.665708e+001 -1.232186e+002 -7.080636e+000 4.204882e+001 -7.135544e+000 4.239211e+001 -1.340869e+001 -1.570097e+002
8650868750 -1.663713e+001 -1.232685e+002 -7.110145e+000 3.962264e+001 -7.161276e+000 3.991274e+001 -1.321127e+001 -1.571102e+002
8669612500 -1.661079e+001 -1.233643e+002 -7.148338e+000 3.714132e+001 -7.197098e+000 3.749532e+001 -1.301416e+001 -1.572841e+002
8688356250 -1.656684e+001 -1.234611e+002 -7.176651e+000 3.466228e+001 -7.234673e+000 3.500192e+001 -1.281891e+001 -1.575406e+002
8707100000 -1.651360e+001 -1.234572e+002 -7.209679e+000 3.225104e+001 -7.263476e+000 3.254921e+001 -1.262090e+001 -1.577939e+002
8725843750 -1.646166e+001 -1.234496e+002 -7.250010e+000 2.975716e+001 -7.305171e+000 3.012460e+001 -1.242759e+001 -1.580849e+002
8744587500 -1.640285e+001 -1.235023e+002 -7.282225e+000 2.730364e+001 -7.343938e+000 2.763450e+001 -1.223775e+001 -1.584234e+002
8763331250 -1.634767e+001 -1.235036e+002 -7.323725e+000 2.486944e+001 -7.377537e+000 2.520375e+001 -1.205313e+001 -1.588057e+002
8782075000 -1.627742e+001 -1.236001e+002 -7.363363e+000 2.237192e+001 -7.422438e+000 2.277364e+001 -1.187065e+001 -1.592249e+002
8800818750 -1.619027e+001 -1.237145e+002 -7.399413e+000 1.991706e+001 -7.463236e+000 2.028526e+001 -1.168832e+001 -1.597124e+002
8819562500 -1.609306e+001 -1.237564e+002 -7.446180e+000 1.747945e+001 -7.500146e+000 1.785440e+001 -1.150790e+001 -1.602234e+002
8838306250 -1.599374e+001 -1.238408e+002 -7.486749e+000 1.497747e+001 -7.547649e+000 1.541921e+001 -1.132816e+001 -1.607510e+002
8857050000 -1.589324e+001 -1.239323e+002 -7.527267e+000 1.253408e+001 -7.588230e+000 1.292956e+001 -1.115607e+001 -1.613268e+002
8875793750 -1.579042e+001 -1.240166e+002 -7.576954e+000 1.007682e+001 -7.630390e+000 1.050801e+001 -1.098629e+001 -1.618847e+002
8894537500 -1.567981e+001 -1.242642e+002 -7.618978e+000 7.586096e+000 -7.681170e+000 8.059241e+000 -1.082120e+001 -1.625094e+002
8913281250 -1.555509e+001 -1.245271e+002 -7.662237e+000 5.156191e+000 -7.724997e+000 5.594170e+000 -1.065898e+001 -1.631706e+002
8932025000 -1.542344e+001 -1.247834e+002 -7.717724e+000 2.683522e+000 -7.770269e+000 3.182894e+000 -1.049712e+001 -1.638631e+002
8950768750 -1.529052e+001 -1.250857e+002 -7.760690e+000 1.994561e-001 -7.822611e+000 7.173325e-001 -1.033905e+001 -1.645810e+002
8969512500 -1.516002e+001 -1.253850e+002 -7.813102e+000 -2.234209e+000 -7.867536e+000 -1.742739e+000 -1.018812e+001 -1.653054e+002
8988256250 -1.502454e+001 -1.257540e+002 -7.868096e+000 -4.730855e+000 -7.921347e+000 -4.161691e+000 -1.004259e+001 -1.660816e+002
9007000000 -1.488704e+001 -1.262630e+002 -7.915376e+000 -7.198382e+000 -7.977128e+000 -6.630239e+000 -9.899864e+000 -1.668835e+002
9025743750 -1.474078e+001 -1.267833e+002 -7.970730e+000 -9.622316e+000 -8.023793e+000 -9.066213e+000 -9.763097e+000 -1.677038e+002
9044487500 -1.458791e+001 -1.273336e+002 -8.025558e+000 -1.211322e+001 -8.077939e+000 -1.147843e+001 -9.622309e+000 -1.685486e+002
9063231250 -1.443781e+001 -1.279304e+002 -8.077012e+000 -1.455606e+001 -8.135218e+000 -1.396596e+001 -9.489007e+000 -1.694105e+002
9081975000 -1.429062e+001 -1.285274e+002 -8.137347e+000 -1.699857e+001 -8.185117e+000 -1.639766e+001 -9.360347e+000 -1.702920e+002
9100718750 -1.414608e+001 -1.292381e+002 -8.194767e+000 -1.948455e+001 -8.243567e+000 -1.881918e+001 -9.234160e+000 -1.711955e+002
9119462500 -1.399855e+001 -1.300614e+002 -8.250427e+000 -2.193398e+001 -8.301455e+000 -2.129240e+001 -9.112928e+000 -1.721053e+002
9138206250 -1.384656e+001 -1.309021e+002 -8.313444e+000 -2.439321e+001 -8.356273e+000 -2.371407e+001 -8.998648e+000 -1.730581e+002
9156950000 -1.369677e+001 -1.317875e+002 -8.369374e+000 -2.687404e+001 -8.416900e+000 -2.614249e+001 -8.882277e+000 -1.740277e+002
9175693750 -1.354665e+001 -1.326847e+002 -8.427606e+000 -2.931364e+001 -8.474396e+000 -2.860840e+001 -8.768072e+000 -1.749841e+002
9194437500 -1.340258e+001 -1.336233e+002 -8.493511e+000 -3.177286e+001 -8.531543e+000 -3.103275e+001 -8.662082e+000 -1.759517e+002
9213181250 -1.326551e+001 -1.346221e+002 -8.550275e+000 -3.423685e+001 -8.597174e+000 -3.348705e+001 -8.558732e+000 -1.769453e+002
9231925000 -1.312879e+001 -1.357118e+002 -8.611702e+000 -3.667873e+001 -8.656081e+000 -3.594041e+001 -8.460262e+000 -1.779524e+002
9250668750 -1.299011e+001 -1.368339e+002 -8.676435e+000 -3.914156e+001 -8.717281e+000 -3.835881e+001 -8.369633e+000 -1.789738e+002
9269412500 -1.285281e+001 -1.379753e+002 -8.735426e+000 -4.161293e+001 -8.782470e+000 -4.081615e+001 -8.279058e+000 -1.799986e+002
9288156250 -1.271805e+001 -1.391521e+002 -8.801786e+000 -4.405519e+001 -8.842501e+000 -4.326479e+001 -8.193366e+000 1.789771e+002
9306900000 -1.259268e+001 -1.403679e+002 -8.866235e+000 -4.652926e+001 -8.906229e+000 -4.568890e+001 -8.111818e+000 1.779380e+002
9325643750 -1.247241e+001 -1.416223e+002 -8.928484e+000 -4.898188e+001 -8.969787e+000 -4.815874e+001 -8.034404e+000 1.768978e+002
9344387500 -1.235324e+001 -1.429281e+002 -8.997906e+000 -5.143423e+001 -9.029293e+000 -5.062023e+001 -7.960600e+000 1.758531e+002
9363131250 -1.223212e+001 -1.442522e+002 -9.060628e+000 -5.390737e+001 -9.096263e+000 -5.305476e+001 -7.894022e+000 1.747868e+002
9381875000 -1.211413e+001 -1.456094e+002 -9.126407e+000 -5.635776e+001 -9.160329e+000 -5.551794e+001 -7.828667e+000 1.737360e+002
9400618750 -1.199996e+001 -1.469965e+002 -9.195744e+000 -5.883933e+001 -9.226343e+000 -5.797899e+001 -7.768242e+000 1.726824e+002
9419362500 -1.189909e+001 -1.484001e+002 -9.262877e+000 -6.130944e+001 -9.295753e+000 -6.043782e+001 -7.710792e+000 1.716089e+002
9438106250 -1.179957e+001 -1.498327e+002 -9.328857e+000 -6.376971e+001 -9.362019e+000 -6.291402e+001 -7.655151e+000 1.705531e+002
9456850000 -1.169867e+001 -1.513341e+002 -9.398992e+000 -6.627612e+001 -9.429807e+000 -6.538271e+001 -7.607074e+000 1.694864e+002
9475593750 -1.160604e+001 -1.528192e+002 -9.466262e+000 -6.876431e+001 -9.498783e+000 -6.786752e+001 -7.565130e+000 1.683981e+002
9494337500 -1.151471e+001 -1.543318e+002 -9.535459e+000 -7.125639e+001 -9.563701e+000 -7.034554e+001 -7.519210e+000 1.673468e+002
9513081250 -1.142531e+001 -1.558661e+002 -9.605360e+000 -7.376646e+001 -9.634956e+000 -7.283074e+001 -7.482605e+000 1.662896e+002
9531825000 -1.134887e+001 -1.574011e+002 -9.673059e+000 -7.625611e+001 -9.703142e+000 -7.534239e+001 -7.451570e+000 1.652264e+002
9550568750 -1.127580e+001 -1.589753e+002 -9.746468e+000 -7.877375e+001 -9.768262e+000 -7.784103e+001 -7.420626e+000 1.641853e+002
9569312500 -1.120246e+001 -1.605912e+002 -9.816735e+000 -8.131653e+001 -9.839583e+000 -8.035007e+001 -7.398482e+000 1.631473e+002
9588056250 -1.113369e+001 -1.621752e+002 -9.888584e+000 -8.381268e+001 -9.908817e+000 -8.289070e+001 -7.377460e+000 1.620967e+002
9606800000 -1.106833e+001 -1.637869e+002 -9.964921e+000 -8.636373e+001 -9.977039e+000 -8.541060e+001 -7.357817e+000 1.610638e+002
9625543750 -1.100590e+001 -1.654051e+002 -1.003383e+001 -8.892088e+001 -1.004997e+001 -8.796815e+001 -7.345457e+000 1.600455e+002
9644287500 -1.095297e+001 -1.670375e+002 -1.010960e+001 -9.145459e+001 -1.011627e+001 -9.052730e+001 -7.337990e+000 1.590246e+002
9663031250 -1.090201e+001 -1.686898e+002 -1.018759e+001 -9.403031e+001 -1.018925e+001 -9.308325e+001 -7.332644e+000 1.580312e+002
9681775000 -1.085312e+001 -1.703779e+002 -1.025891e+001 -9.661813e+001 -1.026503e+001 -9.566344e+001 -7.332304e+000 1.570488e+002
9700518750 -1.080941e+001 -1.720301e+002 -1.033768e+001 -9.917671e+001 -1.033601e+001 -9.826523e+001 -7.333731e+000 1.560596e+002
9719262500 -1.076872e+001 -1.737123e+002 -1.041644e+001 -1.018175e+002 -1.041081e+001 -1.008598e+002 -7.336772e+000 1.551245e+002
9738006250 -1.073000e+001 -1.754011e+002 -1.048809e+001 -1.044244e+002 -1.048987e+001 -1.035018e+002 -7.350865e+000 1.541966e+002
9756750000 -1.070189e+001 -1.770743e+002 -1.057248e+001 -1.070412e+002 -1.056382e+001 -1.061254e+002 -7.364728e+000 1.532730e+002
9775493750 -1.067739e+001 -1.787992e+002 -1.065165e+001 -1.097323e+002 -1.064676e+001 -1.087629e+002 -7.379776e+000 1.523906e+002
9794237500 -1.064809e+001 1.794913e+002 -1.072722e+001 -1.123855e+002 -1.072466e+001 -1.114600e+002 -7.396304e+000 1.515401e+002
9812981250 -1.063062e+001 1.778314e+002 -1.081434e+001 -1.150668e+002 -1.080289e+001 -1.141169e+002 -7.422109e+000 1.506917e+002
9831725000 -1.061500e+001 1.761312e+002 -1.089495e+001 -1.177956e+002 -1.088802e+001 -1.168023e+002 -7.447116e+000 1.498708e+002
9850468750 -1.059586e+001 1.744620e+002 -1.097587e+001 -1.204715e+002 -1.096579e+001 -1.195436e+002 -7.474246e+000 1.491320e+002
9869212500 -1.059297e+001 1.728064e+002 -1.106941e+001 -1.232051e+002 -1.104532e+001 -1.222500e+002 -7.507744e+000 1.484049e+002
9887956250 -1.058812e+001 1.710756e+002 -1.115630e+001 -1.259720e+002 -1.113876e+001 -1.250188e+002 -7.545343e+000 1.476883e+002
9906700000 -1.057773e+001 1.693774e+002 -1.124938e+001 -1.287204e+002 -1.122862e+001 -1.278241e+002 -7.581037e+000 1.470070e+002
9925443750 -1.057798e+001 1.677399e+002 -1.134748e+001 -1.315166e+002 -1.131705e+001 -1.305875e+002 -7.621391e+000 1.463971e+002
9944187500 -1.057909e+001 1.660590e+002 -1.144002e+001 -1.343408e+002 -1.141842e+001 -1.334353e+002 -7.664014e+000 1.458118e+002
9962931250 -1.057760e+001 1.644371e+002 -1.154326e+001 -1.371747e+002 -1.151269e+001 -1.363018e+002 -7.703808e+000 1.452640e+002
9981675000 -1.058996e+001 1.627935e+002 -1.164489e+001 -1.400480e+002 -1.161529e+001 -1.391232e+002 -7.746022e+000 1.447682e+002
10000418750 -1.059582e+001 1.611312e+002 -1.175058e+001 -1.428979e+002 -1.172212e+001 -1.420457e+002 -7.786768e+000 1.443105e+002
10019162500 -1.059816e+001 1.595030e+002 -1.186270e+001 -1.458024e+002 -1.182512e+001 -1.449568e+002 -7.824939e+000 1.439048e+002
10037906250 -1.061064e+001 1.579027e+002 -1.197322e+001 -1.487287e+002 -1.193818e+001 -1.478507e+002 -7.863204e+000 1.435645e+002
10056650000 -1.061537e+001 1.562967e+002 -1.208997e+001 -1.516503e+002 -1.205746e+001 -1.508438e+002 -7.901393e+000 1.432625e+002
10075393750 -1.062742e+001 1.547600e+002 -1.221539e+001 -1.546489e+002 -1.217607e+001 -1.538013e+002 -7.934299e+000 1.430097e+002
10094137500 -1.064595e+001 1.531817e+002 -1.233898e+001 -1.576354e+002 -1.230408e+001 -1.567701e+002 -7.964135e+000 1.427979e+002
10112881250 -1.065322e+001 1.516024e+002 -1.247075e+001 -1.606263e+002 -1.243234e+001 -1.598265e+002 -7.989121e+000 1.426234e+002
10131625000 -1.066224e+001 1.500552e+002 -1.260752e+001 -1.636734e+002 -1.256574e+001 -1.628186e+002 -8.007887e+000 1.424918e+002
10150368750 -1.067436e+001 1.485084e+002 -1.274725e+001 -1.666967e+002 -1.271433e+001 -1.658607e+002 -8.020410e+000 1.423926e+002
10169112500 -1.067766e+001 1.470123e+002 -1.289952e+001 -1.697582e+002 -1.285518e+001 -1.689629e+002 -8.022196e+000 1.423118e+002
10187856250 -1.068869e+001 1.455245e+002 -1.305120e+001 -1.728764e+002 -1.300939e+001 -1.720241e+002 -8.018918e+000 1.422850e+002
10206600000 -1.069545e+001 1.439910e+002 -1.320997e+001 -1.759499e+002 -1.317368e+001 -1.751211e+002 -8.009648e+000 1.422729e+002
10225343750 -1.069927e+001 1.424964e+002 -1.338448e+001 -1.790635e+002 -1.333785e+001 -1.782557e+002 -7.995102e+000 1.422684e+002
10244087500 -1.070070e+001 1.409825e+002 -1.355295e+001 1.777902e+002 -1.351503e+001 1.786440e+002 -7.962494e+000 1.422980e+002
10262831250 -1.069601e+001 1.394779e+002 -1.373673e+001 1.746986e+002 -1.369969e+001 1.754760e+002 -7.926067e+000 1.423521e+002
10281575000 -1.068869e+001 1.380216e+002 -1.392916e+001 1.715246e+002 -1.388415e+001 1.723257e+002 -7.884482e+000 1.423563e+002
10300318750 -1.068449e+001 1.365160e+002 -1.411911e+001 1.683460e+002 -1.408939e+001 1.692028e+002 -7.829229e+000 1.423648e+002
10319062500 -1.067249e+001 1.350264e+002 -1.432810e+001 1.652111e+002 -1.429306e+001 1.660178e+002 -7.761426e+000 1.423933e+002
10337806250 -1.065451e+001 1.335442e+002 -1.454118e+001 1.620160e+002 -1.449785e+001 1.628844e+002 -7.691144e+000 1.423931e+002
10356550000 -1.063666e+001 1.320321e+002 -1.475532e+001 1.588462e+002 -1.472484e+001 1.597278e+002 -7.606161e+000 1.423389e+002
10375293750 -1.060940e+001 1.305371e+002 -1.498805e+001 1.556851e+002 -1.494764e+001 1.565686e+002 -7.511820e+000 1.423087e+002
10394037500 -1.058677e+001 1.290641e+002 -1.522252e+001 1.524914e+002 -1.518076e+001 1.534604e+002 -7.417192e+000 1.422173e+002
10412781250 -1.056021e+001 1.275181e+002 -1.546539e+001 1.493743e+002 -1.542968e+001 1.502948e+002 -7.310577e+000 1.420885e+002
10431525000 -1.052673e+001 1.259634e+002 -1.572315e+001 1.462413e+002 -1.568271e+001 1.471565e+002 -7.197961e+000 1.419382e+002
10450268750 -1.049545e+001 1.244197e+002 -1.598451e+001 1.430957e+002 -1.594478e+001 1.440866e+002 -7.082760e+000 1.417010e+002
10469012500 -1.045675e+001 1.228194e+002 -1.625265e+001 1.400206e+002 -1.622212e+001 1.409611e+002 -6.956264e+000 1.414210e+002
10487756250 -1.041522e+001 1.212592e+002 -1.653705e+001 1.368954e+002 -1.649467e+001 1.379072e+002 -6.826856e+000 1.411072e+002
10506500000 -1.037572e+001 1.196866e+002 -1.682100e+001 1.338318e+002 -1.678598e+001 1.348683e+002 -6.696004e+000 1.407213e+002
10525243750 -1.033220e+001 1.180157e+002 -1.711681e+001 1.307807e+002 -1.708667e+001 1.318041e+002 -6.557305e+000 1.402981e+002
10543987500 -1.028442e+001 1.163814e+002 -1.742182e+001 1.277215e+002 -1.738720e+001 1.287998e+002 -6.420732e+000 1.398167e+002
10562731250 -1.023999e+001 1.147069e+002 -1.773473e+001 1.247283e+002 -1.770376e+001 1.258280e+002 -6.285434e+000 1.392607e+002
10581475000 -1.018600e+001 1.129908e+002 -1.805631e+001 1.217772e+002 -1.802132e+001 1.228610e+002 -6.145213e+000 1.386630e+002
10600218750 -1.013692e+001 1.113105e+002 -1.838245e+001 1.187981e+002 -1.834830e+001 1.199886e+002 -6.009430e+000 1.380329e+002
10618962500 -1.009065e+001 1.095780e+002 -1.871568e+001 1.159244e+002 -1.868252e+001 1.171191e+002 -5.875629e+000 1.373162e+002
10637706250 -1.003899e+001 1.077985e+002 -1.906085e+001 1.130473e+002 -1.902478e+001 1.142509e+002 -5.739242e+000 1.365754e+002
10656450000 -9.988505e+000 1.060312e+002 -1.940937e+001 1.102104e+002 -1.936766e+001 1.114501e+002 -5.609840e+000 1.357705e+002
10675193750 -9.940897e+000 1.042108e+002 -1.976677e+001 1.074598e+002 -1.972452e+001 1.086845e+002 -5.483490e+000 1.349074e+002
10693937500 -9.885283e+000 1.023813e+002 -2.013090e+001 1.046894e+002 -2.008075e+001 1.059800e+002 -5.354659e+000 1.340346e+002
10712681250 -9.835705e+000 1.006053e+002 -2.049510e+001 1.019782e+002 -2.044648e+001 1.033249e+002 -5.233643e+000 1.331117e+002
10731425000 -9.790047e+000 9.874551e+001 -2.088099e+001 9.932633e+001 -2.081997e+001 1.006553e+002 -5.118207e+000 1.321576e+002
10750168750 -9.739050e+000 9.687786e+001 -2.125755e+001 9.669234e+001 -2.119764e+001 9.803671e+001 -5.005331e+000 1.311922e+002
10768912500 -9.694115e+000 9.502258e+001 -2.163750e+001 9.413882e+001 -2.157973e+001 9.548963e+001 -4.900290e+000 1.301858e+002
10787656250 -9.648911e+000 9.309516e+001 -2.202998e+001 9.163060e+001 -2.197040e+001 9.295351e+001 -4.797282e+000 1.291413e+002
10806400000 -9.597972e+000 9.120699e+001 -2.242848e+001 8.909705e+001 -2.236241e+001 9.047823e+001 -4.698274e+000 1.280933e+002
10825143750 -9.551278e+000 8.932813e+001 -2.282570e+001 8.671375e+001 -2.276536e+001 8.804498e+001 -4.603801e+000 1.270271e+002
10843887500 -9.512149e+000 8.741494e+001 -2.323224e+001 8.429607e+001 -2.316160e+001 8.571643e+001 -4.512065e+000 1.259465e+002
10862631250 -9.467498e+000 8.551396e+001 -2.363378e+001 8.192003e+001 -2.356157e+001 8.343316e+001 -4.426657e+000 1.248717e+002
10881375000 -9.429741e+000 8.359346e+001 -2.403646e+001 7.964393e+001 -2.396831e+001 8.115430e+001 -4.349741e+000 1.237760e+002
10900118750 -9.388105e+000 8.166035e+001 -2.445295e+001 7.738575e+001 -2.437349e+001 7.892372e+001 -4.274224e+000 1.226628e+002
10918862500 -9.345015e+000 7.975725e+001 -2.486618e+001 7.525217e+001 -2.479519e+001 7.676070e+001 -4.202066e+000 1.215545e+002
10937606250 -9.309843e+000 7.784858e+001 -2.528154e+001 7.314246e+001 -2.521236e+001 7.461378e+001 -4.136272e+000 1.204297e+002
10956350000 -9.271276e+000 7.594122e+001 -2.570280e+001 7.105411e+001 -2.562322e+001 7.255749e+001 -4.072147e+000 1.193006e+002
10975093750 -9.235059e+000 7.403767e+001 -2.612299e+001 6.905709e+001 -2.605347e+001 7.059006e+001 -4.014396e+000 1.181993e+002
10993837500 -9.201794e+000 7.211838e+001 -2.654324e+001 6.705622e+001 -2.648017e+001 6.866548e+001 -3.960608e+000 1.170710e+002
11012581250 -9.163641e+000 7.022981e+001 -2.697093e+001 6.512708e+001 -2.689542e+001 6.682839e+001 -3.904848e+000 1.159493e+002
11031325000 -9.124200e+000 6.835867e+001 -2.740093e+001 6.322809e+001 -2.731737e+001 6.500442e+001 -3.855296e+000 1.148517e+002
11050068750 -9.091726e+000 6.650884e+001 -2.784144e+001 6.142894e+001 -2.775336e+001 6.319836e+001 -3.810851e+000 1.137346e+002
11068812500 -9.057270e+000 6.465941e+001 -2.826922e+001 5.954989e+001 -2.817164e+001 6.146412e+001 -3.764227e+000 1.126252e+002
11087556250 -9.023759e+000 6.280009e+001 -2.870012e+001 5.783936e+001 -2.860641e+001 5.978932e+001 -3.724247e+000 1.115581e+002
11106300000 -8.992040e+000 6.095637e+001 -2.912845e+001 5.615857e+001 -2.904567e+001 5.814069e+001 -3.690628e+000 1.104458e+002
11125043750 -8.956530e+000 5.912529e+001 -2.955178e+001 5.454799e+001 -2.946506e+001 5.659657e+001 -3.653324e+000 1.093356e+002
11143787500 -8.922450e+000 5.727303e+001 -2.998231e+001 5.290843e+001 -2.988306e+001 5.499069e+001 -3.620245e+000 1.082659e+002
11162531250 -8.890673e+000 5.548157e+001 -3.039722e+001 5.151823e+001 -3.029889e+001 5.341801e+001 -3.589069e+000 1.071701e+002
11181275000 -8.859668e+000 5.367154e+001 -3.081457e+001 5.000579e+001 -3.072708e+001 5.201825e+001 -3.553662e+000 1.060920e+002
11200018750 -8.829946e+000 5.186267e+001 -3.124308e+001 4.855033e+001 -3.114888e+001 5.051218e+001 -3.523717e+000 1.050412e+002
11218762500 -8.797654e+000 5.006757e+001 -3.165774e+001 4.709592e+001 -3.156432e+001 4.931795e+001 -3.501557e+000 1.039761e+002
11237506250 -8.763365e+000 4.829274e+001 -3.208253e+001 4.584878e+001 -3.199557e+001 4.791046e+001 -3.474116e+000 1.029122e+002
11256250000 -8.731927e+000 4.653139e+001 -3.251086e+001 4.467425e+001 -3.241063e+001 4.662546e+001 -3.451711e+000 1.018745e+002
11274993750 -8.700099e+000 4.480364e+001 -3.293685e+001 4.352750e+001 -3.281180e+001 4.528099e+001 -3.435206e+000 1.008041e+002
11293737500 -8.669495e+000 4.306664e+001 -3.337521e+001 4.242226e+001 -3.324651e+001 4.395951e+001 -3.411769e+000 9.975165e+001
11312481250 -8.636970e+000 4.133057e+001 -3.380680e+001 4.135097e+001 -3.365661e+001 4.283045e+001 -3.392650e+000 9.874041e+001
11331225000 -8.605212e+000 3.960807e+001 -3.424277e+001 4.006442e+001 -3.408447e+001 4.179468e+001 -3.378806e+000 9.770425e+001
11349968750 -8.568849e+000 3.791269e+001 -3.466220e+001 3.897779e+001 -3.451701e+001 4.073306e+001 -3.358655e+000 9.669228e+001
11368712500 -8.533622e+000 3.623327e+001 -3.510163e+001 3.794754e+001 -3.491640e+001 3.955962e+001 -3.342997e+000 9.568111e+001
11387456250 -8.502886e+000 3.458373e+001 -3.551916e+001 3.691927e+001 -3.530557e+001 3.871738e+001 -3.330252e+000 9.466155e+001
11406200000 -8.472328e+000 3.290413e+001 -3.593156e+001 3.585939e+001 -3.572554e+001 3.766975e+001 -3.313368e+000 9.366045e+001
11424943750 -8.437350e+000 3.125944e+001 -3.633492e+001 3.482826e+001 -3.613796e+001 3.654871e+001 -3.303495e+000 9.267210e+001
11443687500 -8.404553e+000 2.961683e+001 -3.672777e+001 3.385588e+001 -3.651624e+001 3.549295e+001 -3.293545e+000 9.165602e+001
11462431250 -8.369551e+000 2.797692e+001 -3.711949e+001 3.301542e+001 -3.690358e+001 3.441966e+001 -3.280986e+000 9.067580e+001
11481175000 -8.332448e+000 2.635522e+001 -3.752342e+001 3.213251e+001 -3.733985e+001 3.346768e+001 -3.271729e+000 8.968082e+001
11499918750 -8.302180e+000 2.477107e+001 -3.788578e+001 3.129679e+001 -3.773448e+001 3.266671e+001 -3.263413e+000 8.867049e+001
11518662500 -8.267235e+000 2.317432e+001 -3.828920e+001 3.052662e+001 -3.811951e+001 3.192389e+001 -3.250368e+000 8.771101e+001
11537406250 -8.231461e+000 2.159132e+001 -3.869847e+001 2.943776e+001 -3.846920e+001 3.067859e+001 -3.243858e+000 8.674361e+001
11556150000 -8.197480e+000 2.001251e+001 -3.913201e+001 2.839152e+001 -3.888711e+001 2.943856e+001 -3.236920e+000 8.576434e+001
11574893750 -8.159495e+000 1.847873e+001 -3.951732e+001 2.779196e+001 -3.929067e+001 2.816677e+001 -3.228580e+000 8.482291e+001
11593637500 -8.122494e+000 1.697610e+001 -3.991507e+001 2.653365e+001 -3.967653e+001 2.767953e+001 -3.227015e+000 8.385896e+001
11612381250 -8.090350e+000 1.547836e+001 -4.030445e+001 2.595923e+001 -4.008123e+001 2.704965e+001 -3.221596e+000 8.287332e+001
11631125000 -8.054357e+000 1.396818e+001 -4.069222e+001 2.482590e+001 -4.049152e+001 2.644341e+001 -3.216037e+000 8.195155e+001
11649868750 -8.020381e+000 1.249763e+001 -4.108060e+001 2.404101e+001 -4.086330e+001 2.523228e+001 -3.216379e+000 8.099794e+001
11668612500 -7.984083e+000 1.099858e+001 -4.147932e+001 2.306579e+001 -4.119903e+001 2.434887e+001 -3.212239e+000 8.001748e+001
11687356250 -7.946716e+000 9.525199e+000 -4.188589e+001 2.223622e+001 -4.158873e+001 2.291064e+001 -3.208536e+000 7.909986e+001
11706100000 -7.911781e+000 8.109674e+000 -4.225248e+001 2.155229e+001 -4.202113e+001 2.248904e+001 -3.209622e+000 7.815462e+001
11724843750 -7.881337e+000 6.670002e+000 -4.263877e+001 2.045194e+001 -4.239056e+001 2.152731e+001 -3.204921e+000 7.719861e+001
11743587500 -7.845368e+000 5.241342e+000 -4.313088e+001 2.007337e+001 -4.277308e+001 2.079998e+001 -3.202798e+000 7.629298e+001
11762331250 -7.810588e+000 3.845965e+000 -4.366491e+001 1.916223e+001 -4.316351e+001 1.995158e+001 -3.206687e+000 7.535341e+001
11781075000 -7.777053e+000 2.414029e+000 -4.404478e+001 1.795644e+001 -4.356484e+001 1.921318e+001 -3.204278e+000 7.440334e+001
11799818750 -7.733714e+000 1.021354e+000 -4.443700e+001 1.695956e+001 -4.391175e+001 1.872102e+001 -3.200187e+000 7.351231e+001
11818562500 -7.699695e+000 -3.105603e-001 -4.473746e+001 1.626150e+001 -4.435566e+001 1.781354e+001 -3.205333e+000 7.258279e+001
11837306250 -7.669837e+000 -1.691223e+000 -4.514171e+001 1.580129e+001 -4.475439e+001 1.718032e+001 -3.201235e+000 7.164038e+001
11856050000 -7.631123e+000 -3.053186e+000 -4.552805e+001 1.533690e+001 -4.509921e+001 1.676156e+001 -3.198186e+000 7.077893e+001
11874793750 -7.601473e+000 -4.378297e+000 -4.594750e+001 1.478163e+001 -4.577553e+001 1.501187e+001 -3.208063e+000 6.986693e+001
11893537500 -7.567381e+000 -5.760430e+000 -4.634086e+001 1.509728e+001 -4.623130e+001 1.463239e+001 -3.207059e+000 6.891943e+001
11912281250 -7.523584e+000 -7.035626e+000 -4.675707e+001 1.442964e+001 -4.653714e+001 1.343506e+001 -3.208065e+000 6.805285e+001
11931025000 -7.495677e+000 -8.302968e+000 -4.732061e+001 1.366778e+001 -4.699837e+001 1.317300e+001 -3.218005e+000 6.714214e+001
11949768750 -7.466293e+000 -9.654748e+000 -4.771019e+001 1.243174e+001 -4.743149e+001 1.222204e+001 -3.216902e+000 6.621764e+001
11968512500 -7.424306e+000 -1.091672e+001 -4.801219e+001 1.204253e+001 -4.799570e+001 1.148260e+001 -3.217911e+000 6.535808e+001
11987256250 -7.394832e+000 -1.217616e+001 -4.835086e+001 1.193156e+001 -4.834445e+001 1.163163e+001 -3.228383e+000 6.444231e+001
12006000000 -7.358199e+000 -1.349671e+001 -4.866472e+001 1.170728e+001 -4.878429e+001 1.205492e+001 -3.230596e+000 6.353447e+001
12024743750 -7.315544e+000 -1.471008e+001 -4.925580e+001 1.087082e+001 -4.918655e+001 1.058687e+001 -3.235650e+000 6.266741e+001
12043487500 -7.287241e+000 -1.592185e+001 -4.990990e+001 1.045575e+001 -4.971890e+001 1.019826e+001 -3.246170e+000 6.176048e+001
12062231250 -7.253330e+000 -1.718622e+001 -5.033435e+001 1.166614e+001 -5.012085e+001 9.771945e+000 -3.246588e+000 6.087603e+001
12080975000 -7.213622e+000 -1.839811e+001 -5.087309e+001 1.196257e+001 -5.063590e+001 8.506857e+000 -3.252117e+000 6.001738e+001
12099718750 -7.185194e+000 -1.961048e+001 -5.116424e+001 1.165962e+001 -5.139064e+001 7.639377e+000 -3.261050e+000 5.914190e+001
12118462500 -7.145346e+000 -2.082407e+001 -5.150999e+001 1.306091e+001 -5.191847e+001 8.003380e+000 -3.266746e+000 5.826584e+001
12137206250 -7.105198e+000 -2.197274e+001 -5.194316e+001 1.229959e+001 -5.250131e+001 7.167788e+000 -3.273933e+000 5.741159e+001
12155950000 -7.076046e+000 -2.312940e+001 -5.250875e+001 1.079079e+001 -5.291698e+001 8.097212e+000 -3.284394e+000 5.652256e+001
12174693750 -7.039159e+000 -2.430412e+001 -5.287416e+001 1.097796e+001 -5.367281e+001 9.468111e+000 -3.289764e+000 5.566069e+001
12193437500 -7.003778e+000 -2.546241e+001 -5.320193e+001 1.179347e+001 -5.418188e+001 8.995083e+000 -3.299483e+000 5.481002e+001
12212181250 -6.973063e+000 -2.662547e+001 -5.363773e+001 1.255989e+001 -5.473965e+001 7.877169e+000 -3.310214e+000 5.393057e+001
12230925000 -6.935775e+000 -2.777413e+001 -5.406231e+001 1.183039e+001 -5.535479e+001 7.548321e+000 -3.319936e+000 5.307235e+001
12249668750 -6.900525e+000 -2.888581e+001 -5.443753e+001 1.252203e+001 -5.576331e+001 5.452546e+000 -3.330372e+000 5.220593e+001
12268412500 -6.865995e+000 -2.997456e+001 -5.501160e+001 1.535234e+001 -5.689529e+001 1.381379e+000 -3.340389e+000 5.133725e+001
12287156250 -6.834211e+000 -3.108974e+001 -5.554122e+001 1.919801e+001 -5.785181e+001 7.369431e-001 -3.350110e+000 5.047202e+001
12305900000 -6.799858e+000 -3.220905e+001 -5.585495e+001 2.162710e+001 -5.853653e+001 2.973767e+000 -3.357169e+000 4.962206e+001
12324643750 -6.766614e+000 -3.328825e+001 -5.651268e+001 1.796065e+001 -5.902647e+001 7.246829e+000 -3.368190e+000 4.877946e+001
12343387500 -6.732234e+000 -3.439283e+001 -5.711668e+001 1.647353e+001 -5.942716e+001 6.982400e+000 -3.380598e+000 4.790388e+001
12362131250 -6.694693e+000 -3.544566e+001 -5.798993e+001 1.438629e+001 -5.997604e+001 8.972636e+000 -3.389045e+000 4.704878e+001
12380875000 -6.662386e+000 -3.646540e+001 -5.862106e+001 1.085796e+001 -6.051989e+001 1.885482e+001 -3.400416e+000 4.620007e+001
12399618750 -6.635875e+000 -3.754528e+001 -5.925638e+001 1.446656e+001 -6.095934e+001 3.406655e+001 -3.413107e+000 4.534743e+001
12418362500 -6.602190e+000 -3.859932e+001 -5.996577e+001 1.486348e+001 -6.173582e+001 4.793357e+001 -3.420577e+000 4.451633e+001
12437106250 -6.570992e+000 -3.962679e+001 -6.071888e+001 1.589427e+001 -6.232602e+001 6.643646e+001 -3.432171e+000 4.368713e+001
12455850000 -6.539296e+000 -4.067942e+001 -6.113181e+001 1.827094e+001 -6.291479e+001 8.442510e+001 -3.442970e+000 4.280842e+001
12474593750 -6.505368e+000 -4.170212e+001 -6.135168e+001 2.057898e+001 -6.301751e+001 9.686826e+001 -3.451500e+000 4.198576e+001
12493337500 -6.476097e+000 -4.269876e+001 -6.173407e+001 2.414348e+001 -6.358797e+001 1.117089e+002 -3.465281e+000 4.113459e+001
12512081250 -6.448373e+000 -4.371637e+001 -6.292567e+001 2.197846e+001 -6.384763e+001 1.340033e+002 -3.475328e+000 4.027108e+001
12530825000 -6.418203e+000 -4.473634e+001 -6.378845e+001 2.272047e+001 -6.395145e+001 1.546059e+002 -3.485496e+000 3.944437e+001
12549568750 -6.386038e+000 -4.575028e+001 -6.446252e+001 2.776540e+001 -6.399054e+001 1.766640e+002 -3.497483e+000 3.861339e+001
12568312500 -6.352830e+000 -4.675637e+001 -6.484245e+001 3.103735e+001 -6.432051e+001 -1.625626e+002 -3.511125e+000 3.774745e+001
12587056250 -6.317500e+000 -4.772073e+001 -6.526711e+001 2.997823e+001 -6.502818e+001 -1.408992e+002 -3.521173e+000 3.690871e+001
12605800000 -6.290304e+000 -4.868491e+001 -6.566991e+001 2.140776e+001 -6.551861e+001 -1.263544e+002 -3.530520e+000 3.606750e+001
12624543750 -6.261181e+000 -4.965106e+001 -6.574236e+001 1.087544e+001 -6.573817e+001 -1.046459e+002 -3.538347e+000 3.523072e+001
12643287500 -6.229988e+000 -5.062320e+001 -6.580431e+001 2.166022e-001 -6.597322e+001 -8.258594e+001 -3.550336e+000 3.441302e+001
12662031250 -6.199499e+000 -5.158030e+001 -6.667711e+001 -9.684083e+000 -6.633117e+001 -6.146093e+001 -3.562610e+000 3.358562e+001
12680775000 -6.165325e+000 -5.253820e+001 -6.696386e+001 -2.274087e+001 -6.691460e+001 -3.252374e+001 -3.575831e+000 3.273715e+001
12699518750 -6.135375e+000 -5.343799e+001 -6.681595e+001 -3.652582e+001 -6.620364e+001 -6.238379e+000 -3.584028e+000 3.190222e+001
12718262500 -6.109530e+000 -5.436687e+001 -6.666818e+001 -4.956333e+001 -6.593402e+001 1.443334e+001 -3.594117e+000 3.108976e+001
12737006250 -6.077693e+000 -5.529045e+001 -6.680334e+001 -6.057550e+001 -6.552711e+001 3.407090e+001 -3.606717e+000 3.025453e+001
12755750000 -6.050181e+000 -5.620527e+001 -6.649100e+001 -6.586535e+001 -6.579433e+001 4.502439e+001 -3.615768e+000 2.943623e+001
12774493750 -6.021105e+000 -5.713304e+001 -6.636553e+001 -7.269267e+001 -6.590519e+001 6.872108e+001 -3.627420e+000 2.863885e+001
12793237500 -5.986910e+000 -5.805826e+001 -6.579790e+001 -7.965718e+001 -6.566930e+001 8.773353e+001 -3.641646e+000 2.780334e+001
12811981250 -5.957083e+000 -5.891714e+001 -6.542027e+001 -8.402884e+001 -6.547565e+001 9.778680e+001 -3.652331e+000 2.697124e+001
12830725000 -5.927169e+000 -5.982057e+001 -6.623278e+001 -9.364991e+001 -6.511421e+001 1.036592e+002 -3.664507e+000 2.615950e+001
12849468750 -5.898842e+000 -6.071794e+001 -6.581190e+001 -1.028302e+002 -6.453351e+001 1.115260e+002 -3.677235e+000 2.532120e+001
12868212500 -5.870263e+000 -6.158939e+001 -6.555712e+001 -1.127218e+002 -6.422260e+001 1.140189e+002 -3.685410e+000 2.448679e+001
12886956250 -5.838463e+000 -6.250871e+001 -6.539832e+001 -1.216535e+002 -6.383730e+001 1.207761e+002 -3.698574e+000 2.370436e+001
12905700000 -5.804809e+000 -6.336554e+001 -6.531362e+001 -1.321033e+002 -6.360977e+001 1.300380e+002 -3.712860e+000 2.285433e+001
12924443750 -5.776390e+000 -6.422009e+001 -6.533583e+001 -1.470856e+002 -6.315244e+001 1.348656e+002 -3.720237e+000 2.202716e+001
12943187500 -5.747704e+000 -6.510105e+001 -6.442796e+001 -1.559925e+002 -6.291750e+001 1.356924e+002 -3.733229e+000 2.124822e+001
12961931250 -5.719700e+000 -6.593860e+001 -6.387608e+001 -1.676771e+002 -6.272378e+001 1.381071e+002 -3.743865e+000 2.041379e+001
12980675000 -5.693045e+000 -6.679061e+001 -6.336663e+001 1.770342e+002 -6.272261e+001 1.365209e+002 -3.752642e+000 1.961039e+001
12999418750 -5.660917e+000 -6.767534e+001 -6.305824e+001 1.663378e+002 -6.227163e+001 1.378080e+002 -3.765507e+000 1.883081e+001
13018162500 -5.633523e+000 -6.849730e+001 -6.237158e+001 1.609612e+002 -6.181622e+001 1.342325e+002 -3.777242e+000 1.800214e+001
13036906250 -5.608259e+000 -6.933277e+001 -6.174725e+001 1.599536e+002 -6.089460e+001 1.403587e+002 -3.785779e+000 1.719787e+001
13055650000 -5.582124e+000 -7.019305e+001 -6.169788e+001 1.600461e+002 -6.057266e+001 1.421759e+002 -3.800560e+000 1.639402e+001
13074393750 -5.556387e+000 -7.099197e+001 -6.167704e+001 1.609193e+002 -6.000645e+001 1.430974e+002 -3.807696e+000 1.557250e+001
13093137500 -5.532226e+000 -7.183646e+001 -6.064265e+001 1.625162e+002 -5.935158e+001 1.429790e+002 -3.818246e+000 1.478925e+001
13111881250 -5.502869e+000 -7.267373e+001 -6.029475e+001 1.656714e+002 -5.864267e+001 1.372547e+002 -3.830368e+000 1.401533e+001
13130625000 -5.474386e+000 -7.347137e+001 -6.016774e+001 1.679284e+002 -5.850322e+001 1.377802e+002 -3.841782e+000 1.318918e+001
13149368750 -5.449655e+000 -7.427272e+001 -6.012122e+001 1.680880e+002 -5.806693e+001 1.379293e+002 -3.853245e+000 1.238977e+001
13168112500 -5.425902e+000 -7.509198e+001 -5.992606e+001 1.675792e+002 -5.788534e+001 1.378716e+002 -3.865930e+000 1.159044e+001
13186856250 -5.399955e+000 -7.588565e+001 -5.974953e+001 1.648994e+002 -5.736155e+001 1.451451e+002 -3.874602e+000 1.077522e+001
13205600000 -5.375390e+000 -7.670872e+001 -5.939738e+001 1.642934e+002 -5.723808e+001 1.447654e+002 -3.883607e+000 1.000324e+001
13224343750 -5.350625e+000 -7.751166e+001 -5.913064e+001 1.646340e+002 -5.688003e+001 1.457431e+002 -3.894709e+000 9.226231e+000
13243087500 -5.322094e+000 -7.829227e+001 -5.908522e+001 1.632415e+002 -5.653397e+001 1.480905e+002 -3.903279e+000 8.404445e+000
13261831250 -5.301414e+000 -7.907420e+001 -5.773812e+001 1.592095e+002 -5.633440e+001 1.504430e+002 -3.912377e+000 7.632926e+000
13280575000 -5.277057e+000 -7.985833e+001 -5.742524e+001 1.569951e+002 -5.624612e+001 1.496644e+002 -3.924254e+000 6.855349e+000
13299318750 -5.252391e+000 -8.064050e+001 -5.704608e+001 1.564403e+002 -5.591650e+001 1.500309e+002 -3.933034e+000 6.057060e+000
13318062500 -5.230394e+000 -8.142390e+001 -5.677611e+001 1.538120e+002 -5.561026e+001 1.478247e+002 -3.942750e+000 5.315897e+000
13336806250 -5.202568e+000 -8.219946e+001 -5.631870e+001 1.525458e+002 -5.568333e+001 1.484302e+002 -3.955487e+000 4.539540e+000
13355550000 -5.179688e+000 -8.293372e+001 -5.585284e+001 1.530551e+002 -5.546855e+001 1.503400e+002 -3.965904e+000 3.756712e+000
13374293750 -5.157793e+000 -8.368237e+001 -5.533523e+001 1.535270e+002 -5.539631e+001 1.491492e+002 -3.975255e+000 2.996903e+000
13393037500 -5.131526e+000 -8.445563e+001 -5.498489e+001 1.543824e+002 -5.501078e+001 1.478708e+002 -3.987056e+000 2.215786e+000
13411781250 -5.109271e+000 -8.520381e+001 -5.482401e+001 1.526889e+002 -5.466743e+001 1.491626e+002 -3.993761e+000 1.449268e+000
13430525000 -5.088325e+000 -8.595840e+001 -5.452408e+001 1.494915e+002 -5.454913e+001 1.487226e+002 -4.002378e+000 7.017954e-001
13449268750 -5.060597e+000 -8.671008e+001 -5.448693e+001 1.466827e+002 -5.429343e+001 1.500431e+002 -4.014402e+000 -6.421812e-002
13468012500 -5.035218e+000 -8.742308e+001 -5.446816e+001 1.453679e+002 -5.423117e+001 1.487471e+002 -4.023019e+000 -8.364154e-001
13486756250 -5.012543e+000 -8.815502e+001 -5.411937e+001 1.438154e+002 -5.400454e+001 1.469722e+002 -4.032150e+000 -1.580505e+000
13505500000 -4.987732e+000 -8.890355e+001 -5.385314e+001 1.434111e+002 -5.380968e+001 1.457733e+002 -4.043657e+000 -2.358030e+000
13524243750 -4.963822e+000 -8.964165e+001 -5.397629e+001 1.435709e+002 -5.358535e+001 1.465288e+002 -4.050135e+000 -3.129380e+000
13542987500 -4.940977e+000 -9.039836e+001 -5.390637e+001 1.422937e+002 -5.337899e+001 1.467950e+002 -4.059832e+000 -3.870193e+000
13561731250 -4.911581e+000 -9.114240e+001 -5.368782e+001 1.400509e+002 -5.315253e+001 1.450430e+002 -4.073387e+000 -4.638107e+000
13580475000 -4.886533e+000 -9.184820e+001 -5.343160e+001 1.384578e+002 -5.298880e+001 1.449751e+002 -4.079388e+000 -5.404464e+000
13599218750 -4.861118e+000 -9.257753e+001 -5.325873e+001 1.361985e+002 -5.270681e+001 1.446612e+002 -4.089621e+000 -6.139296e+000
13617962500 -4.834051e+000 -9.330676e+001 -5.321529e+001 1.356641e+002 -5.245583e+001 1.422300e+002 -4.100773e+000 -6.898126e+000
13636706250 -4.811821e+000 -9.401495e+001 -5.308757e+001 1.342050e+002 -5.218072e+001 1.399198e+002 -4.108034e+000 -7.641975e+000
13655450000 -4.784915e+000 -9.475231e+001 -5.282895e+001 1.327169e+002 -5.213192e+001 1.381047e+002 -4.120649e+000 -8.356262e+000
13674193750 -4.758896e+000 -9.546786e+001 -5.263007e+001 1.317303e+002 -5.207420e+001 1.362899e+002 -4.133454e+000 -9.103667e+000
13692937500 -4.736010e+000 -9.615695e+001 -5.246411e+001 1.308259e+002 -5.200019e+001 1.341372e+002 -4.142193e+000 -9.841049e+000
13711681250 -4.712338e+000 -9.688245e+001 -5.237579e+001 1.316474e+002 -5.208437e+001 1.329637e+002 -4.155971e+000 -1.055897e+001
13730425000 -4.687891e+000 -9.760335e+001 -5.226319e+001 1.297422e+002 -5.208519e+001 1.306525e+002 -4.165336e+000 -1.130205e+001
13749168750 -4.667860e+000 -9.831000e+001 -5.206980e+001 1.298245e+002 -5.220291e+001 1.281526e+002 -4.174385e+000 -1.204498e+001
13767912500 -4.643996e+000 -9.905443e+001 -5.207937e+001 1.284748e+002 -5.195261e+001 1.260792e+002 -4.183158e+000 -1.274974e+001
13786656250 -4.615451e+000 -9.975515e+001 -5.196730e+001 1.265912e+002 -5.194864e+001 1.250234e+002 -4.194319e+000 -1.348866e+001
13805400000 -4.595297e+000 -1.004688e+002 -5.197145e+001 1.256870e+002 -5.180860e+001 1.244062e+002 -4.202450e+000 -1.420284e+001
13824143750 -4.571705e+000 -1.011982e+002 -5.215348e+001 1.256106e+002 -5.191204e+001 1.233933e+002 -4.215783e+000 -1.491014e+001
13842887500 -4.546680e+000 -1.018960e+002 -5.199048e+001 1.255236e+002 -5.200619e+001 1.218560e+002 -4.225157e+000 -1.565919e+001
13861631250 -4.527230e+000 -1.026104e+002 -5.199471e+001 1.254343e+002 -5.184686e+001 1.210288e+002 -4.231838e+000 -1.636352e+001
13880375000 -4.500764e+000 -1.033555e+002 -5.189124e+001 1.254231e+002 -5.164478e+001 1.214874e+002 -4.239624e+000 -1.706621e+001
13899118750 -4.475272e+000 -1.040723e+002 -5.184006e+001 1.241142e+002 -5.166057e+001 1.206779e+002 -4.249535e+000 -1.779488e+001
13917862500 -4.456617e+000 -1.047673e+002 -5.184806e+001 1.244418e+002 -5.160797e+001 1.194487e+002 -4.254413e+000 -1.847871e+001
13936606250 -4.431613e+000 -1.054961e+002 -5.179679e+001 1.233201e+002 -5.165766e+001 1.191080e+002 -4.266482e+000 -1.918596e+001
13955350000 -4.410559e+000 -1.061949e+002 -5.155735e+001 1.216918e+002 -5.175063e+001 1.177000e+002 -4.274489e+000 -1.990904e+001
13974093750 -4.391083e+000 -1.069126e+002 -5.150348e+001 1.207754e+002 -5.206593e+001 1.160541e+002 -4.278075e+000 -2.059353e+001
13992837500 -4.366974e+000 -1.076660e+002 -5.151629e+001 1.206322e+002 -5.216442e+001 1.155364e+002 -4.287019e+000 -2.128105e+001
14011581250 -4.342396e+000 -1.083660e+002 -5.160750e+001 1.199010e+002 -5.220831e+001 1.159087e+002 -4.293721e+000 -2.199319e+001
14030325000 -4.327003e+000 -1.090853e+002 -5.159538e+001 1.206739e+002 -5.217120e+001 1.154629e+002 -4.297178e+000 -2.266570e+001
14049068750 -4.305011e+000 -1.098281e+002 -5.163360e+001 1.207810e+002 -5.223069e+001 1.155225e+002 -4.307298e+000 -2.337058e+001
14067812500 -4.285077e+000 -1.105378e+002 -5.185519e+001 1.215011e+002 -5.223769e+001 1.164604e+002 -4.310067e+000 -2.409838e+001
14086556250 -4.268466e+000 -1.112780e+002 -5.192167e+001 1.214008e+002 -5.232741e+001 1.162751e+002 -4.311372e+000 -2.479924e+001
14105300000 -4.247670e+000 -1.120313e+002 -5.202634e+001 1.212385e+002 -5.227826e+001 1.162973e+002 -4.318615e+000 -2.549612e+001
14124043750 -4.227985e+000 -1.127338e+002 -5.227010e+001 1.215992e+002 -5.234097e+001 1.158182e+002 -4.318494e+000 -2.620804e+001
14142787500 -4.211101e+000 -1.134556e+002 -5.233430e+001 1.208498e+002 -5.210570e+001 1.161500e+002 -4.320927e+000 -2.688867e+001
14161531250 -4.190675e+000 -1.141972e+002 -5.227652e+001 1.211720e+002 -5.204929e+001 1.173677e+002 -4.330436e+000 -2.759219e+001
14180275000 -4.175028e+000 -1.148971e+002 -5.215055e+001 1.199386e+002 -5.192877e+001 1.183257e+002 -4.329521e+000 -2.831805e+001
14199018750 -4.162211e+000 -1.156455e+002 -5.209363e+001 1.202899e+002 -5.207209e+001 1.190930e+002 -4.333493e+000 -2.901547e+001
14217762500 -4.144746e+000 -1.163805e+002 -5.214330e+001 1.212946e+002 -5.192020e+001 1.187308e+002 -4.339490e+000 -2.972427e+001
14236506250 -4.131492e+000 -1.170605e+002 -5.209263e+001 1.214897e+002 -5.180171e+001 1.195673e+002 -4.338910e+000 -3.044458e+001
14255250000 -4.119628e+000 -1.177934e+002 -5.177401e+001 1.214747e+002 -5.181756e+001 1.206144e+002 -4.342927e+000 -3.114069e+001
14273993750 -4.105527e+000 -1.185187e+002 -5.161212e+001 1.206082e+002 -5.166137e+001 1.207149e+002 -4.349437e+000 -3.186748e+001
14292737500 -4.097597e+000 -1.192156e+002 -5.155342e+001 1.204999e+002 -5.166296e+001 1.200779e+002 -4.349106e+000 -3.258477e+001
14311481250 -4.088256e+000 -1.199569e+002 -5.149639e+001 1.210409e+002 -5.167019e+001 1.198759e+002 -4.354075e+000 -3.326655e+001
14330225000 -4.075817e+000 -1.206633e+002 -5.151985e+001 1.218964e+002 -5.159384e+001 1.201548e+002 -4.362552e+000 -3.399562e+001
14348968750 -4.067234e+000 -1.213568e+002 -5.138990e+001 1.220344e+002 -5.152069e+001 1.201893e+002 -4.364787e+000 -3.473285e+001
14367712500 -4.059184e+000 -1.220805e+002 -5.127979e+001 1.226891e+002 -5.145230e+001 1.201985e+002 -4.370099e+000 -3.542823e+001
14386456250 -4.051288e+000 -1.227779e+002 -5.119519e+001 1.223712e+002 -5.146654e+001 1.197389e+002 -4.375656e+000 -3.617939e+001
14405200000 -4.047202e+000 -1.234730e+002 -5.115600e+001 1.231815e+002 -5.107465e+001 1.205140e+002 -4.376462e+000 -3.692054e+001
14423943750 -4.044626e+000 -1.241883e+002 -5.102449e+001 1.236591e+002 -5.082424e+001 1.202799e+002 -4.381427e+000 -3.764319e+001
14442687500 -4.039839e+000 -1.248651e+002 -5.081330e+001 1.239735e+002 -5.071202e+001 1.190198e+002 -4.387865e+000 -3.838914e+001
14461431250 -4.035752e+000 -1.255421e+002 -5.069740e+001 1.235292e+002 -5.058289e+001 1.187737e+002 -4.390621e+000 -3.914003e+001
14480175000 -4.034201e+000 -1.262323e+002 -5.042951e+001 1.240879e+002 -5.034944e+001 1.183643e+002 -4.399351e+000 -3.986840e+001
14498918750 -4.032266e+000 -1.268908e+002 -5.001066e+001 1.226852e+002 -5.016655e+001 1.170444e+002 -4.405345e+000 -4.063483e+001
14517662500 -4.031338e+000 -1.275642e+002 -4.987701e+001 1.219980e+002 -5.003423e+001 1.166350e+002 -4.408499e+000 -4.138155e+001
14536406250 -4.026520e+000 -1.282566e+002 -4.961945e+001 1.220448e+002 -4.994173e+001 1.165619e+002 -4.416146e+000 -4.213234e+001
14555150000 -4.022294e+000 -1.288940e+002 -4.930545e+001 1.215019e+002 -4.972952e+001 1.162085e+002 -4.423408e+000 -4.290425e+001
14573893750 -4.021008e+000 -1.295325e+002 -4.918335e+001 1.210414e+002 -4.960959e+001 1.156021e+002 -4.426813e+000 -4.366212e+001
14592637500 -4.023314e+000 -1.301765e+002 -4.910908e+001 1.206753e+002 -4.941134e+001 1.149552e+002 -4.438033e+000 -4.441967e+001
14611381250 -4.023084e+000 -1.308021e+002 -4.895271e+001 1.200962e+002 -4.928719e+001 1.144659e+002 -4.445070e+000 -4.520877e+001
14630125000 -4.023582e+000 -1.314443e+002 -4.882191e+001 1.189117e+002 -4.899333e+001 1.130265e+002 -4.449914e+000 -4.596330e+001
14648868750 -4.020856e+000 -1.320906e+002 -4.862392e+001 1.182635e+002 -4.894909e+001 1.127481e+002 -4.458641e+000 -4.672234e+001
14667612500 -4.018412e+000 -1.327031e+002 -4.838828e+001 1.176056e+002 -4.884432e+001 1.112515e+002 -4.466404e+000 -4.751450e+001
14686356250 -4.020628e+000 -1.333128e+002 -4.830820e+001 1.164468e+002 -4.853407e+001 1.094724e+002 -4.474129e+000 -4.827698e+001
14705100000 -4.021019e+000 -1.339332e+002 -4.823859e+001 1.159983e+002 -4.841150e+001 1.091210e+002 -4.487791e+000 -4.905455e+001
14723843750 -4.019481e+000 -1.345205e+002 -4.810073e+001 1.156713e+002 -4.821700e+001 1.090459e+002 -4.496123e+000 -4.988626e+001
14742587500 -4.020849e+000 -1.351427e+002 -4.795938e+001 1.136531e+002 -4.792442e+001 1.075444e+002 -4.505792e+000 -5.069255e+001
14761331250 -4.018021e+000 -1.357414e+002 -4.772618e+001 1.127432e+002 -4.774540e+001 1.061680e+002 -4.515066e+000 -5.147079e+001
14780075000 -4.016578e+000 -1.363289e+002 -4.759669e+001 1.116857e+002 -4.760099e+001 1.053310e+002 -4.525542e+000 -5.227213e+001
14798818750 -4.017092e+000 -1.369269e+002 -4.742461e+001 1.100884e+002 -4.744701e+001 1.041397e+002 -4.535908e+000 -5.305125e+001
14817562500 -4.015568e+000 -1.374983e+002 -4.723353e+001 1.091381e+002 -4.714254e+001 1.035657e+002 -4.549739e+000 -5.384319e+001
14836306250 -4.016383e+000 -1.380630e+002 -4.702187e+001 1.077730e+002 -4.699793e+001 1.019331e+002 -4.563877e+000 -5.466056e+001
14855050000 -4.013296e+000 -1.386613e+002 -4.689306e+001 1.057182e+002 -4.694236e+001 1.006845e+002 -4.575347e+000 -5.544809e+001
14873793750 -4.008638e+000 -1.392477e+002 -4.674582e+001 1.041660e+002 -4.677876e+001 9.988522e+001 -4.588281e+000 -5.625420e+001
14892537500 -4.006322e+000 -1.397991e+002 -4.651643e+001 1.027553e+002 -4.665125e+001 9.893128e+001 -4.600766e+000 -5.706061e+001
14911281250 -4.002629e+000 -1.403832e+002 -4.640545e+001 1.007302e+002 -4.658628e+001 9.766246e+001 -4.613602e+000 -5.786034e+001
14930025000 -3.998777e+000 -1.409502e+002 -4.630861e+001 9.931615e+001 -4.643758e+001 9.651371e+001 -4.631835e+000 -5.867236e+001
14948768750 -3.997274e+000 -1.415002e+002 -4.624415e+001 9.770772e+001 -4.628859e+001 9.496852e+001 -4.646629e+000 -5.948942e+001
14967512500 -3.995041e+000 -1.420791e+002 -4.610663e+001 9.624789e+001 -4.616304e+001 9.326181e+001 -4.661744e+000 -6.026444e+001
14986256250 -3.987162e+000 -1.426851e+002 -4.605162e+001 9.503349e+001 -4.608246e+001 9.139684e+001 -4.678942e+000 -6.106754e+001
15005000000 -3.983746e+000 -1.432275e+002 -4.592655e+001 9.301396e+001 -4.599390e+001 8.956524e+001 -4.694102e+000 -6.190355e+001
15023743750 -3.982321e+000 -1.437870e+002 -4.582736e+001 9.098369e+001 -4.592452e+001 8.716418e+001 -4.706058e+000 -6.268714e+001
15042487500 -3.973602e+000 -1.443593e+002 -4.576760e+001 8.983572e+001 -4.584927e+001 8.543570e+001 -4.726046e+000 -6.349034e+001
15061231250 -3.969559e+000 -1.448829e+002 -4.565322e+001 8.825803e+001 -4.582235e+001 8.370684e+001 -4.742542e+000 -6.433622e+001
15079975000 -3.971225e+000 -1.454775e+002 -4.554060e+001 8.651807e+001 -4.572504e+001 8.160307e+001 -4.757100e+000 -6.512498e+001
15098718750 -3.959903e+000 -1.460301e+002 -4.553664e+001 8.441338e+001 -4.572071e+001 7.963416e+001 -4.777915e+000 -6.595587e+001
15117462500 -3.959788e+000 -1.465706e+002 -4.546836e+001 8.248801e+001 -4.565021e+001 7.818237e+001 -4.788459e+000 -6.677859e+001
15136206250 -3.957658e+000 -1.471478e+002 -4.548521e+001 8.079256e+001 -4.557050e+001 7.599146e+001 -4.804920e+000 -6.755453e+001
15154950000 -3.947403e+000 -1.476922e+002 -4.543727e+001 7.876140e+001 -4.559502e+001 7.397226e+001 -4.825722e+000 -6.838073e+001
15173693750 -3.950042e+000 -1.482159e+002 -4.537039e+001 7.718797e+001 -4.571453e+001 7.274952e+001 -4.838820e+000 -6.919730e+001
15192437500 -3.946345e+000 -1.488080e+002 -4.531153e+001 7.546391e+001 -4.568826e+001 7.130608e+001 -4.855927e+000 -6.998015e+001
15211181250 -3.935874e+000 -1.493346e+002 -4.531850e+001 7.382560e+001 -4.567898e+001 6.973320e+001 -4.874784e+000 -7.082012e+001
15229925000 -3.937574e+000 -1.498862e+002 -4.536584e+001 7.206278e+001 -4.570619e+001 6.805518e+001 -4.888556e+000 -7.161659e+001
15248668750 -3.929799e+000 -1.504618e+002 -4.535342e+001 7.012894e+001 -4.575864e+001 6.622514e+001 -4.908250e+000 -7.239284e+001
15267412500 -3.921331e+000 -1.509744e+002 -4.544388e+001 6.792064e+001 -4.574905e+001 6.532793e+001 -4.929140e+000 -7.323376e+001
15286156250 -3.926467e+000 -1.515203e+002 -4.541460e+001 6.656394e+001 -4.575742e+001 6.370756e+001 -4.943013e+000 -7.402754e+001
15304900000 -3.918245e+000 -1.520844e+002 -4.548102e+001 6.511223e+001 -4.583448e+001 6.249168e+001 -4.961411e+000 -7.481968e+001
15323643750 -3.912084e+000 -1.525998e+002 -4.562999e+001 6.306342e+001 -4.596033e+001 6.074080e+001 -4.978921e+000 -7.564489e+001
15342387500 -3.915572e+000 -1.531378e+002 -4.564967e+001 6.186034e+001 -4.599011e+001 5.952121e+001 -4.992302e+000 -7.641257e+001
15361131250 -3.903458e+000 -1.536967e+002 -4.573973e+001 5.999671e+001 -4.609774e+001 5.811092e+001 -5.010414e+000 -7.719408e+001
15379875000 -3.898394e+000 -1.542030e+002 -4.579216e+001 5.896095e+001 -4.614623e+001 5.701760e+001 -5.026213e+000 -7.801504e+001
15398618750 -3.902652e+000 -1.547547e+002 -4.591195e+001 5.768637e+001 -4.636299e+001 5.623867e+001 -5.038454e+000 -7.880517e+001
15417362500 -3.894286e+000 -1.552798e+002 -4.603137e+001 5.665220e+001 -4.644161e+001 5.500235e+001 -5.055392e+000 -7.961754e+001
15436106250 -3.891585e+000 -1.558076e+002 -4.614142e+001 5.547673e+001 -4.647498e+001 5.378840e+001 -5.070333e+000 -8.039554e+001
15454850000 -3.887377e+000 -1.563809e+002 -4.619569e+001 5.432970e+001 -4.660345e+001 5.309797e+001 -5.088265e+000 -8.116724e+001
15473593750 -3.879408e+000 -1.569081e+002 -4.629749e+001 5.306865e+001 -4.667682e+001 5.225955e+001 -5.104092e+000 -8.196529e+001
15492337500 -3.878014e+000 -1.574352e+002 -4.634967e+001 5.176776e+001 -4.675182e+001 5.079323e+001 -5.117976e+000 -8.272956e+001
15511081250 -3.874939e+000 -1.579758e+002 -4.655400e+001 5.092335e+001 -4.690440e+001 4.913780e+001 -5.133247e+000 -8.351698e+001
15529825000 -3.867569e+000 -1.585264e+002 -4.672323e+001 4.997903e+001 -4.698288e+001 4.854254e+001 -5.146749e+000 -8.430231e+001
15548568750 -3.861197e+000 -1.590555e+002 -4.696134e+001 4.888974e+001 -4.709896e+001 4.764362e+001 -5.164394e+000 -8.506229e+001
15567312500 -3.855974e+000 -1.596006e+002 -4.703912e+001 4.775124e+001 -4.729321e+001 4.661699e+001 -5.177790e+000 -8.584495e+001
15586056250 -3.849214e+000 -1.601448e+002 -4.722738e+001 4.722290e+001 -4.745576e+001 4.523312e+001 -5.193284e+000 -8.662221e+001
15604800000 -3.843297e+000 -1.606842e+002 -4.743106e+001 4.669435e+001 -4.752068e+001 4.356042e+001 -5.209361e+000 -8.739349e+001
15623543750 -3.838354e+000 -1.612228e+002 -4.766699e+001 4.517193e+001 -4.762923e+001 4.252092e+001 -5.223208e+000 -8.817536e+001
15642287500 -3.832650e+000 -1.617668e+002 -4.773228e+001 4.398632e+001 -4.790609e+001 4.134703e+001 -5.236460e+000 -8.894318e+001
15661031250 -3.827971e+000 -1.622884e+002 -4.790846e+001 4.356191e+001 -4.807934e+001 4.003321e+001 -5.248252e+000 -8.971195e+001
15679775000 -3.822842e+000 -1.628418e+002 -4.817264e+001 4.302829e+001 -4.831667e+001 3.911794e+001 -5.261009e+000 -9.048051e+001
15698518750 -3.816758e+000 -1.633841e+002 -4.835335e+001 4.230548e+001 -4.865906e+001 3.698238e+001 -5.273887e+000 -9.122874e+001
15717262500 -3.810852e+000 -1.639068e+002 -4.864096e+001 4.187318e+001 -4.906742e+001 3.531613e+001 -5.286659e+000 -9.198717e+001
15736006250 -3.806884e+000 -1.644699e+002 -4.879702e+001 4.120787e+001 -4.937575e+001 3.447908e+001 -5.299996e+000 -9.274580e+001
15754750000 -3.799951e+000 -1.650042e+002 -4.917099e+001 4.130092e+001 -4.958289e+001 3.493443e+001 -5.312852e+000 -9.349405e+001
15773493750 -3.795689e+000 -1.655343e+002 -4.945230e+001 4.216373e+001 -4.982446e+001 3.480359e+001 -5.324337e+000 -9.424651e+001
15792237500 -3.796849e+000 -1.660739e+002 -4.974546e+001 4.215502e+001 -4.998795e+001 3.480914e+001 -5.335546e+000 -9.499159e+001
15810981250 -3.792335e+000 -1.666286e+002 -5.024376e+001 4.233747e+001 -5.025646e+001 3.560892e+001 -5.348682e+000 -9.572726e+001
15829725000 -3.785390e+000 -1.671294e+002 -5.048363e+001 4.303440e+001 -5.046651e+001 3.535624e+001 -5.360162e+000 -9.647565e+001
15848468750 -3.784841e+000 -1.676772e+002 -5.096161e+001 4.345409e+001 -5.077914e+001 3.687973e+001 -5.369865e+000 -9.719720e+001
15867212500 -3.778598e+000 -1.682381e+002 -5.120546e+001 4.491580e+001 -5.140989e+001 3.831006e+001 -5.383409e+000 -9.793447e+001
15885956250 -3.776589e+000 -1.687433e+002 -5.158755e+001 4.657501e+001 -5.163163e+001 3.900218e+001 -5.393086e+000 -9.869660e+001
15904700000 -3.774787e+000 -1.693121e+002 -5.180330e+001 4.762484e+001 -5.184433e+001 4.047001e+001 -5.401845e+000 -9.941103e+001
15923443750 -3.769496e+000 -1.698566e+002 -5.208239e+001 4.893933e+001 -5.216469e+001 4.160434e+001 -5.416690e+000 -1.001572e+002
15942187500 -3.763007e+000 -1.703682e+002 -5.215886e+001 5.025594e+001 -5.230851e+001 4.364675e+001 -5.427469e+000 -1.009021e+002
15960931250 -3.762676e+000 -1.709313e+002 -5.219947e+001 5.193481e+001 -5.247159e+001 4.535825e+001 -5.436759e+000 -1.016135e+002
15979675000 -3.755022e+000 -1.714671e+002 -5.228089e+001 5.388946e+001 -5.271991e+001 4.642775e+001 -5.450187e+000 -1.023637e+002
15998418750 -3.752011e+000 -1.719867e+002 -5.238675e+001 5.660722e+001 -5.294280e+001 4.920790e+001 -5.457577e+000 -1.030870e+002
16017162500 -3.751701e+000 -1.725440e+002 -5.242616e+001 5.834430e+001 -5.300159e+001 5.107337e+001 -5.466391e+000 -1.037650e+002
16035906250 -3.743919e+000 -1.730695e+002 -5.244510e+001 6.072340e+001 -5.306926e+001 5.401014e+001 -5.479256e+000 -1.044863e+002
16054650000 -3.742179e+000 -1.735914e+002 -5.238372e+001 6.271560e+001 -5.304589e+001 5.559196e+001 -5.487055e+000 -1.052192e+002
16073393750 -3.739166e+000 -1.741439e+002 -5.254481e+001 6.477412e+001 -5.299727e+001 5.801575e+001 -5.498736e+000 -1.059064e+002
16092137500 -3.730841e+000 -1.746653e+002 -5.255407e+001 6.709135e+001 -5.302722e+001 5.996132e+001 -5.512171e+000 -1.066570e+002
16110881250 -3.730005e+000 -1.751866e+002 -5.254889e+001 6.883559e+001 -5.291350e+001 6.215733e+001 -5.519753e+000 -1.073733e+002
16129625000 -3.727051e+000 -1.757485e+002 -5.247946e+001 7.122160e+001 -5.267748e+001 6.563889e+001 -5.528388e+000 -1.080603e+002
16148368750 -3.718782e+000 -1.762773e+002 -5.232407e+001 7.318713e+001 -5.241051e+001 6.877303e+001 -5.541687e+000 -1.088019e+002
16167112500 -3.715569e+000 -1.767853e+002 -5.219445e+001 7.534037e+001 -5.210815e+001 7.115789e+001 -5.549184e+000 -1.095052e+002
16185856250 -3.712270e+000 -1.773527e+002 -5.180762e+001 7.710916e+001 -5.191548e+001 7.194640e+001 -5.563227e+000 -1.102146e+002
16204600000 -3.703401e+000 -1.778738e+002 -5.163477e+001 7.768153e+001 -5.176937e+001 7.325168e+001 -5.575928e+000 -1.109489e+002
16223343750 -3.699919e+000 -1.784070e+002 -5.127968e+001 8.030245e+001 -5.159470e+001 7.494402e+001 -5.585069e+000 -1.116418e+002
16242087500 -3.696351e+000 -1.789390e+002 -5.070421e+001 8.143480e+001 -5.138115e+001 7.571535e+001 -5.599015e+000 -1.123445e+002
16260831250 -3.690923e+000 -1.794920e+002 -5.045113e+001 8.203819e+001 -5.101715e+001 7.667148e+001 -5.614102e+000 -1.130713e+002
16279575000 -3.687092e+000 1.799681e+002 -4.981337e+001 8.239739e+001 -5.069855e+001 7.754355e+001 -5.624270e+000 -1.137719e+002
16298318750 -3.682797e+000 1.794436e+002 -4.941959e+001 8.300324e+001 -5.009329e+001 7.836697e+001 -5.638555e+000 -1.144775e+002
16317062500 -3.674966e+000 1.789125e+002 -4.892313e+001 8.255393e+001 -4.977961e+001 7.942612e+001 -5.650889e+000 -1.151736e+002
16335806250 -3.672249e+000 1.783925e+002 -4.863531e+001 8.270582e+001 -4.946643e+001 7.939461e+001 -5.661900e+000 -1.158658e+002
16354550000 -3.668997e+000 1.778529e+002 -4.826807e+001 8.288876e+001 -4.906577e+001 8.038756e+001 -5.675945e+000 -1.165435e+002
16373293750 -3.665057e+000 1.772898e+002 -4.797044e+001 8.271078e+001 -4.878156e+001 8.022952e+001 -5.688180e+000 -1.172445e+002
16392037500 -3.660856e+000 1.767606e+002 -4.774528e+001 8.263011e+001 -4.841147e+001 8.013969e+001 -5.699545e+000 -1.179321e+002
16410781250 -3.655909e+000 1.762220e+002 -4.736155e+001 8.222176e+001 -4.807281e+001 8.078629e+001 -5.713794e+000 -1.186167e+002
16429525000 -3.649603e+000 1.756847e+002 -4.702921e+001 8.092618e+001 -4.761684e+001 7.922153e+001 -5.728775e+000 -1.193179e+002
16448268750 -3.646114e+000 1.751653e+002 -4.668299e+001 8.008437e+001 -4.721059e+001 7.894058e+001 -5.738941e+000 -1.200051e+002
16467012500 -3.644355e+000 1.746141e+002 -4.647377e+001 7.900718e+001 -4.692405e+001 7.782586e+001 -5.753257e+000 -1.206795e+002
16485756250 -3.639284e+000 1.740590e+002 -4.619253e+001 7.849029e+001 -4.670008e+001 7.737491e+001 -5.767395e+000 -1.213524e+002
16504500000 -3.635099e+000 1.735136e+002 -4.584018e+001 7.772470e+001 -4.636301e+001 7.627865e+001 -5.779015e+000 -1.220340e+002
16523243750 -3.630130e+000 1.729713e+002 -4.552435e+001 7.582993e+001 -4.606006e+001 7.593850e+001 -5.793925e+000 -1.227040e+002
16541987500 -3.622648e+000 1.724325e+002 -4.514832e+001 7.513943e+001 -4.588173e+001 7.503973e+001 -5.806294e+000 -1.233909e+002
16560731250 -3.619966e+000 1.719047e+002 -4.484427e+001 7.403881e+001 -4.562619e+001 7.331187e+001 -5.819018e+000 -1.240714e+002
16579475000 -3.617163e+000 1.713379e+002 -4.458886e+001 7.286256e+001 -4.534318e+001 7.160025e+001 -5.833149e+000 -1.247309e+002
16598218750 -3.612646e+000 1.707570e+002 -4.440104e+001 7.159745e+001 -4.518840e+001 7.018749e+001 -5.847633e+000 -1.253946e+002
16616962500 -3.607762e+000 1.702111e+002 -4.419823e+001 7.020486e+001 -4.495467e+001 6.927658e+001 -5.860249e+000 -1.260457e+002
16635706250 -3.601184e+000 1.696553e+002 -4.395632e+001 6.884653e+001 -4.473867e+001 6.829237e+001 -5.875516e+000 -1.267113e+002
16654450000 -3.594196e+000 1.691085e+002 -4.379049e+001 6.645290e+001 -4.449720e+001 6.666872e+001 -5.888245e+000 -1.273818e+002
16673193750 -3.592248e+000 1.685598e+002 -4.362623e+001 6.496238e+001 -4.426810e+001 6.499802e+001 -5.901414e+000 -1.280417e+002
16691937500 -3.589419e+000 1.679691e+002 -4.340241e+001 6.329555e+001 -4.410510e+001 6.384578e+001 -5.913965e+000 -1.286926e+002
16710681250 -3.584128e+000 1.673939e+002 -4.329962e+001 6.193808e+001 -4.389110e+001 6.162626e+001 -5.926468e+000 -1.293547e+002
16729425000 -3.579162e+000 1.668359e+002 -4.317237e+001 5.976459e+001 -4.364678e+001 5.991307e+001 -5.938398e+000 -1.300044e+002
16748168750 -3.572766e+000 1.662528e+002 -4.304418e+001 5.850686e+001 -4.350630e+001 5.818026e+001 -5.951965e+000 -1.306825e+002
16766912500 -3.565970e+000 1.657098e+002 -4.285393e+001 5.711102e+001 -4.333737e+001 5.650992e+001 -5.965515e+000 -1.313560e+002
16785656250 -3.563483e+000 1.651429e+002 -4.273615e+001 5.554530e+001 -4.320138e+001 5.473972e+001 -5.977039e+000 -1.320316e+002
16804400000 -3.559112e+000 1.645595e+002 -4.262726e+001 5.363634e+001 -4.304976e+001 5.330626e+001 -5.990635e+000 -1.326997e+002
16823143750 -3.550482e+000 1.639937e+002 -4.251038e+001 5.203423e+001 -4.298779e+001 5.155573e+001 -6.003415e+000 -1.333565e+002
16841887500 -3.544862e+000 1.634224e+002 -4.237678e+001 5.022738e+001 -4.286747e+001 4.952663e+001 -6.016432e+000 -1.340191e+002
16860631250 -3.537674e+000 1.628506e+002 -4.235637e+001 4.864825e+001 -4.276424e+001 4.802149e+001 -6.030602e+000 -1.346895e+002
16879375000 -3.533189e+000 1.622995e+002 -4.234340e+001 4.689445e+001 -4.272633e+001 4.648129e+001 -6.044732e+000 -1.353851e+002
16898118750 -3.531418e+000 1.617279e+002 -4.219066e+001 4.494894e+001 -4.263265e+001 4.460096e+001 -6.057717e+000 -1.360582e+002
16916862500 -3.527584e+000 1.611273e+002 -4.213683e+001 4.296043e+001 -4.254185e+001 4.304305e+001 -6.070032e+000 -1.367312e+002
16935606250 -3.523519e+000 1.605663e+002 -4.204532e+001 4.128212e+001 -4.250575e+001 4.141339e+001 -6.081273e+000 -1.374082e+002
16954350000 -3.520840e+000 1.599780e+002 -4.197670e+001 3.953596e+001 -4.243593e+001 3.928709e+001 -6.093598e+000 -1.380732e+002
16973093750 -3.516653e+000 1.593900e+002 -4.195060e+001 3.739935e+001 -4.233189e+001 3.750481e+001 -6.106812e+000 -1.387621e+002
16991837500 -3.512385e+000 1.588407e+002 -4.193202e+001 3.562553e+001 -4.229325e+001 3.584513e+001 -6.117793e+000 -1.394523e+002
17010581250 -3.513256e+000 1.582649e+002 -4.192351e+001 3.357757e+001 -4.224870e+001 3.448987e+001 -6.126403e+000 -1.401294e+002
17029325000 -3.509312e+000 1.576777e+002 -4.190779e+001 3.204713e+001 -4.220695e+001 3.284776e+001 -6.134869e+000 -1.408286e+002
17048068750 -3.504930e+000 1.571067e+002 -4.187684e+001 3.057698e+001 -4.223315e+001 3.109657e+001 -6.141054e+000 -1.415231e+002
17066812500 -3.505498e+000 1.564948e+002 -4.183124e+001 2.849244e+001 -4.218913e+001 2.931245e+001 -6.150978e+000 -1.422071e+002
17085556250 -3.501731e+000 1.559085e+002 -4.189135e+001 2.694776e+001 -4.225156e+001 2.761719e+001 -6.162065e+000 -1.429213e+002
17104300000 -3.496092e+000 1.553627e+002 -4.188622e+001 2.521861e+001 -4.229399e+001 2.605143e+001 -6.169136e+000 -1.436478e+002
17123043750 -3.498418e+000 1.547940e+002 -4.193829e+001 2.363308e+001 -4.232681e+001 2.430243e+001 -6.174121e+000 -1.443611e+002
17141787500 -3.495615e+000 1.541959e+002 -4.198675e+001 2.203168e+001 -4.243641e+001 2.269095e+001 -6.182485e+000 -1.450919e+002
17160531250 -3.492611e+000 1.536061e+002 -4.215520e+001 2.053434e+001 -4.254758e+001 2.102563e+001 -6.187876e+000 -1.458061e+002
17179275000 -3.493625e+000 1.530049e+002 -4.223684e+001 1.922150e+001 -4.262309e+001 1.983180e+001 -6.193991e+000 -1.465239e+002
17198018750 -3.488875e+000 1.524109e+002 -4.234833e+001 1.778421e+001 -4.276760e+001 1.805593e+001 -6.201317e+000 -1.472751e+002
17216762500 -3.486404e+000 1.518705e+002 -4.251220e+001 1.585885e+001 -4.286341e+001 1.707553e+001 -6.205560e+000 -1.480305e+002
17235506250 -3.490551e+000 1.512831e+002 -4.261382e+001 1.421778e+001 -4.296675e+001 1.588227e+001 -6.209404e+000 -1.487687e+002
17254250000 -3.490162e+000 1.506663e+002 -4.273652e+001 1.305006e+001 -4.304641e+001 1.442886e+001 -6.214027e+000 -1.495298e+002
17272993750 -3.492463e+000 1.500786e+002 -4.284789e+001 1.197480e+001 -4.315400e+001 1.328224e+001 -6.216825e+000 -1.502835e+002
17291737500 -3.494257e+000 1.494689e+002 -4.301851e+001 1.075708e+001 -4.337645e+001 1.216328e+001 -6.220431e+000 -1.510482e+002
17310481250 -3.487092e+000 1.488790e+002 -4.315264e+001 9.813896e+000 -4.348264e+001 1.140755e+001 -6.226038e+000 -1.518153e+002
17329225000 -3.489426e+000 1.483159e+002 -4.328819e+001 9.041780e+000 -4.362858e+001 1.070666e+001 -6.225774e+000 -1.526107e+002
17347968750 -3.492248e+000 1.477206e+002 -4.344273e+001 8.034345e+000 -4.378022e+001 9.623576e+000 -6.226378e+000 -1.534117e+002
17366712500 -3.489736e+000 1.471076e+002 -4.361981e+001 7.250983e+000 -4.386973e+001 9.221275e+000 -6.228998e+000 -1.542223e+002
17385456250 -3.492012e+000 1.465111e+002 -4.371268e+001 6.603332e+000 -4.403355e+001 8.957900e+000 -6.229706e+000 -1.550237e+002
17404200000 -3.492542e+000 1.458882e+002 -4.388960e+001 6.333867e+000 -4.415714e+001 8.324496e+000 -6.233145e+000 -1.558173e+002
17422943750 -3.489554e+000 1.453007e+002 -4.403616e+001 6.556806e+000 -4.436075e+001 8.189616e+000 -6.237103e+000 -1.566487e+002
17441687500 -3.492802e+000 1.447425e+002 -4.414321e+001 5.713459e+000 -4.452813e+001 7.742113e+000 -6.238018e+000 -1.574971e+002
17460431250 -3.498048e+000 1.441336e+002 -4.432073e+001 5.157588e+000 -4.463469e+001 7.576096e+000 -6.240260e+000 -1.583382e+002
17479175000 -3.497588e+000 1.435304e+002 -4.447934e+001 4.869071e+000 -4.471012e+001 7.667519e+000 -6.243650e+000 -1.591913e+002
17497918750 -3.499510e+000 1.429466e+002 -4.463708e+001 4.773729e+000 -4.485967e+001 7.504346e+000 -6.245203e+000 -1.600384e+002
17516662500 -3.498541e+000 1.423195e+002 -4.472665e+001 5.034075e+000 -4.493107e+001 7.544751e+000 -6.247472e+000 -1.608866e+002
17535406250 -3.493360e+000 1.417292e+002 -4.491703e+001 5.045675e+000 -4.493885e+001 7.729812e+000 -6.251409e+000 -1.617509e+002
17554150000 -3.498552e+000 1.411660e+002 -4.490450e+001 4.857667e+000 -4.499308e+001 7.573944e+000 -6.255362e+000 -1.626287e+002
17572893750 -3.503592e+000 1.405505e+002 -4.495316e+001 4.842443e+000 -4.509662e+001 8.090050e+000 -6.257639e+000 -1.634984e+002
17591637500 -3.503398e+000 1.399509e+002 -4.493879e+001 5.000915e+000 -4.507783e+001 8.115186e+000 -6.261607e+000 -1.643892e+002
17610381250 -3.507690e+000 1.393444e+002 -4.506898e+001 4.939016e+000 -4.516075e+001 7.892408e+000 -6.264814e+000 -1.652708e+002
17629125000 -3.507123e+000 1.387101e+002 -4.519675e+001 4.560536e+000 -4.516966e+001 8.574909e+000 -6.267704e+000 -1.661380e+002
17647868750 -3.503218e+000 1.381454e+002 -4.513188e+001 5.209588e+000 -4.517951e+001 8.217500e+000 -6.271527e+000 -1.670250e+002
17666612500 -3.508285e+000 1.375718e+002 -4.515321e+001 6.114332e+000 -4.519563e+001 8.916842e+000 -6.274513e+000 -1.679344e+002
17685356250 -3.514725e+000 1.369624e+002 -4.515141e+001 6.081638e+000 -4.515646e+001 9.503093e+000 -6.278861e+000 -1.688287e+002
17704100000 -3.513883e+000 1.363645e+002 -4.515314e+001 6.043241e+000 -4.508203e+001 1.005195e+001 -6.280807e+000 -1.697292e+002
17722843750 -3.521145e+000 1.357402e+002 -4.506892e+001 5.882174e+000 -4.495033e+001 1.032346e+001 -6.282790e+000 -1.706301e+002
17741587500 -3.521398e+000 1.351216e+002 -4.509726e+001 6.275072e+000 -4.495161e+001 1.024561e+001 -6.284588e+000 -1.715279e+002
17760331250 -3.514510e+000 1.345572e+002 -4.511964e+001 6.394809e+000 -4.489220e+001 1.088317e+001 -6.288116e+000 -1.724406e+002
17779075000 -3.524537e+000 1.340101e+002 -4.502514e+001 6.694085e+000 -4.479794e+001 1.126504e+001 -6.289872e+000 -1.733543e+002
17797818750 -3.527744e+000 1.333867e+002 -4.492118e+001 6.793948e+000 -4.475931e+001 1.108601e+001 -6.292614e+000 -1.742543e+002
17816562500 -3.531326e+000 1.328002e+002 -4.493211e+001 6.711293e+000 -4.466551e+001 1.140527e+001 -6.294508e+000 -1.751662e+002
17835306250 -3.538777e+000 1.321848e+002 -4.484650e+001 6.298074e+000 -4.468451e+001 1.156938e+001 -6.297829e+000 -1.760819e+002
17854050000 -3.533734e+000 1.315428e+002 -4.475747e+001 5.423329e+000 -4.458104e+001 1.097818e+001 -6.300436e+000 -1.769992e+002
17872793750 -3.531528e+000 1.309874e+002 -4.470911e+001 5.946253e+000 -4.449253e+001 1.117050e+001 -6.307171e+000 -1.779056e+002
17891537500 -3.539268e+000 1.304173e+002 -4.458186e+001 5.854150e+000 -4.442582e+001 1.060774e+001 -6.307875e+000 -1.788309e+002
17910281250 -3.540540e+000 1.297915e+002 -4.451931e+001 5.608822e+000 -4.434555e+001 1.045106e+001 -6.309876e+000 -1.797385e+002
17929025000 -3.544693e+000 1.292157e+002 -4.445465e+001 5.263753e+000 -4.424302e+001 9.581182e+000 -6.309021e+000 1.793236e+002
17947768750 -3.551087e+000 1.285838e+002 -4.436970e+001 4.763109e+000 -4.421610e+001 9.032624e+000 -6.310133e+000 1.783804e+002
17966512500 -3.548943e+000 1.279307e+002 -4.429592e+001 4.291434e+000 -4.423196e+001 8.320269e+000 -6.311887e+000 1.774639e+002
17985256250 -3.547732e+000 1.273875e+002 -4.427979e+001 4.000407e+000 -4.418567e+001 8.119189e+000 -6.313640e+000 1.765078e+002
18004000000 -3.552512e+000 1.268158e+002 -4.423437e+001 3.594300e+000 -4.402449e+001 7.358014e+000 -6.313852e+000 1.755491e+002
18022743750 -3.554199e+000 1.262015e+002 -4.420087e+001 3.123475e+000 -4.400782e+001 6.758576e+000 -6.314298e+000 1.746023e+002
18041487500 -3.559638e+000 1.256297e+002 -4.404465e+001 2.209124e+000 -4.396228e+001 6.000577e+000 -6.313916e+000 1.736302e+002
18060231250 -3.566427e+000 1.249913e+002 -4.398252e+001 2.413658e+000 -4.391710e+001 5.773779e+000 -6.312981e+000 1.726642e+002
18078975000 -3.562274e+000 1.243415e+002 -4.400528e+001 1.823132e+000 -4.385245e+001 5.113045e+000 -6.313878e+000 1.717146e+002
18097718750 -3.563870e+000 1.238028e+002 -4.392677e+001 1.018469e+000 -4.380397e+001 3.844054e+000 -6.315208e+000 1.707337e+002
18116462500 -3.569123e+000 1.232118e+002 -4.384056e+001 4.734757e-001 -4.381974e+001 3.070442e+000 -6.313312e+000 1.697508e+002
18135206250 -3.571714e+000 1.226135e+002 -4.380869e+001 -5.957551e-002 -4.384017e+001 2.190720e+000 -6.317020e+000 1.687578e+002
18153950000 -3.578601e+000 1.220490e+002 -4.379818e+001 -4.378967e-001 -4.386177e+001 1.536028e+000 -6.317340e+000 1.677302e+002
18172693750 -3.584271e+000 1.213763e+002 -4.368064e+001 -1.205601e+000 -4.379849e+001 1.135920e+000 -6.317484e+000 1.667283e+002
18191437500 -3.583863e+000 1.207496e+002 -4.359456e+001 -1.430531e+000 -4.378400e+001 -6.396092e-003 -6.318867e+000 1.657316e+002
18210181250 -3.583683e+000 1.201872e+002 -4.361346e+001 -1.724553e+000 -4.381715e+001 -5.774364e-001 -6.322336e+000 1.647119e+002
18228925000 -3.591918e+000 1.195665e+002 -4.363805e+001 -2.037453e+000 -4.377595e+001 -1.706123e+000 -6.321843e+000 1.637012e+002
18247668750 -3.590430e+000 1.189729e+002 -4.358896e+001 -2.433719e+000 -4.388737e+001 -2.553858e+000 -6.325645e+000 1.626876e+002
18266412500 -3.598193e+000 1.183814e+002 -4.361424e+001 -2.440610e+000 -4.376310e+001 -2.831628e+000 -6.323564e+000 1.616394e+002
18285156250 -3.605152e+000 1.177288e+002 -4.364386e+001 -3.119052e+000 -4.380191e+001 -2.996588e+000 -6.321193e+000 1.606332e+002
18303900000 -3.602345e+000 1.171116e+002 -4.367145e+001 -3.682519e+000 -4.381424e+001 -3.452786e+000 -6.323156e+000 1.595831e+002
18322643750 -3.607508e+000 1.165355e+002 -4.373123e+001 -4.109143e+000 -4.379670e+001 -3.218026e+000 -6.324512e+000 1.585166e+002
18341387500 -3.614757e+000 1.159071e+002 -4.374728e+001 -4.383482e+000 -4.390873e+001 -3.927013e+000 -6.326994e+000 1.574715e+002
18360131250 -3.617795e+000 1.152955e+002 -4.373121e+001 -4.638094e+000 -4.386977e+001 -3.462993e+000 -6.332953e+000 1.564200e+002
18378875000 -3.627142e+000 1.146938e+002 -4.373700e+001 -4.908736e+000 -4.383266e+001 -3.421935e+000 -6.332009e+000 1.553482e+002
18397618750 -3.632371e+000 1.140345e+002 -4.364948e+001 -5.243133e+000 -4.376990e+001 -3.318342e+000 -6.332306e+000 1.543076e+002
18416362500 -3.632667e+000 1.134058e+002 -4.365083e+001 -5.404718e+000 -4.383481e+001 -3.836948e+000 -6.335534e+000 1.532509e+002
18435106250 -3.640871e+000 1.128050e+002 -4.358915e+001 -5.348818e+000 -4.379151e+001 -4.127522e+000 -6.336852e+000 1.521826e+002
18453850000 -3.649591e+000 1.121728e+002 -4.354340e+001 -5.270436e+000 -4.377090e+001 -4.239418e+000 -6.339829e+000 1.511313e+002
18472593750 -3.654387e+000 1.115607e+002 -4.354901e+001 -4.924639e+000 -4.366112e+001 -3.973910e+000 -6.344744e+000 1.500557e+002
18491337500 -3.662779e+000 1.109216e+002 -4.345632e+001 -5.446309e+000 -4.359521e+001 -4.607355e+000 -6.345447e+000 1.489575e+002
18510081250 -3.665376e+000 1.102531e+002 -4.338762e+001 -5.793109e+000 -4.356492e+001 -4.724516e+000 -6.349358e+000 1.478973e+002
18528825000 -3.666845e+000 1.096230e+002 -4.334957e+001 -6.145001e+000 -4.354945e+001 -4.466632e+000 -6.353746e+000 1.467993e+002
18547568750 -3.673123e+000 1.089889e+002 -4.334996e+001 -6.430907e+000 -4.347441e+001 -4.578516e+000 -6.355348e+000 1.457094e+002
18566312500 -3.680104e+000 1.083500e+002 -4.333802e+001 -6.745800e+000 -4.339081e+001 -4.760497e+000 -6.355239e+000 1.446613e+002
18585056250 -3.684520e+000 1.077220e+002 -4.323892e+001 -6.941007e+000 -4.333255e+001 -4.846827e+000 -6.357625e+000 1.435576e+002
18603800000 -3.695042e+000 1.070526e+002 -4.318653e+001 -7.254830e+000 -4.326619e+001 -5.405179e+000 -6.356898e+000 1.424645e+002
18622543750 -3.697129e+000 1.063764e+002 -4.314117e+001 -8.081352e+000 -4.318768e+001 -5.458225e+000 -6.358628e+000 1.413862e+002
18641287500 -3.699968e+000 1.057255e+002 -4.307479e+001 -8.218532e+000 -4.314421e+001 -5.546231e+000 -6.362523e+000 1.402517e+002
18660031250 -3.705464e+000 1.050985e+002 -4.303949e+001 -8.463372e+000 -4.312197e+001 -5.215688e+000 -6.359208e+000 1.391291e+002
18678775000 -3.711936e+000 1.044469e+002 -4.300398e+001 -8.439836e+000 -4.291795e+001 -5.457914e+000 -6.362469e+000 1.380013e+002
18697518750 -3.720845e+000 1.038205e+002 -4.282884e+001 -8.916089e+000 -4.288874e+001 -5.872653e+000 -6.364819e+000 1.368237e+002
18716262500 -3.732091e+000 1.031398e+002 -4.270382e+001 -8.775592e+000 -4.272816e+001 -6.215305e+000 -6.364008e+000 1.356612e+002
18735006250 -3.735878e+000 1.024494e+002 -4.259837e+001 -9.131654e+000 -4.260773e+001 -6.494091e+000 -6.366465e+000 1.345263e+002
18753750000 -3.740041e+000 1.017962e+002 -4.239465e+001 -9.612902e+000 -4.252350e+001 -7.126305e+000 -6.367388e+000 1.333351e+002
18772493750 -3.748123e+000 1.011606e+002 -4.226622e+001 -1.029085e+001 -4.233236e+001 -7.187284e+000 -6.363647e+000 1.321626e+002
18791237500 -3.753652e+000 1.005207e+002 -4.220732e+001 -1.061594e+001 -4.228730e+001 -7.925494e+000 -6.363983e+000 1.309710e+002
18809981250 -3.763901e+000 9.986937e+001 -4.212624e+001 -1.121726e+001 -4.222907e+001 -8.538447e+000 -6.362634e+000 1.297398e+002
18828725000 -3.776982e+000 9.919125e+001 -4.205292e+001 -1.137837e+001 -4.213283e+001 -9.200010e+000 -6.359116e+000 1.285202e+002
18847468750 -3.779846e+000 9.851028e+001 -4.200002e+001 -1.182994e+001 -4.196537e+001 -9.561492e+000 -6.362590e+000 1.272920e+002
18866212500 -3.784384e+000 9.785509e+001 -4.192477e+001 -1.263607e+001 -4.191169e+001 -9.890463e+000 -6.359222e+000 1.260173e+002
18884956250 -3.790653e+000 9.720521e+001 -4.183509e+001 -1.339227e+001 -4.180497e+001 -1.044874e+001 -6.355472e+000 1.247522e+002
18903700000 -3.797990e+000 9.657214e+001 -4.174114e+001 -1.440136e+001 -4.170705e+001 -1.103071e+001 -6.357271e+000 1.234561e+002
18922443750 -3.813342e+000 9.594842e+001 -4.163082e+001 -1.486406e+001 -4.161365e+001 -1.172187e+001 -6.354498e+000 1.221518e+002
18941187500 -3.826518e+000 9.525153e+001 -4.152071e+001 -1.540960e+001 -4.150936e+001 -1.241184e+001 -6.351016e+000 1.208376e+002
18959931250 -3.831687e+000 9.457146e+001 -4.146371e+001 -1.651399e+001 -4.139915e+001 -1.327796e+001 -6.352310e+000 1.195326e+002
18978675000 -3.840899e+000 9.391339e+001 -4.128698e+001 -1.692902e+001 -4.130901e+001 -1.418622e+001 -6.350709e+000 1.181690e+002
18997418750 -3.847220e+000 9.324497e+001 -4.119813e+001 -1.714011e+001 -4.125424e+001 -1.511482e+001 -6.351374e+000 1.168066e+002
19016162500 -3.856816e+000 9.259354e+001 -4.116459e+001 -1.779062e+001 -4.111215e+001 -1.618059e+001 -6.356678e+000 1.154501e+002
19034906250 -3.872687e+000 9.194551e+001 -4.109023e+001 -1.855338e+001 -4.102228e+001 -1.693954e+001 -6.358902e+000 1.140531e+002
19053650000 -3.884830e+000 9.125104e+001 -4.100173e+001 -1.922564e+001 -4.093610e+001 -1.760557e+001 -6.361836e+000 1.126794e+002
19072393750 -3.890966e+000 9.055619e+001 -4.094207e+001 -2.035139e+001 -4.083294e+001 -1.847114e+001 -6.368472e+000 1.112854e+002
19091137500 -3.902160e+000 8.987247e+001 -4.084413e+001 -2.137811e+001 -4.074243e+001 -1.951296e+001 -6.374309e+000 1.098557e+002
19109881250 -3.909473e+000 8.920465e+001 -4.077147e+001 -2.254680e+001 -4.065368e+001 -2.032467e+001 -6.379234e+000 1.084338e+002
19128625000 -3.918408e+000 8.855635e+001 -4.073854e+001 -2.333313e+001 -4.053994e+001 -2.157898e+001 -6.387592e+000 1.070196e+002
19147368750 -3.935289e+000 8.787946e+001 -4.063953e+001 -2.433915e+001 -4.046252e+001 -2.272893e+001 -6.397936e+000 1.055931e+002
19166112500 -3.944473e+000 8.716717e+001 -4.054518e+001 -2.531923e+001 -4.040199e+001 -2.415518e+001 -6.406825e+000 1.041826e+002
19184856250 -3.951104e+000 8.648348e+001 -4.054634e+001 -2.627020e+001 -4.033279e+001 -2.557745e+001 -6.421439e+000 1.027661e+002
19203600000 -3.961917e+000 8.578185e+001 -4.048777e+001 -2.690267e+001 -4.029437e+001 -2.684911e+001 -6.436219e+000 1.013155e+002
19222343750 -3.967346e+000 8.508984e+001 -4.039682e+001 -2.799952e+001 -4.021856e+001 -2.789795e+001 -6.450125e+000 9.990864e+001
19241087500 -3.977492e+000 8.443751e+001 -4.032339e+001 -2.919436e+001 -4.009010e+001 -2.876427e+001 -6.466437e+000 9.849702e+001
19259831250 -3.992387e+000 8.375779e+001 -4.027908e+001 -3.026900e+001 -4.002241e+001 -3.026270e+001 -6.481071e+000 9.707035e+001
19278575000 -3.998285e+000 8.303401e+001 -4.020094e+001 -3.136898e+001 -3.999714e+001 -3.119839e+001 -6.494531e+000 9.568098e+001
19297318750 -4.007557e+000 8.234810e+001 -4.017125e+001 -3.269972e+001 -3.992749e+001 -3.254020e+001 -6.513098e+000 9.427879e+001
19316062500 -4.018765e+000 8.164009e+001 -4.013146e+001 -3.398542e+001 -3.992364e+001 -3.385267e+001 -6.527128e+000 9.288421e+001
19334806250 -4.023185e+000 8.094232e+001 -4.019041e+001 -3.477118e+001 -3.991553e+001 -3.497812e+001 -6.536928e+000 9.153730e+001
19353550000 -4.035097e+000 8.027938e+001 -4.016913e+001 -3.603707e+001 -3.992044e+001 -3.594373e+001 -6.548972e+000 9.015759e+001
19372293750 -4.052279e+000 7.956936e+001 -4.014704e+001 -3.681500e+001 -3.985652e+001 -3.713240e+001 -6.557582e+000 8.881244e+001
19391037500 -4.058281e+000 7.884808e+001 -4.010834e+001 -3.730011e+001 -3.984730e+001 -3.840927e+001 -6.566279e+000 8.746475e+001
19409781250 -4.067820e+000 7.814864e+001 -4.019084e+001 -3.865501e+001 -3.984510e+001 -3.942693e+001 -6.575356e+000 8.610486e+001
19428525000 -4.078478e+000 7.745029e+001 -4.016880e+001 -4.007070e+001 -3.978246e+001 -4.057478e+001 -6.574800e+000 8.474842e+001
19447268750 -4.082098e+000 7.678561e+001 -4.014489e+001 -4.116346e+001 -3.977722e+001 -4.154079e+001 -6.576399e+000 8.342661e+001
19466012500 -4.095159e+000 7.611214e+001 -4.016554e+001 -4.208087e+001 -3.984631e+001 -4.247105e+001 -6.574636e+000 8.206503e+001
19484756250 -4.109043e+000 7.538866e+001 -4.015376e+001 -4.329404e+001 -3.989676e+001 -4.397079e+001 -6.565006e+000 8.071350e+001
19503500000 -4.117941e+000 7.468397e+001 -4.017702e+001 -4.431884e+001 -3.990548e+001 -4.474615e+001 -6.555131e+000 7.940205e+001
19522243750 -4.126739e+000 7.400793e+001 -4.019016e+001 -4.540813e+001 -3.992913e+001 -4.577709e+001 -6.548312e+000 7.803946e+001
19540987500 -4.138155e+000 7.330087e+001 -4.017931e+001 -4.609801e+001 -3.996878e+001 -4.687795e+001 -6.525733e+000 7.670493e+001
19559731250 -4.144385e+000 7.263407e+001 -4.018243e+001 -4.713081e+001 -4.004037e+001 -4.724319e+001 -6.509573e+000 7.537784e+001
19578475000 -4.160357e+000 7.195854e+001 -4.023593e+001 -4.788692e+001 -4.007006e+001 -4.798494e+001 -6.484025e+000 7.398956e+001
19597218750 -4.175288e+000 7.120905e+001 -4.029303e+001 -4.875105e+001 -4.008290e+001 -4.886844e+001 -6.450847e+000 7.260905e+001
19615962500 -4.182570e+000 7.047583e+001 -4.028730e+001 -4.943846e+001 -4.011626e+001 -4.943118e+001 -6.421271e+000 7.123847e+001
19634706250 -4.194774e+000 6.977162e+001 -4.034612e+001 -5.014109e+001 -4.008758e+001 -5.008409e+001 -6.387212e+000 6.983031e+001
19653450000 -4.205146e+000 6.906059e+001 -4.043126e+001 -5.051780e+001 -4.010497e+001 -5.067093e+001 -6.346149e+000 6.840334e+001
19672193750 -4.215648e+000 6.838915e+001 -4.043734e+001 -5.092653e+001 -4.016511e+001 -5.179909e+001 -6.309609e+000 6.698402e+001
19690937500 -4.234174e+000 6.767683e+001 -4.045393e+001 -5.151301e+001 -4.016989e+001 -5.223003e+001 -6.268311e+000 6.550520e+001
19709681250 -4.250073e+000 6.692174e+001 -4.042640e+001 -5.217580e+001 -4.018981e+001 -5.307228e+001 -6.219629e+000 6.404653e+001
19728425000 -4.258015e+000 6.620993e+001 -4.043106e+001 -5.251905e+001 -4.026867e+001 -5.363665e+001 -6.179584e+000 6.256653e+001
19747168750 -4.271319e+000 6.549703e+001 -4.042009e+001 -5.284119e+001 -4.024747e+001 -5.416167e+001 -6.132755e+000 6.103013e+001
19765912500 -4.280219e+000 6.478171e+001 -4.035128e+001 -5.360905e+001 -4.019110e+001 -5.479728e+001 -6.084098e+000 5.950297e+001
19784656250 -4.291435e+000 6.411218e+001 -4.035009e+001 -5.437258e+001 -4.021835e+001 -5.561871e+001 -6.040193e+000 5.795901e+001
19803400000 -4.304379e+000 6.342801e+001 -4.039158e+001 -5.503923e+001 -4.018864e+001 -5.639867e+001 -5.985970e+000 5.632175e+001
19822143750 -4.321486e+000 6.265641e+001 -4.039061e+001 -5.538548e+001 -4.013889e+001 -5.684838e+001 -5.934100e+000 5.475013e+001
19840887500 -4.327821e+000 6.192488e+001 -4.036405e+001 -5.594744e+001 -4.008043e+001 -5.771114e+001 -5.886582e+000 5.315511e+001
19859631250 -4.339360e+000 6.121559e+001 -4.031865e+001 -5.612683e+001 -4.006856e+001 -5.800688e+001 -5.838061e+000 5.150496e+001
19878375000 -4.348839e+000 6.048338e+001 -4.027864e+001 -5.630394e+001 -4.002947e+001 -5.833615e+001 -5.780796e+000 4.988732e+001
19897118750 -4.363021e+000 5.979810e+001 -4.015999e+001 -5.673644e+001 -3.994604e+001 -5.888735e+001 -5.736630e+000 4.826477e+001
19915862500 -4.379906e+000 5.908528e+001 -4.009850e+001 -5.752713e+001 -3.979705e+001 -5.913203e+001 -5.689256e+000 4.654187e+001
19934606250 -4.394049e+000 5.830889e+001 -4.011375e+001 -5.861299e+001 -3.972795e+001 -5.951955e+001 -5.642781e+000 4.489092e+001
19953350000 -4.410498e+000 5.753917e+001 -3.999712e+001 -5.910531e+001 -3.966890e+001 -5.978966e+001 -5.601130e+000 4.322409e+001
19972093750 -4.418625e+000 5.677044e+001 -3.989819e+001 -5.973494e+001 -3.963237e+001 -6.019290e+001 -5.556010e+000 4.144196e+001
19990837500 -4.425988e+000 5.603064e+001 -3.986013e+001 -6.035715e+001 -3.947904e+001 -6.125043e+001 -5.507501e+000 3.976482e+001
20009581250 -4.437953e+000 5.531424e+001 -3.988198e+001 -6.105525e+001 -3.948917e+001 -6.231800e+001 -5.470322e+000 3.808492e+001
20028325000 -4.453179e+000 5.459582e+001 -3.976583e+001 -6.154620e+001 -3.943330e+001 -6.325773e+001 -5.429282e+000 3.630465e+001
20047068750 -4.466748e+000 5.387553e+001 -3.968228e+001 -6.265535e+001 -3.934749e+001 -6.391468e+001 -5.385242e+000 3.461929e+001
20065812500 -4.477767e+000 5.312460e+001 -3.957346e+001 -6.281877e+001 -3.931836e+001 -6.546230e+001 -5.352444e+000 3.288880e+001
20084556250 -4.485317e+000 5.236526e+001 -3.947886e+001 -6.350802e+001 -3.932291e+001 -6.669154e+001 -5.311348e+000 3.109793e+001
20103300000 -4.492385e+000 5.162970e+001 -3.949971e+001 -6.459564e+001 -3.921832e+001 -6.779350e+001 -5.271946e+000 2.939379e+001
20122043750 -4.504737e+000 5.095162e+001 -3.942337e+001 -6.593101e+001 -3.912649e+001 -6.851398e+001 -5.239069e+000 2.765383e+001
20140787500 -4.519561e+000 5.021242e+001 -3.941107e+001 -6.708237e+001 -3.901149e+001 -6.950723e+001 -5.200465e+000 2.585772e+001
20159531250 -4.536203e+000 4.943662e+001 -3.938507e+001 -6.806775e+001 -3.890471e+001 -7.061286e+001 -5.164431e+000 2.418115e+001
20178275000 -4.547355e+000 4.865587e+001 -3.932486e+001 -6.923588e+001 -3.887033e+001 -7.157660e+001 -5.137298e+000 2.239846e+001
20197018750 -4.554680e+000 4.790163e+001 -3.934789e+001 -7.055704e+001 -3.880186e+001 -7.272791e+001 -5.102334e+000 2.061401e+001
20215762500 -4.561789e+000 4.718307e+001 -3.921658e+001 -7.145564e+001 -3.868898e+001 -7.392301e+001 -5.070423e+000 1.890915e+001
20234506250 -4.581598e+000 4.643809e+001 -3.917416e+001 -7.307474e+001 -3.867157e+001 -7.534393e+001 -5.049725e+000 1.718109e+001
20253250000 -4.591113e+000 4.568979e+001 -3.913135e+001 -7.427517e+001 -3.864952e+001 -7.649625e+001 -5.016217e+000 1.540754e+001
20271993750 -4.603821e+000 4.493866e+001 -3.907370e+001 -7.553816e+001 -3.866697e+001 -7.754741e+001 -4.991912e+000 1.371035e+001
20290737500 -4.614996e+000 4.411911e+001 -3.909245e+001 -7.691946e+001 -3.862227e+001 -7.912492e+001 -4.970933e+000 1.192445e+001
20309481250 -4.621681e+000 4.333610e+001 -3.911599e+001 -7.813084e+001 -3.871861e+001 -8.052235e+001 -4.945446e+000 1.014395e+001
20328225000 -4.627689e+000 4.262101e+001 -3.922148e+001 -8.002461e+001 -3.869215e+001 -8.194862e+001 -4.923378e+000 8.397235e+000
20346968750 -4.643558e+000 4.188478e+001 -3.928785e+001 -8.055183e+001 -3.875088e+001 -8.354993e+001 -4.907882e+000 6.637510e+000
20365712500 -4.657724e+000 4.111639e+001 -3.915812e+001 -8.117853e+001 -3.881989e+001 -8.505040e+001 -4.882181e+000 4.879031e+000
20384456250 -4.669479e+000 4.034223e+001 -3.923566e+001 -8.273399e+001 -3.884979e+001 -8.672219e+001 -4.865834e+000 3.137867e+000
20403200000 -4.683269e+000 3.955024e+001 -3.935989e+001 -8.422567e+001 -3.883825e+001 -8.808263e+001 -4.855887e+000 1.408900e+000
20421943750 -4.687710e+000 3.875548e+001 -3.933544e+001 -8.606395e+001 -3.894862e+001 -8.960223e+001 -4.836709e+000 -3.504353e-001
20440687500 -4.697427e+000 3.806329e+001 -3.926343e+001 -8.823507e+001 -3.889665e+001 -9.088775e+001 -4.828657e+000 -2.090834e+000
20459431250 -4.715584e+000 3.732915e+001 -3.938717e+001 -8.985334e+001 -3.894706e+001 -9.208636e+001 -4.818628e+000 -3.845461e+000
20478175000 -4.728544e+000 3.651702e+001 -3.945327e+001 -9.021294e+001 -3.903811e+001 -9.342461e+001 -4.809745e+000 -5.603593e+000
20496918750 -4.742837e+000 3.571827e+001 -3.946459e+001 -9.295227e+001 -3.911656e+001 -9.371796e+001 -4.802146e+000 -7.352603e+000
20515662500 -4.753495e+000 3.492103e+001 -3.945620e+001 -9.515990e+001 -3.909614e+001 -9.514735e+001 -4.797352e+000 -9.122351e+000
20534406250 -4.759282e+000 3.414124e+001 -3.940704e+001 -9.677026e+001 -3.921295e+001 -9.632922e+001 -4.791651e+000 -1.085790e+001
20553150000 -4.764933e+000 3.337907e+001 -3.945989e+001 -9.791819e+001 -3.932138e+001 -9.839930e+001 -4.795178e+000 -1.258830e+001
20571893750 -4.782313e+000 3.263092e+001 -3.958753e+001 -9.958569e+001 -3.932230e+001 -9.967976e+001 -4.796702e+000 -1.430768e+001
20590637500 -4.795678e+000 3.184700e+001 -3.972308e+001 -1.009806e+002 -3.938990e+001 -1.010928e+002 -4.801946e+000 -1.606051e+001
20609381250 -4.806194e+000 3.103358e+001 -3.983646e+001 -1.027467e+002 -3.942218e+001 -1.025027e+002 -4.808201e+000 -1.776177e+001
20628125000 -4.819943e+000 3.021296e+001 -3.979765e+001 -1.036352e+002 -3.965672e+001 -1.039485e+002 -4.814174e+000 -1.949044e+001
20646868750 -4.822482e+000 2.940324e+001 -3.996072e+001 -1.049900e+002 -3.977480e+001 -1.055431e+002 -4.824528e+000 -2.117809e+001
20665612500 -4.834366e+000 2.868267e+001 -4.012040e+001 -1.055048e+002 -3.987681e+001 -1.064495e+002 -4.834379e+000 -2.286093e+001
20684356250 -4.852700e+000 2.791587e+001 -4.033714e+001 -1.072587e+002 -4.000795e+001 -1.074326e+002 -4.848824e+000 -2.453682e+001
20703100000 -4.870961e+000 2.711577e+001 -4.047628e+001 -1.084506e+002 -4.016073e+001 -1.083161e+002 -4.864172e+000 -2.619487e+001
20721843750 -4.888454e+000 2.629374e+001 -4.058865e+001 -1.095529e+002 -4.036860e+001 -1.092382e+002 -4.880849e+000 -2.782327e+001
20740587500 -4.898936e+000 2.547346e+001 -4.073860e+001 -1.111783e+002 -4.038177e+001 -1.106401e+002 -4.899116e+000 -2.944622e+001
20759331250 -4.902686e+000 2.466901e+001 -4.078032e+001 -1.119869e+002 -4.056041e+001 -1.107252e+002 -4.913861e+000 -3.102861e+001
20778075000 -4.912797e+000 2.392497e+001 -4.095300e+001 -1.134230e+002 -4.082841e+001 -1.119182e+002 -4.928464e+000 -3.260461e+001
20796818750 -4.922731e+000 2.315801e+001 -4.121753e+001 -1.148768e+002 -4.084161e+001 -1.138648e+002 -4.942485e+000 -3.417233e+001
20815562500 -4.934148e+000 2.239174e+001 -4.134333e+001 -1.152729e+002 -4.089020e+001 -1.144811e+002 -4.957925e+000 -3.572597e+001
20834306250 -4.947963e+000 2.157564e+001 -4.136005e+001 -1.165636e+002 -4.099356e+001 -1.161641e+002 -4.972321e+000 -3.728038e+001
20853050000 -4.958540e+000 2.074801e+001 -4.157828e+001 -1.168466e+002 -4.106562e+001 -1.164974e+002 -4.990627e+000 -3.882380e+001
20871793750 -4.959912e+000 1.994437e+001 -4.176145e+001 -1.168724e+002 -4.126052e+001 -1.172893e+002 -5.002077e+000 -4.035636e+001
20890537500 -4.971245e+000 1.918901e+001 -4.183220e+001 -1.170492e+002 -4.136356e+001 -1.181032e+002 -5.017655e+000 -4.185320e+001
20909281250 -4.988999e+000 1.838967e+001 -4.206139e+001 -1.183196e+002 -4.158550e+001 -1.193562e+002 -5.032829e+000 -4.334035e+001
20928025000 -5.000968e+000 1.761119e+001 -4.225009e+001 -1.187163e+002 -4.173215e+001 -1.205306e+002 -5.046325e+000 -4.484089e+001
20946768750 -5.018425e+000 1.677014e+001 -4.242946e+001 -1.193883e+002 -4.184674e+001 -1.208517e+002 -5.060987e+000 -4.629437e+001
20965512500 -5.024528e+000 1.593130e+001 -4.274389e+001 -1.192200e+002 -4.190805e+001 -1.202236e+002 -5.076901e+000 -4.777909e+001
20984256250 -5.033940e+000 1.515876e+001 -4.282833e+001 -1.200613e+002 -4.205408e+001 -1.216010e+002 -5.085688e+000 -4.922246e+001
21003000000 -5.043624e+000 1.438974e+001 -4.287517e+001 -1.200850e+002 -4.222277e+001 -1.220725e+002 -5.100278e+000 -5.067729e+001
21021743750 -5.057317e+000 1.358864e+001 -4.284629e+001 -1.203942e+002 -4.235435e+001 -1.220628e+002 -5.108352e+000 -5.212829e+001
21040487500 -5.075052e+000 1.282998e+001 -4.298811e+001 -1.195782e+002 -4.247541e+001 -1.229968e+002 -5.115669e+000 -5.359199e+001
21059231250 -5.086181e+000 1.198262e+001 -4.313746e+001 -1.198964e+002 -4.262270e+001 -1.242573e+002 -5.127489e+000 -5.502565e+001
21077975000 -5.095463e+000 1.112975e+001 -4.322482e+001 -1.203881e+002 -4.279361e+001 -1.239064e+002 -5.141994e+000 -5.648619e+001
21096718750 -5.095639e+000 1.032233e+001 -4.317934e+001 -1.208076e+002 -4.286013e+001 -1.240990e+002 -5.154103e+000 -5.794576e+001
21115462500 -5.106493e+000 9.553438e+000 -4.312694e+001 -1.199952e+002 -4.293486e+001 -1.248254e+002 -5.166082e+000 -5.936041e+001
21134206250 -5.118839e+000 8.783304e+000 -4.336456e+001 -1.209730e+002 -4.301116e+001 -1.252943e+002 -5.180150e+000 -6.082917e+001
21152950000 -5.129526e+000 8.002131e+000 -4.353643e+001 -1.200656e+002 -4.309425e+001 -1.255642e+002 -5.188601e+000 -6.229585e+001
21171693750 -5.141065e+000 7.157455e+000 -4.351229e+001 -1.205813e+002 -4.325095e+001 -1.254741e+002 -5.202069e+000 -6.372780e+001
21190437500 -5.146514e+000 6.329538e+000 -4.369419e+001 -1.196641e+002 -4.329244e+001 -1.264045e+002 -5.220462e+000 -6.519660e+001
21209181250 -5.149379e+000 5.527419e+000 -4.368086e+001 -1.191343e+002 -4.316935e+001 -1.260174e+002 -5.238758e+000 -6.664307e+001
21227925000 -5.162302e+000 4.760887e+000 -4.362919e+001 -1.185259e+002 -4.332663e+001 -1.247143e+002 -5.265672e+000 -6.812641e+001
21246668750 -5.169481e+000 3.953383e+000 -4.369857e+001 -1.186446e+002 -4.350826e+001 -1.258203e+002 -5.291625e+000 -6.961813e+001
21265412500 -5.179351e+000 3.157382e+000 -4.374163e+001 -1.179565e+002 -4.357140e+001 -1.257202e+002 -5.314003e+000 -7.110989e+001
21284156250 -5.192052e+000 2.308437e+000 -4.361195e+001 -1.182573e+002 -4.372301e+001 -1.266730e+002 -5.341158e+000 -7.255548e+001
21302900000 -5.196918e+000 1.469358e+000 -4.371942e+001 -1.187310e+002 -4.384991e+001 -1.260055e+002 -5.373739e+000 -7.402111e+001
21321643750 -5.198359e+000 6.786122e-001 -4.380497e+001 -1.189450e+002 -4.382954e+001 -1.250284e+002 -5.403769e+000 -7.546350e+001
21340387500 -5.203481e+000 -9.733963e-002 -4.384970e+001 -1.187768e+002 -4.380773e+001 -1.241452e+002 -5.441866e+000 -7.692809e+001
21359131250 -5.212705e+000 -8.912358e-001 -4.404034e+001 -1.177231e+002 -4.379527e+001 -1.242660e+002 -5.477931e+000 -7.841362e+001
21377875000 -5.225129e+000 -1.696844e+000 -4.403584e+001 -1.172065e+002 -4.403896e+001 -1.237989e+002 -5.519232e+000 -7.984814e+001
21396618750 -5.235497e+000 -2.542361e+000 -4.404741e+001 -1.178310e+002 -4.427690e+001 -1.244859e+002 -5.560798e+000 -8.128722e+001
21415362500 -5.235242e+000 -3.389469e+000 -4.423380e+001 -1.176586e+002 -4.425054e+001 -1.234991e+002 -5.607292e+000 -8.275869e+001
21434106250 -5.238286e+000 -4.155866e+000 -4.437794e+001 -1.182854e+002 -4.434460e+001 -1.239321e+002 -5.654478e+000 -8.418337e+001
21452850000 -5.242929e+000 -4.939286e+000 -4.444496e+001 -1.184714e+002 -4.447260e+001 -1.234992e+002 -5.713164e+000 -8.562778e+001
21471593750 -5.249382e+000 -5.768664e+000 -4.439430e+001 -1.197750e+002 -4.458208e+001 -1.229312e+002 -5.773134e+000 -8.702001e+001
21490337500 -5.263679e+000 -6.581789e+000 -4.455235e+001 -1.200477e+002 -4.449366e+001 -1.220787e+002 -5.838541e+000 -8.840699e+001
21509081250 -5.270713e+000 -7.457021e+000 -4.455191e+001 -1.199931e+002 -4.475765e+001 -1.208802e+002 -5.898957e+000 -8.980003e+001
21527825000 -5.270950e+000 -8.302341e+000 -4.473558e+001 -1.194846e+002 -4.489580e+001 -1.197186e+002 -5.965460e+000 -9.118478e+001
21546568750 -5.275107e+000 -9.090845e+000 -4.472705e+001 -1.210645e+002 -4.503773e+001 -1.196484e+002 -6.041853e+000 -9.255461e+001
21565312500 -5.284819e+000 -9.909697e+000 -4.463602e+001 -1.200372e+002 -4.509864e+001 -1.197668e+002 -6.116224e+000 -9.392880e+001
21584056250 -5.295504e+000 -1.073630e+001 -4.461974e+001 -1.208736e+002 -4.525966e+001 -1.203849e+002 -6.201908e+000 -9.528995e+001
21602800000 -5.308539e+000 -1.155637e+001 -4.469008e+001 -1.198900e+002 -4.534000e+001 -1.188685e+002 -6.292383e+000 -9.664185e+001
21621543750 -5.310287e+000 -1.242907e+001 -4.475662e+001 -1.202498e+002 -4.541426e+001 -1.194797e+002 -6.383332e+000 -9.800251e+001
21640287500 -5.310268e+000 -1.328572e+001 -4.488225e+001 -1.210499e+002 -4.548983e+001 -1.199576e+002 -6.480423e+000 -9.929891e+001
21659031250 -5.316106e+000 -1.411306e+001 -4.496463e+001 -1.203944e+002 -4.556577e+001 -1.214692e+002 -6.587758e+000 -1.005817e+002
21677775000 -5.325833e+000 -1.492143e+001 -4.493568e+001 -1.202369e+002 -4.567413e+001 -1.206374e+002 -6.698868e+000 -1.018602e+002
21696518750 -5.334804e+000 -1.575391e+001 -4.499711e+001 -1.192926e+002 -4.588669e+001 -1.201545e+002 -6.819954e+000 -1.030476e+002
21715262500 -5.346085e+000 -1.659869e+001 -4.505210e+001 -1.182545e+002 -4.591440e+001 -1.182558e+002 -6.950159e+000 -1.042622e+002
21734006250 -5.348508e+000 -1.749805e+001 -4.483837e+001 -1.166982e+002 -4.578003e+001 -1.165026e+002 -7.079662e+000 -1.054439e+002
21752750000 -5.344976e+000 -1.836308e+001 -4.483930e+001 -1.162307e+002 -4.586079e+001 -1.166545e+002 -7.221074e+000 -1.065416e+002
21771493750 -5.349985e+000 -1.914153e+001 -4.470784e+001 -1.168209e+002 -4.587190e+001 -1.174083e+002 -7.370981e+000 -1.075624e+002
21790237500 -5.355460e+000 -1.997155e+001 -4.452494e+001 -1.165001e+002 -4.599854e+001 -1.168666e+002 -7.529511e+000 -1.085292e+002
21808981250 -5.364815e+000 -2.079249e+001 -4.445716e+001 -1.161089e+002 -4.584179e+001 -1.168884e+002 -7.685432e+000 -1.094562e+002
21827725000 -5.374005e+000 -2.167292e+001 -4.434283e+001 -1.154979e+002 -4.574878e+001 -1.176160e+002 -7.849082e+000 -1.102950e+002
21846468750 -5.378878e+000 -2.255927e+001 -4.417085e+001 -1.143776e+002 -4.573516e+001 -1.167020e+002 -8.016378e+000 -1.110313e+002
21865212500 -5.376843e+000 -2.342350e+001 -4.403689e+001 -1.125349e+002 -4.572728e+001 -1.148603e+002 -8.193042e+000 -1.116686e+002
21883956250 -5.380171e+000 -2.421083e+001 -4.402006e+001 -1.126736e+002 -4.553595e+001 -1.153129e+002 -8.365356e+000 -1.122609e+002
21902700000 -5.384554e+000 -2.503445e+001 -4.387925e+001 -1.113478e+002 -4.534905e+001 -1.143507e+002 -8.534566e+000 -1.127595e+002
21921443750 -5.391750e+000 -2.586155e+001 -4.369672e+001 -1.109511e+002 -4.521754e+001 -1.141405e+002 -8.704277e+000 -1.131506e+002
21940187500 -5.400124e+000 -2.668698e+001 -4.366802e+001 -1.105239e+002 -4.478817e+001 -1.156607e+002 -8.875172e+000 -1.134645e+002
21958931250 -5.402067e+000 -2.758140e+001 -4.342768e+001 -1.106201e+002 -4.467708e+001 -1.156222e+002 -9.037386e+000 -1.136375e+002
21977675000 -5.397793e+000 -2.841181e+001 -4.330836e+001 -1.094787e+002 -4.433730e+001 -1.148835e+002 -9.199444e+000 -1.137861e+002
21996418750 -5.399288e+000 -2.921290e+001 -4.320060e+001 -1.102419e+002 -4.417030e+001 -1.143074e+002 -9.361626e+000 -1.138003e+002
22015162500 -5.402241e+000 -3.002861e+001 -4.294806e+001 -1.105904e+002 -4.397571e+001 -1.138656e+002 -9.507170e+000 -1.136780e+002
22033906250 -5.410594e+000 -3.087652e+001 -4.279353e+001 -1.108515e+002 -4.363696e+001 -1.150155e+002 -9.646689e+000 -1.134983e+002
22052650000 -5.421660e+000 -3.175347e+001 -4.259037e+001 -1.109856e+002 -4.343639e+001 -1.142415e+002 -9.777689e+000 -1.132563e+002
22071393750 -5.421767e+000 -3.260851e+001 -4.232324e+001 -1.107410e+002 -4.335471e+001 -1.138348e+002 -9.898578e+000 -1.129323e+002
22090137500 -5.416711e+000 -3.341534e+001 -4.213725e+001 -1.119046e+002 -4.321654e+001 -1.131423e+002 -1.000520e+001 -1.125409e+002
22108881250 -5.417652e+000 -3.424993e+001 -4.202358e+001 -1.124141e+002 -4.288344e+001 -1.136400e+002 -1.009205e+001 -1.120639e+002
22127625000 -5.425489e+000 -3.507929e+001 -4.198121e+001 -1.139722e+002 -4.263675e+001 -1.142348e+002 -1.017171e+001 -1.115629e+002
22146368750 -5.431779e+000 -3.590161e+001 -4.198891e+001 -1.154187e+002 -4.251454e+001 -1.166520e+002 -1.023098e+001 -1.110124e+002
22165112500 -5.439890e+000 -3.678616e+001 -4.209820e+001 -1.170969e+002 -4.242395e+001 -1.192263e+002 -1.027144e+001 -1.104426e+002
22183856250 -5.439489e+000 -3.766236e+001 -4.198307e+001 -1.185158e+002 -4.221344e+001 -1.203753e+002 -1.030962e+001 -1.098208e+002
22202600000 -5.432276e+000 -3.849262e+001 -4.191861e+001 -1.192467e+002 -4.193644e+001 -1.212432e+002 -1.032242e+001 -1.093062e+002
22221343750 -5.431811e+000 -3.930396e+001 -4.171453e+001 -1.211584e+002 -4.159534e+001 -1.226949e+002 -1.031911e+001 -1.087351e+002
22240087500 -5.430604e+000 -4.009227e+001 -4.166311e+001 -1.212718e+002 -4.153521e+001 -1.231232e+002 -1.030864e+001 -1.081571e+002
22258831250 -5.434614e+000 -4.088471e+001 -4.153062e+001 -1.228775e+002 -4.129941e+001 -1.241119e+002 -1.027777e+001 -1.076591e+002
22277575000 -5.436387e+000 -4.178017e+001 -4.139317e+001 -1.245889e+002 -4.119252e+001 -1.256041e+002 -1.022456e+001 -1.071743e+002
22296318750 -5.430795e+000 -4.266044e+001 -4.136235e+001 -1.267689e+002 -4.094789e+001 -1.273291e+002 -1.016601e+001 -1.067298e+002
22315062500 -5.426580e+000 -4.349493e+001 -4.113901e+001 -1.272294e+002 -4.088140e+001 -1.281195e+002 -1.009378e+001 -1.063281e+002
22333806250 -5.425275e+000 -4.430742e+001 -4.122419e+001 -1.286470e+002 -4.079578e+001 -1.304859e+002 -1.001380e+001 -1.060059e+002
22352550000 -5.423257e+000 -4.509235e+001 -4.114786e+001 -1.303001e+002 -4.071128e+001 -1.315074e+002 -9.925105e+000 -1.057275e+002
22371293750 -5.429661e+000 -4.593142e+001 -4.098463e+001 -1.312664e+002 -4.060268e+001 -1.323415e+002 -9.819285e+000 -1.055474e+002
22390037500 -5.433161e+000 -4.681384e+001 -4.093155e+001 -1.327477e+002 -4.059351e+001 -1.348577e+002 -9.716265e+000 -1.054633e+002
22408781250 -5.427225e+000 -4.768641e+001 -4.099951e+001 -1.349765e+002 -4.062459e+001 -1.364139e+002 -9.600499e+000 -1.053771e+002
22427525000 -5.419303e+000 -4.852329e+001 -4.090796e+001 -1.360755e+002 -4.048973e+001 -1.384714e+002 -9.472686e+000 -1.054058e+002
22446268750 -5.415946e+000 -4.932569e+001 -4.098568e+001 -1.374388e+002 -4.029277e+001 -1.398114e+002 -9.348579e+000 -1.055060e+002
22465012500 -5.409548e+000 -5.009784e+001 -4.096838e+001 -1.387126e+002 -4.036613e+001 -1.411957e+002 -9.222288e+000 -1.056998e+002
22483756250 -5.411912e+000 -5.090682e+001 -4.079642e+001 -1.401012e+002 -4.029112e+001 -1.424162e+002 -9.087230e+000 -1.059294e+002
22502500000 -5.408763e+000 -5.179423e+001 -4.081965e+001 -1.417029e+002 -4.015763e+001 -1.437354e+002 -8.952487e+000 -1.062253e+002
22521243750 -5.399837e+000 -5.265490e+001 -4.076598e+001 -1.425160e+002 -4.004504e+001 -1.455225e+002 -8.817268e+000 -1.065967e+002
22539987500 -5.393758e+000 -5.345227e+001 -4.072095e+001 -1.440791e+002 -3.998720e+001 -1.465642e+002 -8.684225e+000 -1.070299e+002
22558731250 -5.386069e+000 -5.421945e+001 -4.067395e+001 -1.451370e+002 -3.995131e+001 -1.472446e+002 -8.549959e+000 -1.074731e+002
22577475000 -5.378052e+000 -5.497160e+001 -4.063398e+001 -1.460309e+002 -3.988598e+001 -1.473349e+002 -8.419053e+000 -1.079818e+002
22596218750 -5.377935e+000 -5.573853e+001 -4.046415e+001 -1.471275e+002 -3.982310e+001 -1.494944e+002 -8.295917e+000 -1.085653e+002
22614962500 -5.384235e+000 -5.658718e+001 -4.035939e+001 -1.483679e+002 -3.991415e+001 -1.507952e+002 -8.161432e+000 -1.092178e+002
22633706250 -5.379701e+000 -5.747844e+001 -4.033191e+001 -1.490444e+002 -4.009921e+001 -1.509876e+002 -8.037693e+000 -1.098338e+002
22652450000 -5.369816e+000 -5.826523e+001 -4.035841e+001 -1.503394e+002 -4.028721e+001 -1.522483e+002 -7.913089e+000 -1.105254e+002
22671193750 -5.372819e+000 -5.904054e+001 -4.028090e+001 -1.524416e+002 -4.026946e+001 -1.540258e+002 -7.790535e+000 -1.112394e+002
22689937500 -5.370785e+000 -5.989092e+001 -4.029404e+001 -1.531426e+002 -4.029791e+001 -1.542220e+002 -7.678974e+000 -1.119927e+002
22708681250 -5.367668e+000 -6.063692e+001 -4.025871e+001 -1.543664e+002 -4.041305e+001 -1.549373e+002 -7.573110e+000 -1.127855e+002
22727425000 -5.377289e+000 -6.148256e+001 -4.015344e+001 -1.554176e+002 -4.050377e+001 -1.566008e+002 -7.462514e+000 -1.135978e+002
22746168750 -5.366313e+000 -6.237392e+001 -4.020271e+001 -1.567797e+002 -4.049277e+001 -1.580278e+002 -7.357775e+000 -1.144240e+002
22764912500 -5.350825e+000 -6.311361e+001 -4.018056e+001 -1.578937e+002 -4.052526e+001 -1.587214e+002 -7.256062e+000 -1.152652e+002
22783656250 -5.352500e+000 -6.393001e+001 -4.019441e+001 -1.588647e+002 -4.055779e+001 -1.596196e+002 -7.159400e+000 -1.161263e+002
22802400000 -5.344034e+000 -6.474708e+001 -4.029903e+001 -1.607000e+002 -4.063212e+001 -1.609534e+002 -7.073385e+000 -1.170165e+002
22821143750 -5.342305e+000 -6.544736e+001 -4.034315e+001 -1.625678e+002 -4.060528e+001 -1.611679e+002 -6.979269e+000 -1.178825e+002
22839887500 -5.347433e+000 -6.630006e+001 -4.042169e+001 -1.633707e+002 -4.072252e+001 -1.623406e+002 -6.892651e+000 -1.187976e+002
22858631250 -5.327189e+000 -6.715688e+001 -4.045370e+001 -1.641980e+002 -4.071292e+001 -1.634335e+002 -6.809063e+000 -1.197507e+002
22877375000 -5.315412e+000 -6.788467e+001 -4.039048e+001 -1.647501e+002 -4.070671e+001 -1.641234e+002 -6.723828e+000 -1.206852e+002
22896118750 -5.317117e+000 -6.869585e+001 -4.048281e+001 -1.655635e+002 -4.072965e+001 -1.643856e+002 -6.644405e+000 -1.216270e+002
22914862500 -5.308382e+000 -6.950400e+001 -4.064182e+001 -1.667898e+002 -4.081491e+001 -1.666824e+002 -6.570842e+000 -1.225819e+002
22933606250 -5.314104e+000 -7.025262e+001 -4.060711e+001 -1.677772e+002 -4.088262e+001 -1.681073e+002 -6.499401e+000 -1.235294e+002
22952350000 -5.318097e+000 -7.114841e+001 -4.066164e+001 -1.696278e+002 -4.090083e+001 -1.685247e+002 -6.432521e+000 -1.244849e+002
22971093750 -5.301370e+000 -7.198769e+001 -4.067836e+001 -1.709765e+002 -4.100200e+001 -1.696937e+002 -6.367712e+000 -1.254706e+002
22989837500 -5.289333e+000 -7.272943e+001 -4.063644e+001 -1.724697e+002 -4.096031e+001 -1.712829e+002 -6.304783e+000 -1.264561e+002
23008581250 -5.291100e+000 -7.356735e+001 -4.060227e+001 -1.735222e+002 -4.099082e+001 -1.730938e+002 -6.249788e+000 -1.274596e+002
23027325000 -5.279533e+000 -7.434713e+001 -4.066764e+001 -1.752295e+002 -4.104683e+001 -1.727874e+002 -6.192449e+000 -1.284314e+002
23046068750 -5.270032e+000 -7.510305e+001 -4.079908e+001 -1.762540e+002 -4.116399e+001 -1.726286e+002 -6.141212e+000 -1.294177e+002
23064812500 -5.269180e+000 -7.593259e+001 -4.078991e+001 -1.775671e+002 -4.106323e+001 -1.740630e+002 -6.089705e+000 -1.304353e+002
23083556250 -5.255036e+000 -7.678024e+001 -4.075974e+001 -1.788929e+002 -4.103011e+001 -1.748898e+002 -6.036229e+000 -1.314358e+002
23102300000 -5.237672e+000 -7.755635e+001 -4.075227e+001 -1.798783e+002 -4.096741e+001 -1.761322e+002 -5.991280e+000 -1.324268e+002
23121043750 -5.231040e+000 -7.830078e+001 -4.078150e+001 1.784231e+002 -4.103522e+001 -1.776777e+002 -5.946267e+000 -1.334189e+002
23139787500 -5.225088e+000 -7.907507e+001 -4.088457e+001 1.774373e+002 -4.094107e+001 -1.788315e+002 -5.900776e+000 -1.344173e+002
23158531250 -5.219388e+000 -7.982558e+001 -4.092313e+001 1.760477e+002 -4.108512e+001 1.796836e+002 -5.861660e+000 -1.354190e+002
23177275000 -5.216290e+000 -8.064344e+001 -4.102073e+001 1.751840e+002 -4.131813e+001 1.790042e+002 -5.822099e+000 -1.364311e+002
23196018750 -5.205326e+000 -8.146471e+001 -4.099672e+001 1.739155e+002 -4.153312e+001 1.784819e+002 -5.780196e+000 -1.374316e+002
23214762500 -5.190495e+000 -8.220077e+001 -4.100610e+001 1.726535e+002 -4.159185e+001 1.768840e+002 -5.738772e+000 -1.384305e+002
23233506250 -5.185157e+000 -8.294433e+001 -4.103317e+001 1.720477e+002 -4.157121e+001 1.757113e+002 -5.702944e+000 -1.394352e+002
23252250000 -5.176287e+000 -8.373296e+001 -4.114944e+001 1.717956e+002 -4.158560e+001 1.741675e+002 -5.668236e+000 -1.404554e+002
23270993750 -5.172311e+000 -8.451126e+001 -4.113047e+001 1.703541e+002 -4.164045e+001 1.722785e+002 -5.639375e+000 -1.414546e+002
23289737500 -5.173057e+000 -8.531701e+001 -4.121351e+001 1.692228e+002 -4.191506e+001 1.722506e+002 -5.609488e+000 -1.424559e+002
23308481250 -5.158666e+000 -8.614175e+001 -4.131049e+001 1.679202e+002 -4.212771e+001 1.702540e+002 -5.580815e+000 -1.434639e+002
23327225000 -5.147854e+000 -8.689134e+001 -4.123684e+001 1.660785e+002 -4.210578e+001 1.687534e+002 -5.557705e+000 -1.444595e+002
23345968750 -5.140421e+000 -8.761810e+001 -4.119931e+001 1.645796e+002 -4.208335e+001 1.684087e+002 -5.532929e+000 -1.454718e+002
23364712500 -5.133579e+000 -8.833447e+001 -4.124048e+001 1.633648e+002 -4.209143e+001 1.675394e+002 -5.508707e+000 -1.464924e+002
23383456250 -5.130086e+000 -8.906367e+001 -4.131371e+001 1.630970e+002 -4.210337e+001 1.657599e+002 -5.486995e+000 -1.475136e+002
23402200000 -5.124409e+000 -8.984718e+001 -4.136973e+001 1.627055e+002 -4.220747e+001 1.639001e+002 -5.466918e+000 -1.485260e+002
23420943750 -5.114398e+000 -9.062940e+001 -4.145735e+001 1.617959e+002 -4.224884e+001 1.632785e+002 -5.443545e+000 -1.495353e+002
23439687500 -5.102068e+000 -9.133995e+001 -4.147191e+001 1.605469e+002 -4.221357e+001 1.623751e+002 -5.427071e+000 -1.505633e+002
23458431250 -5.094784e+000 -9.210396e+001 -4.152710e+001 1.603627e+002 -4.215750e+001 1.606289e+002 -5.409608e+000 -1.515939e+002
23477175000 -5.093015e+000 -9.283273e+001 -4.144011e+001 1.594044e+002 -4.208282e+001 1.591260e+002 -5.393741e+000 -1.526071e+002
23495918750 -5.084109e+000 -9.357329e+001 -4.151810e+001 1.587310e+002 -4.212141e+001 1.581554e+002 -5.382268e+000 -1.536246e+002
23514662500 -5.075915e+000 -9.434607e+001 -4.165654e+001 1.580857e+002 -4.213798e+001 1.577038e+002 -5.372959e+000 -1.546513e+002
23533406250 -5.065851e+000 -9.510183e+001 -4.180901e+001 1.565826e+002 -4.228352e+001 1.577481e+002 -5.362707e+000 -1.556457e+002
23552150000 -5.056696e+000 -9.583618e+001 -4.178447e+001 1.562450e+002 -4.229498e+001 1.573253e+002 -5.356911e+000 -1.566873e+002
23570893750 -5.050307e+000 -9.658292e+001 -4.190098e+001 1.547127e+002 -4.248761e+001 1.556100e+002 -5.352627e+000 -1.577245e+002
23589637500 -5.042635e+000 -9.731504e+001 -4.210160e+001 1.538934e+002 -4.242554e+001 1.549393e+002 -5.350199e+000 -1.587470e+002
23608381250 -5.039292e+000 -9.804859e+001 -4.224342e+001 1.534193e+002 -4.226671e+001 1.533721e+002 -5.349514e+000 -1.598027e+002
23627125000 -5.031344e+000 -9.882987e+001 -4.223363e+001 1.518204e+002 -4.230025e+001 1.509881e+002 -5.347342e+000 -1.608370e+002
23645868750 -5.019777e+000 -9.959201e+001 -4.221978e+001 1.508977e+002 -4.228152e+001 1.509722e+002 -5.353114e+000 -1.618696e+002
23664612500 -5.008723e+000 -1.003115e+002 -4.217661e+001 1.494851e+002 -4.239318e+001 1.498279e+002 -5.355723e+000 -1.629152e+002
23683356250 -5.003822e+000 -1.010556e+002 -4.213151e+001 1.473978e+002 -4.236998e+001 1.482820e+002 -5.363043e+000 -1.639607e+002
23702100000 -4.995358e+000 -1.017716e+002 -4.211123e+001 1.467809e+002 -4.229327e+001 1.481218e+002 -5.370281e+000 -1.650070e+002
23720843750 -4.988001e+000 -1.024934e+002 -4.210542e+001 1.457912e+002 -4.222720e+001 1.460999e+002 -5.380164e+000 -1.660820e+002
23739587500 -4.978628e+000 -1.032436e+002 -4.212458e+001 1.447305e+002 -4.215260e+001 1.463614e+002 -5.389992e+000 -1.671206e+002
23758331250 -4.963037e+000 -1.039684e+002 -4.233006e+001 1.448066e+002 -4.226646e+001 1.450961e+002 -5.403278e+000 -1.681475e+002
23777075000 -4.954366e+000 -1.046957e+002 -4.229637e+001 1.440504e+002 -4.229254e+001 1.444628e+002 -5.421932e+000 -1.692206e+002
23795818750 -4.941245e+000 -1.054566e+002 -4.233459e+001 1.439126e+002 -4.232755e+001 1.432904e+002 -5.434413e+000 -1.702668e+002
23814562500 -4.931791e+000 -1.061858e+002 -4.233121e+001 1.426116e+002 -4.242302e+001 1.428521e+002 -5.455997e+000 -1.713386e+002
23833306250 -4.922353e+000 -1.069101e+002 -4.241586e+001 1.407884e+002 -4.244078e+001 1.432390e+002 -5.475092e+000 -1.724326e+002
23852050000 -4.912817e+000 -1.076786e+002 -4.246946e+001 1.397343e+002 -4.238578e+001 1.418630e+002 -5.494921e+000 -1.735071e+002
23870793750 -4.898067e+000 -1.084123e+002 -4.256538e+001 1.387374e+002 -4.264461e+001 1.402099e+002 -5.521510e+000 -1.745647e+002
23889537500 -4.890316e+000 -1.091077e+002 -4.252400e+001 1.372719e+002 -4.274596e+001 1.390155e+002 -5.548825e+000 -1.756678e+002
23908281250 -4.882286e+000 -1.098367e+002 -4.261852e+001 1.364401e+002 -4.281150e+001 1.371084e+002 -5.578480e+000 -1.767111e+002
23927025000 -4.876247e+000 -1.105779e+002 -4.262098e+001 1.344629e+002 -4.281311e+001 1.368033e+002 -5.615486e+000 -1.778048e+002
23945768750 -4.869193e+000 -1.112937e+002 -4.268994e+001 1.333172e+002 -4.273479e+001 1.347679e+002 -5.650386e+000 -1.789184e+002
23964512500 -4.857718e+000 -1.120555e+002 -4.266205e+001 1.322900e+002 -4.269781e+001 1.319532e+002 -5.684232e+000 -1.799944e+002
23983256250 -4.842724e+000 -1.127532e+002 -4.263722e+001 1.301904e+002 -4.273238e+001 1.300283e+002 -5.726758e+000 1.789004e+002
24002000000 -4.829939e+000 -1.134594e+002 -4.257161e+001 1.287847e+002 -4.251312e+001 1.292241e+002 -5.765096e+000 1.777870e+002
24020743750 -4.819837e+000 -1.141763e+002 -4.232947e+001 1.275452e+002 -4.254017e+001 1.280886e+002 -5.807992e+000 1.766996e+002
24039487500 -4.810371e+000 -1.148859e+002 -4.232075e+001 1.254400e+002 -4.272950e+001 1.274952e+002 -5.861749e+000 1.755932e+002
24058231250 -4.805406e+000 -1.156061e+002 -4.255737e+001 1.236338e+002 -4.261191e+001 1.269898e+002 -5.914754e+000 1.744625e+002
24076975000 -4.791147e+000 -1.163514e+002 -4.262189e+001 1.227538e+002 -4.269729e+001 1.245195e+002 -5.968553e+000 1.733754e+002
24095718750 -4.773536e+000 -1.170484e+002 -4.281389e+001 1.222045e+002 -4.274397e+001 1.228321e+002 -6.027585e+000 1.722867e+002
24114462500 -4.761798e+000 -1.177511e+002 -4.279151e+001 1.214572e+002 -4.285425e+001 1.224571e+002 -6.086343e+000 1.711832e+002
24133206250 -4.750758e+000 -1.184359e+002 -4.282977e+001 1.195835e+002 -4.283083e+001 1.208812e+002 -6.151270e+000 1.701136e+002
24151950000 -4.743640e+000 -1.191632e+002 -4.265257e+001 1.181002e+002 -4.283670e+001 1.195606e+002 -6.225310e+000 1.690335e+002
24170693750 -4.735527e+000 -1.199092e+002 -4.266883e+001 1.164154e+002 -4.282891e+001 1.174031e+002 -6.297573e+000 1.679339e+002
24189437500 -4.722931e+000 -1.206341e+002 -4.260551e+001 1.140697e+002 -4.273966e+001 1.153495e+002 -6.368768e+000 1.668439e+002
24208181250 -4.709976e+000 -1.213283e+002 -4.261749e+001 1.126712e+002 -4.287911e+001 1.136732e+002 -6.447985e+000 1.657447e+002
24226925000 -4.698797e+000 -1.220074e+002 -4.270335e+001 1.105533e+002 -4.290808e+001 1.116367e+002 -6.528162e+000 1.646358e+002
24245668750 -4.690208e+000 -1.226639e+002 -4.271111e+001 1.087863e+002 -4.286681e+001 1.097968e+002 -6.613902e+000 1.635687e+002
24264412500 -4.684727e+000 -1.233855e+002 -4.275264e+001 1.080804e+002 -4.284179e+001 1.080770e+002 -6.706604e+000 1.624520e+002
24283156250 -4.674021e+000 -1.241061e+002 -4.274282e+001 1.068262e+002 -4.293976e+001 1.067943e+002 -6.798400e+000 1.613356e+002
24301900000 -4.660414e+000 -1.248141e+002 -4.283454e+001 1.050440e+002 -4.262113e+001 1.060352e+002 -6.890448e+000 1.602652e+002
24320643750 -4.643047e+000 -1.255070e+002 -4.300960e+001 1.033910e+002 -4.263985e+001 1.038514e+002 -6.992658e+000 1.591909e+002
24339387500 -4.628608e+000 -1.261535e+002 -4.296937e+001 1.008306e+002 -4.271820e+001 1.020485e+002 -7.094851e+000 1.581030e+002
24358131250 -4.620224e+000 -1.268311e+002 -4.300701e+001 1.006449e+002 -4.278208e+001 9.852479e+001 -7.203623e+000 1.570456e+002
24376875000 -4.615622e+000 -1.275512e+002 -4.299318e+001 9.867074e+001 -4.287206e+001 9.751440e+001 -7.315672e+000 1.559218e+002
24395618750 -4.601610e+000 -1.282724e+002 -4.304337e+001 9.767516e+001 -4.289846e+001 9.621432e+001 -7.426181e+000 1.547804e+002
24414362500 -4.590383e+000 -1.289785e+002 -4.313523e+001 9.768962e+001 -4.292266e+001 9.436678e+001 -7.542863e+000 1.537307e+002
24433106250 -4.577958e+000 -1.296432e+002 -4.316759e+001 9.684298e+001 -4.310513e+001 9.341882e+001 -7.666796e+000 1.526623e+002
24451850000 -4.561735e+000 -1.303161e+002 -4.333609e+001 9.538019e+001 -4.303000e+001 9.233719e+001 -7.790684e+000 1.515743e+002
24470593750 -4.552693e+000 -1.309683e+002 -4.334209e+001 9.421459e+001 -4.285046e+001 9.021947e+001 -7.924314e+000 1.505248e+002
24489337500 -4.543019e+000 -1.316730e+002 -4.337762e+001 9.372894e+001 -4.297267e+001 8.766906e+001 -8.057308e+000 1.494153e+002
24508081250 -4.530905e+000 -1.323516e+002 -4.340834e+001 9.176862e+001 -4.304310e+001 8.633595e+001 -8.193016e+000 1.483524e+002
24526825000 -4.521266e+000 -1.330663e+002 -4.337062e+001 8.906979e+001 -4.288688e+001 8.546125e+001 -8.343157e+000 1.472854e+002
24545568750 -4.506799e+000 -1.337388e+002 -4.354872e+001 8.730315e+001 -4.289759e+001 8.343788e+001 -8.496294e+000 1.461890e+002
24564312500 -4.491879e+000 -1.343972e+002 -4.350189e+001 8.624219e+001 -4.302546e+001 8.153297e+001 -8.650692e+000 1.451213e+002
24583056250 -4.485294e+000 -1.350605e+002 -4.365710e+001 8.458620e+001 -4.300937e+001 8.101268e+001 -8.808297e+000 1.440368e+002
24601800000 -4.477901e+000 -1.357361e+002 -4.383518e+001 8.281734e+001 -4.309708e+001 7.936067e+001 -8.969267e+000 1.428931e+002
24620543750 -4.466419e+000 -1.364408e+002 -4.383784e+001 8.129632e+001 -4.326325e+001 7.856944e+001 -9.140879e+000 1.418065e+002
24639287500 -4.453862e+000 -1.371177e+002 -4.402514e+001 7.967442e+001 -4.333982e+001 7.563671e+001 -9.320787e+000 1.407803e+002
24658031250 -4.439333e+000 -1.377998e+002 -4.394680e+001 7.817218e+001 -4.352763e+001 7.565004e+001 -9.515585e+000 1.397046e+002
24676775000 -4.426143e+000 -1.384684e+002 -4.411404e+001 7.644962e+001 -4.371067e+001 7.453791e+001 -9.708317e+000 1.386309e+002
24695518750 -4.418935e+000 -1.391237e+002 -4.413586e+001 7.441719e+001 -4.372813e+001 7.310513e+001 -9.913016e+000 1.376246e+002
24714262500 -4.413383e+000 -1.398057e+002 -4.437570e+001 7.267588e+001 -4.397437e+001 7.157124e+001 -1.011529e+001 1.365711e+002
24733006250 -4.401525e+000 -1.404923e+002 -4.430949e+001 7.033414e+001 -4.438585e+001 6.961262e+001 -1.033346e+001 1.355603e+002
24751750000 -4.392186e+000 -1.411726e+002 -4.425889e+001 6.883719e+001 -4.435243e+001 6.887503e+001 -1.055997e+001 1.346141e+002
24770493750 -4.379007e+000 -1.418632e+002 -4.449966e+001 6.905440e+001 -4.437330e+001 6.841711e+001 -1.080522e+001 1.336470e+002
24789237500 -4.369170e+000 -1.424871e+002 -4.466658e+001 6.676176e+001 -4.446162e+001 6.872133e+001 -1.105911e+001 1.327227e+002
24807981250 -4.360437e+000 -1.431226e+002 -4.475666e+001 6.544871e+001 -4.469220e+001 6.602264e+001 -1.133026e+001 1.317917e+002
24826725000 -4.352968e+000 -1.437843e+002 -4.492089e+001 6.278210e+001 -4.471622e+001 6.404163e+001 -1.160341e+001 1.308712e+002
24845468750 -4.344162e+000 -1.444513e+002 -4.502135e+001 5.986513e+001 -4.505642e+001 6.251626e+001 -1.188173e+001 1.299939e+002
24864212500 -4.330141e+000 -1.451454e+002 -4.531187e+001 5.787222e+001 -4.520076e+001 6.031310e+001 -1.218246e+001 1.291992e+002
24882956250 -4.321146e+000 -1.457898e+002 -4.533065e+001 5.740687e+001 -4.539381e+001 5.809129e+001 -1.249557e+001 1.284550e+002
24901700000 -4.311674e+000 -1.464330e+002 -4.540312e+001 5.469001e+001 -4.547598e+001 5.732701e+001 -1.281640e+001 1.277302e+002
24920443750 -4.307551e+000 -1.470722e+002 -4.536300e+001 5.355703e+001 -4.556490e+001 5.542524e+001 -1.316788e+001 1.269737e+002
24939187500 -4.298116e+000 -1.477597e+002 -4.543966e+001 5.329569e+001 -4.591558e+001 5.241617e+001 -1.352307e+001 1.262321e+002
24957931250 -4.290541e+000 -1.484308e+002 -4.542302e+001 5.228216e+001 -4.664349e+001 5.094147e+001 -1.389490e+001 1.256095e+002
24976675000 -4.276511e+000 -1.490938e+002 -4.538372e+001 5.172044e+001 -4.665316e+001 4.948967e+001 -1.429822e+001 1.252144e+002
24995418750 -4.262011e+000 -1.497282e+002 -4.571423e+001 5.078188e+001 -4.676579e+001 4.796968e+001 -1.472481e+001 1.248201e+002
25014162500 -4.250805e+000 -1.503173e+002 -4.579209e+001 4.948497e+001 -4.688345e+001 4.629976e+001 -1.518415e+001 1.244128e+002
25032906250 -4.242480e+000 -1.509706e+002 -4.585354e+001 4.775597e+001 -4.699710e+001 4.577478e+001 -1.566429e+001 1.242131e+002
25051650000 -4.232919e+000 -1.516052e+002 -4.624669e+001 4.718298e+001 -4.716948e+001 4.288597e+001 -1.614213e+001 1.241862e+002
25070393750 -4.220059e+000 -1.522734e+002 -4.626482e+001 4.681433e+001 -4.742118e+001 4.521664e+001 -1.662435e+001 1.245793e+002
25089137500 -4.210606e+000 -1.529074e+002 -4.643837e+001 4.603881e+001 -4.744378e+001 4.300408e+001 -1.714672e+001 1.252696e+002
25107881250 -4.195928e+000 -1.535227e+002 -4.639885e+001 4.608744e+001 -4.793951e+001 4.389542e+001 -1.772120e+001 1.263890e+002
25126625000 -4.186883e+000 -1.541076e+002 -4.665255e+001 4.722183e+001 -4.811587e+001 4.240378e+001 -1.832057e+001 1.276446e+002
25145368750 -4.179275e+000 -1.547435e+002 -4.670326e+001 4.699654e+001 -4.817472e+001 4.173623e+001 -1.894059e+001 1.292336e+002
25164112500 -4.173865e+000 -1.553885e+002 -4.686771e+001 4.734125e+001 -4.818271e+001 4.102809e+001 -1.952165e+001 1.312723e+002
25182856250 -4.166039e+000 -1.560184e+002 -4.696769e+001 4.544378e+001 -4.839982e+001 3.819967e+001 -2.004422e+001 1.337566e+002
25201600000 -4.151276e+000 -1.566634e+002 -4.687763e+001 4.308090e+001 -4.874718e+001 3.700936e+001 -2.048925e+001 1.366741e+002
25220343750 -4.138700e+000 -1.572742e+002 -4.688388e+001 4.141244e+001 -4.883912e+001 3.620982e+001 -2.089070e+001 1.402383e+002
25239087500 -4.131127e+000 -1.578699e+002 -4.693123e+001 4.018118e+001 -4.892705e+001 3.773981e+001 -2.126906e+001 1.441224e+002
25257831250 -4.121023e+000 -1.584971e+002 -4.692872e+001 4.054288e+001 -4.891489e+001 3.826709e+001 -2.162323e+001 1.483142e+002
25276575000 -4.111574e+000 -1.591355e+002 -4.694509e+001 3.933350e+001 -4.871124e+001 3.868904e+001 -2.194756e+001 1.522609e+002
25295318750 -4.104246e+000 -1.597572e+002 -4.710663e+001 4.101528e+001 -4.859721e+001 4.069011e+001 -2.220065e+001 1.563227e+002
25314062500 -4.093170e+000 -1.603937e+002 -4.724316e+001 3.931054e+001 -4.878392e+001 4.182364e+001 -2.235894e+001 1.605056e+002
25332806250 -4.079019e+000 -1.609872e+002 -4.723098e+001 4.055793e+001 -4.898286e+001 3.947625e+001 -2.245091e+001 1.649061e+002
25351550000 -4.069754e+000 -1.615790e+002 -4.732783e+001 4.016672e+001 -4.902716e+001 3.942447e+001 -2.250618e+001 1.695140e+002
25370293750 -4.067104e+000 -1.621765e+002 -4.732462e+001 3.825017e+001 -4.876198e+001 4.022810e+001 -2.252317e+001 1.741806e+002
25389037500 -4.056194e+000 -1.627790e+002 -4.744545e+001 3.841125e+001 -4.847692e+001 4.176348e+001 -2.249144e+001 1.787162e+002
25407781250 -4.050477e+000 -1.634020e+002 -4.766186e+001 3.756455e+001 -4.884790e+001 4.246970e+001 -2.239771e+001 -1.769339e+002
25426525000 -4.042345e+000 -1.640275e+002 -4.769662e+001 3.702008e+001 -4.880994e+001 4.102330e+001 -2.222085e+001 -1.725414e+002
25445268750 -4.027796e+000 -1.646287e+002 -4.803802e+001 3.781877e+001 -4.887521e+001 4.093419e+001 -2.199522e+001 -1.679344e+002
25464012500 -4.022043e+000 -1.651769e+002 -4.791586e+001 3.821170e+001 -4.892767e+001 4.156234e+001 -2.172083e+001 -1.634564e+002
25482756250 -4.016566e+000 -1.658244e+002 -4.758656e+001 3.699591e+001 -4.886552e+001 4.421529e+001 -2.142435e+001 -1.591852e+002
25501500000 -4.007102e+000 -1.664106e+002 -4.779152e+001 3.620076e+001 -4.947116e+001 4.633959e+001 -2.109692e+001 -1.553950e+002
25520243750 -4.000689e+000 -1.670274e+002 -4.774928e+001 3.381781e+001 -4.948169e+001 4.697891e+001 -2.068238e+001 -1.518925e+002
25538987500 -3.988023e+000 -1.676632e+002 -4.761126e+001 3.255515e+001 -4.908585e+001 4.294957e+001 -2.018342e+001 -1.487502e+002
25557731250 -3.976331e+000 -1.682590e+002 -4.755879e+001 2.961798e+001 -4.926996e+001 4.024022e+001 -1.963500e+001 -1.456439e+002
25576475000 -3.968086e+000 -1.688311e+002 -4.746423e+001 2.744494e+001 -4.941366e+001 3.712364e+001 -1.906007e+001 -1.428547e+002
25595218750 -3.955029e+000 -1.694643e+002 -4.741133e+001 2.592228e+001 -4.943225e+001 3.628334e+001 -1.847392e+001 -1.405327e+002
25613962500 -3.943622e+000 -1.700626e+002 -4.750317e+001 2.595287e+001 -4.935163e+001 3.773458e+001 -1.793433e+001 -1.387396e+002
25632706250 -3.934504e+000 -1.706783e+002 -4.773830e+001 2.510024e+001 -4.915007e+001 3.681684e+001 -1.741999e+001 -1.374042e+002
25651450000 -3.916381e+000 -1.712821e+002 -4.776917e+001 2.542614e+001 -4.906419e+001 3.452921e+001 -1.691294e+001 -1.366439e+002
25670193750 -3.903578e+000 -1.718368e+002 -4.778185e+001 2.419891e+001 -4.884936e+001 3.114495e+001 -1.640223e+001 -1.360844e+002
25688937500 -3.902468e+000 -1.724053e+002 -4.784689e+001 2.310027e+001 -4.895998e+001 3.036047e+001 -1.589943e+001 -1.358923e+002
25707681250 -3.888630e+000 -1.730240e+002 -4.778893e+001 2.271359e+001 -4.917053e+001 2.808244e+001 -1.540700e+001 -1.354884e+002
25726425000 -3.881836e+000 -1.735885e+002 -4.769718e+001 2.016675e+001 -4.945330e+001 2.248149e+001 -1.494844e+001 -1.352768e+002
25745168750 -3.871367e+000 -1.741903e+002 -4.801765e+001 2.044087e+001 -4.939863e+001 2.054206e+001 -1.454148e+001 -1.352635e+002
25763912500 -3.854995e+000 -1.748162e+002 -4.795708e+001 1.754400e+001 -4.938318e+001 2.137730e+001 -1.416243e+001 -1.354085e+002
25782656250 -3.844454e+000 -1.753650e+002 -4.804619e+001 1.394693e+001 -4.925687e+001 2.127651e+001 -1.378951e+001 -1.356577e+002
25801400000 -3.837871e+000 -1.759466e+002 -4.810069e+001 1.443812e+001 -4.957883e+001 1.881166e+001 -1.343031e+001 -1.360287e+002
25820143750 -3.827787e+000 -1.765420e+002 -4.830549e+001 1.264987e+001 -4.972366e+001 1.505837e+001 -1.308479e+001 -1.363100e+002
25838887500 -3.817092e+000 -1.771201e+002 -4.827428e+001 1.057144e+001 -4.952159e+001 1.302678e+001 -1.275232e+001 -1.366560e+002
25857631250 -3.811013e+000 -1.777564e+002 -4.804601e+001 7.889695e+000 -4.978912e+001 1.171331e+001 -1.245597e+001 -1.371023e+002
25876375000 -3.802143e+000 -1.783468e+002 -4.768974e+001 5.600952e+000 -4.981427e+001 7.983912e+000 -1.216035e+001 -1.376177e+002
25895118750 -3.794029e+000 -1.788993e+002 -4.791094e+001 2.701732e+000 -4.976016e+001 2.935274e+000 -1.188503e+001 -1.381827e+002
25913862500 -3.791902e+000 -1.794497e+002 -4.822972e+001 1.727382e+000 -4.983083e+001 -1.456046e+000 -1.161099e+001 -1.387386e+002
25932606250 -3.785632e+000 1.799448e+002 -4.811110e+001 -1.771996e+000 -4.897435e+001 -6.949041e+000 -1.134549e+001 -1.392378e+002
25951350000 -3.777266e+000 1.793691e+002 -4.850214e+001 -2.529124e+000 -4.891352e+001 -9.444208e+000 -1.110479e+001 -1.397592e+002
25970093750 -3.769402e+000 1.787796e+002 -4.918270e+001 -6.651668e+000 -4.891923e+001 -1.131525e+001 -1.086738e+001 -1.403134e+002
25988837500 -3.754686e+000 1.781995e+002 -4.914621e+001 -8.792488e+000 -4.877718e+001 -9.472388e+000 -1.063814e+001 -1.409213e+002
26007581250 -3.744196e+000 1.776405e+002 -4.933300e+001 -1.038821e+001 -4.849541e+001 -1.201070e+001 -1.041405e+001 -1.415451e+002
26026325000 -3.740826e+000 1.770741e+002 -4.934784e+001 -1.170335e+001 -4.829138e+001 -1.445311e+001 -1.020633e+001 -1.421876e+002
26045068750 -3.732080e+000 1.764879e+002 -4.924397e+001 -1.314301e+001 -4.863914e+001 -1.592064e+001 -9.997706e+000 -1.427625e+002
26063812500 -3.728311e+000 1.759197e+002 -4.914858e+001 -1.293139e+001 -4.852230e+001 -1.807217e+001 -9.805481e+000 -1.434000e+002
26082556250 -3.722340e+000 1.752998e+002 -4.905372e+001 -1.585859e+001 -4.845411e+001 -2.014034e+001 -9.611890e+000 -1.440350e+002
26101300000 -3.711051e+000 1.747173e+002 -4.915165e+001 -1.526754e+001 -4.868672e+001 -2.251257e+001 -9.429179e+000 -1.446665e+002
26120043750 -3.700699e+000 1.741606e+002 -4.906594e+001 -1.903795e+001 -4.916977e+001 -2.291677e+001 -9.254923e+000 -1.453052e+002
26138787500 -3.696550e+000 1.736021e+002 -4.936057e+001 -2.029220e+001 -4.895749e+001 -2.345246e+001 -9.077051e+000 -1.459167e+002
26157531250 -3.683869e+000 1.730054e+002 -4.926631e+001 -2.132605e+001 -4.884756e+001 -2.324848e+001 -8.906947e+000 -1.465405e+002
26176275000 -3.676754e+000 1.724462e+002 -4.895464e+001 -2.576027e+001 -4.887406e+001 -2.528304e+001 -8.748664e+000 -1.471803e+002
26195018750 -3.671488e+000 1.718724e+002 -4.929327e+001 -2.647589e+001 -4.879604e+001 -2.739759e+001 -8.590927e+000 -1.477858e+002
26213762500 -3.659278e+000 1.713002e+002 -4.910282e+001 -2.608794e+001 -4.906551e+001 -2.900964e+001 -8.444970e+000 -1.484032e+002
26232506250 -3.653769e+000 1.707448e+002 -4.969185e+001 -3.286132e+001 -4.902302e+001 -2.988712e+001 -8.298941e+000 -1.490685e+002
26251250000 -3.644467e+000 1.701674e+002 -4.958785e+001 -3.507906e+001 -4.912382e+001 -3.170445e+001 -8.156896e+000 -1.497337e+002
26269993750 -3.639547e+000 1.696146e+002 -4.952611e+001 -3.429525e+001 -4.919234e+001 -3.454457e+001 -8.029373e+000 -1.503868e+002
26288737500 -3.628901e+000 1.690742e+002 -4.994040e+001 -3.675537e+001 -4.911102e+001 -3.642042e+001 -7.892495e+000 -1.510463e+002
26307481250 -3.617783e+000 1.684892e+002 -5.026501e+001 -3.790421e+001 -4.909521e+001 -3.693956e+001 -7.762373e+000 -1.516753e+002
26326225000 -3.607605e+000 1.679331e+002 -5.057304e+001 -3.923403e+001 -4.904365e+001 -3.609806e+001 -7.640117e+000 -1.523153e+002
26344968750 -3.597554e+000 1.673935e+002 -5.047938e+001 -4.022871e+001 -4.925002e+001 -3.653147e+001 -7.513843e+000 -1.529753e+002
26363712500 -3.590989e+000 1.668290e+002 -5.060971e+001 -3.938057e+001 -4.932038e+001 -3.900071e+001 -7.396635e+000 -1.535928e+002
26382456250 -3.581703e+000 1.662769e+002 -5.061279e+001 -4.213290e+001 -4.936727e+001 -3.961106e+001 -7.286026e+000 -1.542595e+002
26401200000 -3.577020e+000 1.657120e+002 -5.049470e+001 -4.135678e+001 -4.951495e+001 -3.890423e+001 -7.172462e+000 -1.549339e+002
26419943750 -3.566665e+000 1.651353e+002 -5.082999e+001 -4.071469e+001 -4.962035e+001 -4.276036e+001 -7.063105e+000 -1.555593e+002
26438687500 -3.559816e+000 1.646242e+002 -5.071370e+001 -4.063570e+001 -4.969828e+001 -4.047367e+001 -6.960482e+000 -1.561723e+002
26457431250 -3.557389e+000 1.640860e+002 -5.073535e+001 -4.181233e+001 -5.007076e+001 -3.970683e+001 -6.856443e+000 -1.567954e+002
26476175000 -3.550831e+000 1.635169e+002 -5.103234e+001 -4.150146e+001 -5.007617e+001 -4.355154e+001 -6.756857e+000 -1.574182e+002
26494918750 -3.544507e+000 1.629843e+002 -5.117006e+001 -4.385951e+001 -5.051139e+001 -4.440245e+001 -6.662492e+000 -1.580576e+002
26513662500 -3.540568e+000 1.624402e+002 -5.144941e+001 -4.439594e+001 -5.079253e+001 -4.126005e+001 -6.570971e+000 -1.587148e+002
26532406250 -3.534046e+000 1.618854e+002 -5.138822e+001 -4.651124e+001 -5.056504e+001 -3.898829e+001 -6.483627e+000 -1.593572e+002
26551150000 -3.530607e+000 1.613445e+002 -5.218430e+001 -4.756292e+001 -5.024481e+001 -4.066650e+001 -6.393661e+000 -1.600284e+002
26569893750 -3.526468e+000 1.607829e+002 -5.204630e+001 -4.860324e+001 -5.084935e+001 -3.629722e+001 -6.305781e+000 -1.606793e+002
26588637500 -3.519740e+000 1.602290e+002 -5.252394e+001 -4.845694e+001 -5.067448e+001 -3.898678e+001 -6.229421e+000 -1.613134e+002
26607381250 -3.513323e+000 1.596897e+002 -5.271479e+001 -4.838904e+001 -5.084253e+001 -3.844405e+001 -6.154803e+000 -1.619973e+002
26626125000 -3.506269e+000 1.591458e+002 -5.297750e+001 -5.237265e+001 -5.119392e+001 -3.950125e+001 -6.080431e+000 -1.626719e+002
26644868750 -3.497217e+000 1.585918e+002 -5.325548e+001 -5.325988e+001 -5.109824e+001 -4.124770e+001 -6.004972e+000 -1.633336e+002
26663612500 -3.488526e+000 1.580806e+002 -5.270642e+001 -5.081287e+001 -5.099681e+001 -4.141934e+001 -5.929792e+000 -1.640048e+002
26682356250 -3.489810e+000 1.575413e+002 -5.323072e+001 -4.727292e+001 -5.114581e+001 -4.185012e+001 -5.853921e+000 -1.646312e+002
26701100000 -3.476180e+000 1.570012e+002 -5.347670e+001 -4.644979e+001 -5.099534e+001 -4.195448e+001 -5.784346e+000 -1.652774e+002
26719843750 -3.469722e+000 1.564755e+002 -5.366883e+001 -4.605404e+001 -5.125788e+001 -3.391300e+001 -5.722046e+000 -1.659571e+002
26738587500 -3.465446e+000 1.559287e+002 -5.382742e+001 -4.808833e+001 -5.178836e+001 -2.334547e+001 -5.655352e+000 -1.666348e+002
26757331250 -3.455182e+000 1.553914e+002 -5.367190e+001 -4.737292e+001 -5.221951e+001 -9.053455e+000 -5.595491e+000 -1.673116e+002
26776075000 -3.451388e+000 1.548742e+002 -5.376661e+001 -4.407187e+001 -5.202898e+001 5.202934e+000 -5.532552e+000 -1.679830e+002
26794818750 -3.448042e+000 1.543266e+002 -5.375233e+001 -4.625720e+001 -5.217749e+001 2.107537e+001 -5.467401e+000 -1.686608e+002
26813562500 -3.438337e+000 1.537920e+002 -5.408315e+001 -4.657827e+001 -5.249607e+001 3.631955e+001 -5.407503e+000 -1.693169e+002
26832306250 -3.432892e+000 1.532947e+002 -5.398419e+001 -4.996326e+001 -5.253665e+001 4.808312e+001 -5.350148e+000 -1.699774e+002
26851050000 -3.429252e+000 1.527701e+002 -5.435803e+001 -5.055578e+001 -5.298092e+001 6.000388e+001 -5.292813e+000 -1.706439e+002
26869793750 -3.423368e+000 1.522354e+002 -5.456172e+001 -5.031954e+001 -5.345227e+001 7.483818e+001 -5.239255e+000 -1.713504e+002
26888537500 -3.421979e+000 1.517345e+002 -5.458406e+001 -5.215474e+001 -5.362840e+001 8.735922e+001 -5.181979e+000 -1.720583e+002
26907281250 -3.417855e+000 1.511894e+002 -5.465548e+001 -5.551529e+001 -5.395987e+001 1.078687e+002 -5.128647e+000 -1.727114e+002
26926025000 -3.407820e+000 1.506766e+002 -5.475530e+001 -5.586243e+001 -5.400824e+001 1.270536e+002 -5.078519e+000 -1.733828e+002
26944768750 -3.404062e+000 1.501922e+002 -5.489141e+001 -5.854902e+001 -5.495464e+001 1.476363e+002 -5.027225e+000 -1.740582e+002
26963512500 -3.395572e+000 1.496511e+002 -5.514849e+001 -5.768560e+001 -5.513441e+001 1.781823e+002 -4.976992e+000 -1.746891e+002
26982256250 -3.383661e+000 1.491711e+002 -5.470690e+001 -5.458235e+001 -5.521287e+001 -1.500462e+002 -4.933661e+000 -1.753790e+002
27001000000 -3.384594e+000 1.486848e+002 -5.498656e+001 -5.501836e+001 -5.533288e+001 -1.232151e+002 -4.883469e+000 -1.760631e+002
27019743750 -3.380452e+000 1.481393e+002 -5.513983e+001 -5.429656e+001 -5.553400e+001 -8.805219e+001 -4.836423e+000 -1.767353e+002
27038487500 -3.371039e+000 1.476382e+002 -5.495144e+001 -5.029295e+001 -5.535503e+001 -5.432430e+001 -4.787180e+000 -1.773883e+002
27057231250 -3.369545e+000 1.471499e+002 -5.464530e+001 -4.484802e+001 -5.516916e+001 -2.091819e+001 -4.741375e+000 -1.780923e+002
27075975000 -3.362922e+000 1.466613e+002 -5.471997e+001 -4.282651e+001 -5.551952e+001 1.580854e+001 -4.698498e+000 -1.787522e+002
27094718750 -3.357824e+000 1.461887e+002 -5.506431e+001 -4.503835e+001 -5.584613e+001 5.092264e+001 -4.659399e+000 -1.794651e+002
27113462500 -3.357451e+000 1.456924e+002 -5.464818e+001 -4.602587e+001 -5.563947e+001 8.648967e+001 -4.616756e+000 1.798125e+002
27132206250 -3.356510e+000 1.451427e+002 -5.446076e+001 -4.622245e+001 -5.609580e+001 1.165706e+002 -4.578956e+000 1.791496e+002
27150950000 -3.348987e+000 1.446543e+002 -5.419513e+001 -4.208057e+001 -5.590765e+001 1.427418e+002 -4.538274e+000 1.784575e+002
27169693750 -3.345306e+000 1.441673e+002 -5.378096e+001 -4.220811e+001 -5.562934e+001 1.692963e+002 -4.496016e+000 1.777912e+002
27188437500 -3.338848e+000 1.436583e+002 -5.344293e+001 -4.020783e+001 -5.572472e+001 -1.708223e+002 -4.457113e+000 1.771189e+002
27207181250 -3.330776e+000 1.431979e+002 -5.350916e+001 -4.501561e+001 -5.651280e+001 -1.554616e+002 -4.423243e+000 1.763803e+002
27225925000 -3.333137e+000 1.426712e+002 -5.359751e+001 -4.787423e+001 -5.642973e+001 -1.402071e+002 -4.383245e+000 1.756969e+002
27244668750 -3.329706e+000 1.421322e+002 -5.320109e+001 -4.639205e+001 -5.642371e+001 -1.266767e+002 -4.348679e+000 1.750112e+002
27263412500 -3.320656e+000 1.416311e+002 -5.309821e+001 -4.216947e+001 -5.612247e+001 -1.063455e+002 -4.314726e+000 1.742991e+002
27282156250 -3.318223e+000 1.411307e+002 -5.238415e+001 -4.341058e+001 -5.549032e+001 -8.405019e+001 -4.278330e+000 1.735942e+002
27300900000 -3.307137e+000 1.406116e+002 -5.236066e+001 -4.400747e+001 -5.499755e+001 -6.823915e+001 -4.247634e+000 1.728989e+002
27319643750 -3.301025e+000 1.401467e+002 -5.238385e+001 -4.271302e+001 -5.467029e+001 -5.157670e+001 -4.213761e+000 1.721844e+002
27338387500 -3.304393e+000 1.396331e+002 -5.247369e+001 -3.840142e+001 -5.427210e+001 -3.711177e+001 -4.173695e+000 1.714796e+002
27357131250 -3.299291e+000 1.390815e+002 -5.246572e+001 -3.642726e+001 -5.428387e+001 -2.071901e+001 -4.143054e+000 1.707873e+002
27375875000 -3.290700e+000 1.385820e+002 -5.254311e+001 -3.511197e+001 -5.356624e+001 -1.348797e+001 -4.108062e+000 1.700506e+002
27394618750 -3.292400e+000 1.380841e+002 -5.215088e+001 -3.607949e+001 -5.356058e+001 -1.524174e+001 -4.068518e+000 1.693373e+002
27413362500 -3.285510e+000 1.375664e+002 -5.194907e+001 -3.605832e+001 -5.358761e+001 -1.573810e+001 -4.040864e+000 1.686806e+002
27432106250 -3.284493e+000 1.371263e+002 -5.196959e+001 -3.414663e+001 -5.314229e+001 -2.024116e+001 -4.006766e+000 1.679647e+002
27450850000 -3.292405e+000 1.366225e+002 -5.141978e+001 -3.654552e+001 -5.301165e+001 -2.312764e+001 -3.977325e+000 1.672788e+002
27469593750 -3.287230e+000 1.360759e+002 -5.151172e+001 -4.222373e+001 -5.367070e+001 -2.533865e+001 -3.956952e+000 1.665832e+002
27488337500 -3.283391e+000 1.355642e+002 -5.175887e+001 -4.727424e+001 -5.386520e+001 -2.536614e+001 -3.924145e+000 1.658557e+002
27507081250 -3.281388e+000 1.350488e+002 -5.154090e+001 -4.857213e+001 -5.336285e+001 -3.080675e+001 -3.889351e+000 1.651643e+002
27525825000 -3.271131e+000 1.345577e+002 -5.126131e+001 -4.641756e+001 -5.290185e+001 -3.468633e+001 -3.866831e+000 1.644739e+002
27544568750 -3.271882e+000 1.341214e+002 -5.103493e+001 -4.877145e+001 -5.293982e+001 -4.232811e+001 -3.834098e+000 1.637546e+002
27563312500 -3.275482e+000 1.336064e+002 -5.093600e+001 -5.157897e+001 -5.316608e+001 -4.089745e+001 -3.796542e+000 1.630846e+002
27582056250 -3.268714e+000 1.330785e+002 -5.080782e+001 -5.351997e+001 -5.296458e+001 -4.261547e+001 -3.772492e+000 1.623884e+002
27600800000 -3.267778e+000 1.325869e+002 -5.092698e+001 -4.939622e+001 -5.313190e+001 -4.997717e+001 -3.742192e+000 1.616502e+002
27619543750 -3.261422e+000 1.320385e+002 -5.083800e+001 -5.225035e+001 -5.249486e+001 -5.440854e+001 -3.710855e+000 1.609928e+002
27638287500 -3.250402e+000 1.315777e+002 -5.072841e+001 -5.207259e+001 -5.167568e+001 -5.602626e+001 -3.689397e+000 1.603166e+002
27657031250 -3.254204e+000 1.311732e+002 -5.059829e+001 -4.759815e+001 -5.174506e+001 -5.735705e+001 -3.656131e+000 1.595878e+002
27675775000 -3.257316e+000 1.306473e+002 -5.062188e+001 -4.553773e+001 -5.143313e+001 -5.601991e+001 -3.626428e+000 1.589580e+002
27694518750 -3.251630e+000 1.301562e+002 -5.036102e+001 -4.938441e+001 -5.173251e+001 -5.890966e+001 -3.608047e+000 1.582559e+002
27713262500 -3.251441e+000 1.296809e+002 -5.033601e+001 -5.035773e+001 -5.189873e+001 -6.255608e+001 -3.579531e+000 1.575519e+002
27732006250 -3.247809e+000 1.291743e+002 -5.042935e+001 -5.064442e+001 -5.179402e+001 -6.358085e+001 -3.545938e+000 1.569425e+002
27750750000 -3.236111e+000 1.287155e+002 -5.028720e+001 -4.934544e+001 -5.160445e+001 -6.209658e+001 -3.529023e+000 1.562464e+002
27769493750 -3.243476e+000 1.282796e+002 -4.995821e+001 -5.439345e+001 -5.131405e+001 -6.346850e+001 -3.501048e+000 1.555523e+002
27788237500 -3.241499e+000 1.277675e+002 -4.986596e+001 -5.673463e+001 -5.080455e+001 -6.847527e+001 -3.475530e+000 1.549203e+002
27806981250 -3.237070e+000 1.272811e+002 -4.955201e+001 -5.485891e+001 -5.036984e+001 -7.009054e+001 -3.460491e+000 1.542290e+002
27825725000 -3.236733e+000 1.268007e+002 -4.987158e+001 -5.234154e+001 -5.016866e+001 -7.004856e+001 -3.431647e+000 1.535369e+002
27844468750 -3.227496e+000 1.262906e+002 -4.983738e+001 -5.486782e+001 -5.020913e+001 -7.091175e+001 -3.410042e+000 1.528885e+002
27863212500 -3.217441e+000 1.258559e+002 -4.960909e+001 -5.690208e+001 -4.987519e+001 -6.818700e+001 -3.392268e+000 1.521890e+002
27881956250 -3.221381e+000 1.254251e+002 -4.943333e+001 -5.831680e+001 -4.988135e+001 -6.794709e+001 -3.357821e+000 1.515082e+002
27900700000 -3.218934e+000 1.248844e+002 -4.940881e+001 -5.681468e+001 -4.948808e+001 -7.386207e+001 -3.329205e+000 1.509079e+002
27919443750 -3.215810e+000 1.244180e+002 -4.909377e+001 -5.394564e+001 -4.908070e+001 -7.589698e+001 -3.311945e+000 1.502769e+002
27938187500 -3.217311e+000 1.239152e+002 -4.931135e+001 -5.561715e+001 -4.937385e+001 -7.751481e+001 -3.285438e+000 1.496251e+002
27956931250 -3.209718e+000 1.234105e+002 -4.910740e+001 -5.504488e+001 -4.945275e+001 -7.859090e+001 -3.261815e+000 1.490454e+002
27975675000 -3.200642e+000 1.229860e+002 -4.917234e+001 -5.600346e+001 -4.911333e+001 -7.451171e+001 -3.246997e+000 1.483886e+002
27994418750 -3.210167e+000 1.225243e+002 -4.945411e+001 -5.718038e+001 -4.853734e+001 -7.415305e+001 -3.218935e+000 1.477431e+002
28013162500 -3.210484e+000 1.220093e+002 -4.931275e+001 -5.908987e+001 -4.840745e+001 -7.571764e+001 -3.196445e+000 1.471637e+002
28031906250 -3.207096e+000 1.215385e+002 -4.931399e+001 -6.427575e+001 -4.802573e+001 -7.567323e+001 -3.173219e+000 1.465215e+002
28050650000 -3.209876e+000 1.210518e+002 -4.952643e+001 -6.569276e+001 -4.806876e+001 -7.559830e+001 -3.144950e+000 1.459279e+002
28069393750 -3.204684e+000 1.205163e+002 -4.944120e+001 -6.670210e+001 -4.808831e+001 -7.423663e+001 -3.124786e+000 1.453774e+002
28088137500 -3.196141e+000 1.201111e+002 -4.930180e+001 -6.844869e+001 -4.793391e+001 -7.430685e+001 -3.110393e+000 1.447563e+002
28106881250 -3.203041e+000 1.196539e+002 -4.897941e+001 -7.001266e+001 -4.799146e+001 -7.612124e+001 -3.084830e+000 1.441503e+002
28125625000 -3.201770e+000 1.191261e+002 -4.939137e+001 -7.067524e+001 -4.775480e+001 -7.536221e+001 -3.064803e+000 1.435958e+002
28144368750 -3.200801e+000 1.186425e+002 -4.965899e+001 -6.926445e+001 -4.761920e+001 -7.553825e+001 -3.041624e+000 1.429531e+002
28163112500 -3.202721e+000 1.181507e+002 -4.937031e+001 -7.213098e+001 -4.763563e+001 -7.584007e+001 -3.018549e+000 1.423840e+002
28181856250 -3.191983e+000 1.176740e+002 -4.951720e+001 -7.381856e+001 -4.774953e+001 -7.952330e+001 -3.004802e+000 1.418648e+002
28200600000 -3.185792e+000 1.173168e+002 -4.944654e+001 -7.361476e+001 -4.768867e+001 -8.147104e+001 -2.987180e+000 1.412586e+002
28219343750 -3.195421e+000 1.168438e+002 -4.919062e+001 -7.436317e+001 -4.799012e+001 -8.288253e+001 -2.963256e+000 1.407224e+002
28238087500 -3.193671e+000 1.163514e+002 -4.913623e+001 -7.418255e+001 -4.817543e+001 -8.267978e+001 -2.945883e+000 1.401813e+002
28256831250 -3.190063e+000 1.158822e+002 -4.915673e+001 -7.753580e+001 -4.823411e+001 -8.280556e+001 -2.927791e+000 1.396388e+002
28275575000 -3.192662e+000 1.153798e+002 -4.909509e+001 -7.730686e+001 -4.799072e+001 -8.524276e+001 -2.903626e+000 1.391402e+002
28294318750 -3.178020e+000 1.149196e+002 -4.945021e+001 -7.346014e+001 -4.835720e+001 -8.690699e+001 -2.894953e+000 1.386280e+002
28313062500 -3.176132e+000 1.145227e+002 -4.948986e+001 -7.420544e+001 -4.866645e+001 -8.848461e+001 -2.879338e+000 1.380686e+002
28331806250 -3.187383e+000 1.140863e+002 -4.953813e+001 -7.619131e+001 -4.821178e+001 -8.649210e+001 -2.861100e+000 1.375127e+002
28350550000 -3.182595e+000 1.136189e+002 -4.956746e+001 -7.660615e+001 -4.825477e+001 -8.792496e+001 -2.848299e+000 1.369696e+002
28369293750 -3.188460e+000 1.131544e+002 -4.948405e+001 -7.788348e+001 -4.817315e+001 -8.516559e+001 -2.827590e+000 1.364331e+002
28388037500 -3.184302e+000 1.126300e+002 -4.955857e+001 -7.789157e+001 -4.835175e+001 -8.583714e+001 -2.813335e+000 1.359575e+002
28406781250 -3.173250e+000 1.121741e+002 -4.951962e+001 -7.913413e+001 -4.851937e+001 -8.778967e+001 -2.805259e+000 1.354545e+002
28425525000 -3.167890e+000 1.118118e+002 -4.943638e+001 -7.969449e+001 -4.858371e+001 -9.071391e+001 -2.790746e+000 1.349086e+002
28444268750 -3.172545e+000 1.113797e+002 -4.935632e+001 -7.952617e+001 -4.879160e+001 -9.121677e+001 -2.779459e+000 1.344121e+002
28463012500 -3.172357e+000 1.109478e+002 -4.914471e+001 -7.853495e+001 -4.860122e+001 -9.135356e+001 -2.771399e+000 1.338940e+002
28481756250 -3.177396e+000 1.105036e+002 -4.902765e+001 -7.634924e+001 -4.883956e+001 -9.123274e+001 -2.754173e+000 1.333516e+002
28500500000 -3.172921e+000 1.100426e+002 -4.921478e+001 -7.637558e+001 -4.883060e+001 -9.138017e+001 -2.738857e+000 1.329033e+002
28519243750 -3.163438e+000 1.096491e+002 -4.932533e+001 -7.684316e+001 -4.915489e+001 -9.057757e+001 -2.730623e+000 1.324138e+002
28537987500 -3.164591e+000 1.092919e+002 -4.973370e+001 -7.822698e+001 -4.913860e+001 -9.081493e+001 -2.718657e+000 1.319058e+002
28556731250 -3.171204e+000 1.088643e+002 -4.957431e+001 -7.761256e+001 -4.919222e+001 -9.223421e+001 -2.706606e+000 1.314245e+002
28575475000 -3.167823e+000 1.084337e+002 -4.951607e+001 -7.852679e+001 -4.927605e+001 -9.175843e+001 -2.701458e+000 1.309185e+002
28594218750 -3.169205e+000 1.079800e+002 -4.956804e+001 -7.770660e+001 -4.956173e+001 -9.228973e+001 -2.685202e+000 1.304105e+002
28612962500 -3.168064e+000 1.074863e+002 -4.957616e+001 -7.808652e+001 -4.946386e+001 -9.161608e+001 -2.672274e+000 1.299372e+002
28631706250 -3.158537e+000 1.070720e+002 -4.959886e+001 -7.835823e+001 -4.961457e+001 -9.195889e+001 -2.664657e+000 1.294309e+002
28650450000 -3.162364e+000 1.066932e+002 -4.965727e+001 -7.834290e+001 -4.924553e+001 -9.107445e+001 -2.654420e+000 1.289348e+002
28669193750 -3.162064e+000 1.062563e+002 -4.955980e+001 -8.047218e+001 -4.930529e+001 -9.240212e+001 -2.646846e+000 1.284719e+002
28687937500 -3.159814e+000 1.058586e+002 -4.921883e+001 -8.092451e+001 -4.976057e+001 -9.284770e+001 -2.640758e+000 1.279189e+002
28706681250 -3.167882e+000 1.054068e+002 -4.924371e+001 -8.091254e+001 -4.979697e+001 -9.195251e+001 -2.626225e+000 1.274290e+002
28725425000 -3.166181e+000 1.049426e+002 -4.873285e+001 -8.648421e+001 -4.961814e+001 -9.170951e+001 -2.617749e+000 1.269801e+002
28744168750 -3.157187e+000 1.045583e+002 -4.872334e+001 -8.636437e+001 -4.936085e+001 -9.163210e+001 -2.614560e+000 1.264773e+002
28762912500 -3.161271e+000 1.041875e+002 -4.857389e+001 -8.530204e+001 -4.943332e+001 -9.177240e+001 -2.605128e+000 1.259961e+002
28781656250 -3.162960e+000 1.037673e+002 -4.840204e+001 -8.594917e+001 -4.946200e+001 -9.254546e+001 -2.598949e+000 1.255069e+002
28800400000 -3.163916e+000 1.033578e+002 -4.817874e+001 -8.565630e+001 -4.947534e+001 -9.393739e+001 -2.593691e+000 1.250040e+002
28819143750 -3.171263e+000 1.029119e+002 -4.830598e+001 -8.786103e+001 -4.919128e+001 -9.254277e+001 -2.577858e+000 1.245242e+002
28837887500 -3.165347e+000 1.024491e+002 -4.836779e+001 -8.732998e+001 -4.902554e+001 -9.367036e+001 -2.571224e+000 1.240738e+002
28856631250 -3.162370e+000 1.020547e+002 -4.809069e+001 -8.816205e+001 -4.920459e+001 -9.204359e+001 -2.572870e+000 1.235811e+002
28875375000 -3.166066e+000 1.016477e+002 -4.822058e+001 -8.978293e+001 -4.906981e+001 -9.120139e+001 -2.569148e+000 1.231041e+002
28894118750 -3.167421e+000 1.012207e+002 -4.856525e+001 -8.959685e+001 -4.935587e+001 -9.328225e+001 -2.571994e+000 1.226023e+002
28912862500 -3.169236e+000 1.007851e+002 -4.860868e+001 -9.222660e+001 -4.937541e+001 -9.517199e+001 -2.567403e+000 1.220934e+002
28931606250 -3.173438e+000 1.003003e+002 -4.837378e+001 -9.541924e+001 -4.933848e+001 -9.670922e+001 -2.560028e+000 1.215892e+002
28950350000 -3.166122e+000 9.982628e+001 -4.833071e+001 -9.575102e+001 -4.900200e+001 -9.761843e+001 -2.562296e+000 1.211240e+002
28969093750 -3.160526e+000 9.943457e+001 -4.796680e+001 -9.598463e+001 -4.887290e+001 -9.832381e+001 -2.559938e+000 1.206320e+002
28987837500 -3.158324e+000 9.903828e+001 -4.771944e+001 -9.330777e+001 -4.871657e+001 -9.887342e+001 -2.559582e+000 1.201677e+002
29006581250 -3.160076e+000 9.863036e+001 -4.790289e+001 -9.500613e+001 -4.865987e+001 -9.983213e+001 -2.564023e+000 1.197063e+002
29025325000 -3.167524e+000 9.819907e+001 -4.782225e+001 -9.570927e+001 -4.830789e+001 -1.002194e+002 -2.566265e+000 1.191729e+002
29044068750 -3.169332e+000 9.773480e+001 -4.770653e+001 -9.737302e+001 -4.838922e+001 -9.955759e+001 -2.561530e+000 1.187047e+002
29062812500 -3.160572e+000 9.725608e+001 -4.771755e+001 -9.706892e+001 -4.836071e+001 -1.005845e+002 -2.567569e+000 1.182640e+002
29081556250 -3.157676e+000 9.685971e+001 -4.772715e+001 -9.912241e+001 -4.842128e+001 -1.015391e+002 -2.570466e+000 1.177448e+002
29100300000 -3.162085e+000 9.645153e+001 -4.767117e+001 -9.934867e+001 -4.826035e+001 -1.000065e+002 -2.571603e+000 1.172674e+002
29119043750 -3.172440e+000 9.603024e+001 -4.771161e+001 -1.008522e+002 -4.783993e+001 -9.997735e+001 -2.578662e+000 1.167617e+002
29137787500 -3.178852e+000 9.557616e+001 -4.746402e+001 -1.022475e+002 -4.762870e+001 -1.007915e+002 -2.576528e+000 1.162248e+002
29156531250 -3.183006e+000 9.506440e+001 -4.745130e+001 -1.027195e+002 -4.768624e+001 -1.016283e+002 -2.574748e+000 1.157656e+002
29175275000 -3.176459e+000 9.458515e+001 -4.738653e+001 -1.035544e+002 -4.771762e+001 -1.029362e+002 -2.582100e+000 1.153048e+002
29194018750 -3.172468e+000 9.415849e+001 -4.747115e+001 -1.042577e+002 -4.763561e+001 -1.030598e+002 -2.589301e+000 1.148006e+002
29212762500 -3.176206e+000 9.373307e+001 -4.739987e+001 -1.062534e+002 -4.775900e+001 -1.038531e+002 -2.596455e+000 1.143226e+002
29231506250 -3.176897e+000 9.329887e+001 -4.738117e+001 -1.066328e+002 -4.766685e+001 -1.048134e+002 -2.608883e+000 1.137869e+002
29250250000 -3.189055e+000 9.284303e+001 -4.714563e+001 -1.076781e+002 -4.770412e+001 -1.067057e+002 -2.612684e+000 1.132099e+002
29268993750 -3.193309e+000 9.231992e+001 -4.704490e+001 -1.090476e+002 -4.749328e+001 -1.060242e+002 -2.613801e+000 1.127394e+002
29287737500 -3.189924e+000 9.184257e+001 -4.705674e+001 -1.100174e+002 -4.717253e+001 -1.072392e+002 -2.622692e+000 1.122561e+002
29306481250 -3.194878e+000 9.143542e+001 -4.700836e+001 -1.096961e+002 -4.696074e+001 -1.091656e+002 -2.623872e+000 1.117536e+002
29325225000 -3.197380e+000 9.100128e+001 -4.666287e+001 -1.123755e+002 -4.680352e+001 -1.096325e+002 -2.631813e+000 1.112818e+002
29343968750 -3.211613e+000 9.059277e+001 -4.648274e+001 -1.124934e+002 -4.647375e+001 -1.104270e+002 -2.643561e+000 1.107348e+002
29362712500 -3.226383e+000 9.014058e+001 -4.628943e+001 -1.117655e+002 -4.637463e+001 -1.106401e+002 -2.645764e+000 1.101881e+002
29381456250 -3.229483e+000 8.958833e+001 -4.627861e+001 -1.126061e+002 -4.621439e+001 -1.126219e+002 -2.651643e+000 1.096924e+002
29400200000 -3.231758e+000 8.912744e+001 -4.620697e+001 -1.138169e+002 -4.619931e+001 -1.129216e+002 -2.665178e+000 1.091534e+002
29418943750 -3.243997e+000 8.867502e+001 -4.613534e+001 -1.173082e+002 -4.616401e+001 -1.134325e+002 -2.667312e+000 1.086266e+002
29437687500 -3.254956e+000 8.824345e+001 -4.547137e+001 -1.184634e+002 -4.594933e+001 -1.156815e+002 -2.675025e+000 1.081103e+002
29456431250 -3.268250e+000 8.784029e+001 -4.534146e+001 -1.193807e+002 -4.585475e+001 -1.178611e+002 -2.687207e+000 1.075553e+002
29475175000 -3.288914e+000 8.735172e+001 -4.516473e+001 -1.206685e+002 -4.560476e+001 -1.195877e+002 -2.690277e+000 1.070238e+002
29493918750 -3.300736e+000 8.685189e+001 -4.493182e+001 -1.225869e+002 -4.545402e+001 -1.204338e+002 -2.699675e+000 1.065023e+002
29512662500 -3.309822e+000 8.643530e+001 -4.470778e+001 -1.227951e+002 -4.529540e+001 -1.221902e+002 -2.712115e+000 1.059590e+002
29531406250 -3.325613e+000 8.601730e+001 -4.459871e+001 -1.256716e+002 -4.507749e+001 -1.251010e+002 -2.716238e+000 1.054270e+002
29550150000 -3.336519e+000 8.562398e+001 -4.446664e+001 -1.274889e+002 -4.481018e+001 -1.278998e+002 -2.731790e+000 1.049162e+002
29568893750 -3.359721e+000 8.525175e+001 -4.438526e+001 -1.300385e+002 -4.482635e+001 -1.301806e+002 -2.747504e+000 1.043375e+002
29587637500 -3.382192e+000 8.478602e+001 -4.433951e+001 -1.311107e+002 -4.450664e+001 -1.321593e+002 -2.753415e+000 1.037641e+002
29606381250 -3.393224e+000 8.434627e+001 -4.432197e+001 -1.339673e+002 -4.427785e+001 -1.326874e+002 -2.764331e+000 1.032344e+002
29625125000 -3.410172e+000 8.397718e+001 -4.400516e+001 -1.365663e+002 -4.429674e+001 -1.349606e+002 -2.775875e+000 1.026897e+002
29643868750 -3.425071e+000 8.359855e+001 -4.377869e+001 -1.392952e+002 -4.403716e+001 -1.375333e+002 -2.786208e+000 1.021520e+002
29662612500 -3.443745e+000 8.326855e+001 -4.360307e+001 -1.416541e+002 -4.373672e+001 -1.400215e+002 -2.802195e+000 1.016162e+002
29681356250 -3.472857e+000 8.292103e+001 -4.358456e+001 -1.444306e+002 -4.348744e+001 -1.430894e+002 -2.816642e+000 1.010634e+002
29700100000 -3.498990e+000 8.250938e+001 -4.339277e+001 -1.467635e+002 -4.353828e+001 -1.465814e+002 -2.826701e+000 1.004895e+002
29718843750 -3.515949e+000 8.215755e+001 -4.358937e+001 -1.506077e+002 -4.333988e+001 -1.501330e+002 -2.838915e+000 9.995730e+001
29737587500 -3.534656e+000 8.185145e+001 -4.342709e+001 -1.537083e+002 -4.353596e+001 -1.526836e+002 -2.852182e+000 9.936749e+001
29756331250 -3.558377e+000 8.153222e+001 -4.336566e+001 -1.560673e+002 -4.350451e+001 -1.550202e+002 -2.864065e+000 9.884831e+001
29775075000 -3.576478e+000 8.130698e+001 -4.341265e+001 -1.588395e+002 -4.359316e+001 -1.589593e+002 -2.887564e+000 9.833501e+001
29793818750 -3.606068e+000 8.104642e+001 -4.352351e+001 -1.627226e+002 -4.340337e+001 -1.622302e+002 -2.908111e+000 9.779814e+001
29812562500 -3.649299e+000 8.077842e+001 -4.351143e+001 -1.674187e+002 -4.332209e+001 -1.653085e+002 -2.917602e+000 9.729193e+001
29831306250 -3.680368e+000 8.043954e+001 -4.358453e+001 -1.719249e+002 -4.318524e+001 -1.687374e+002 -2.929890e+000 9.684550e+001
29850050000 -3.706488e+000 8.017750e+001 -4.374613e+001 -1.755150e+002 -4.305331e+001 -1.723664e+002 -2.947813e+000 9.639324e+001
29868793750 -3.733068e+000 7.989301e+001 -4.398764e+001 -1.790816e+002 -4.298521e+001 -1.744761e+002 -2.960813e+000 9.599914e+001
29887537500 -3.749775e+000 7.966588e+001 -4.404192e+001 1.769453e+002 -4.295804e+001 -1.769297e+002 -2.977287e+000 9.562115e+001
29906281250 -3.775424e+000 7.954432e+001 -4.426369e+001 1.737948e+002 -4.290084e+001 -1.799202e+002 -2.994148e+000 9.519854e+001
29925025000 -3.809496e+000 7.935529e+001 -4.441810e+001 1.705817e+002 -4.284033e+001 1.774935e+002 -3.002120e+000 9.483707e+001
29943768750 -3.831618e+000 7.912815e+001 -4.462691e+001 1.667319e+002 -4.279259e+001 1.747957e+002 -3.010764e+000 9.453391e+001
29962512500 -3.852976e+000 7.895031e+001 -4.481032e+001 1.641831e+002 -4.273174e+001 1.724326e+002 -3.024629e+000 9.423508e+001
29981256250 -3.870051e+000 7.873584e+001 -4.500726e+001 1.612669e+002 -4.274759e+001 1.704360e+002 -3.033581e+000 9.398080e+001
30000000000 -3.875991e+000 7.862481e+001 -4.528899e+001 1.589206e+002 -4.259546e+001 1.681644e+002 -3.047479e+000 9.374488e+001
