!Agilent Technologies,E8364B,MY43040894,A.07.50.67
!Agilent E8364B: A.07.50.67
!Date: Tuesday, May 12, 2020 09:49:45
!Correction: S11(Full 2 Port(1,2)) 
!S21(Full 2 Port(1,2)) 
!S12(Full 2 Port(1,2)) 
!S22(Full 2 Port(1,2)) 
!S2P File: Measurements: S11, S21, S12, S22:
# Hz S  dB   R 50
10000000 -2.705106e-001 -7.120718e+000 -4.969262e+001 -1.531292e+001 -5.583831e+001 1.508260e+002 -2.865806e-002 -2.075423e+000
28743750 -2.851098e-001 -8.091289e+000 -5.060088e+001 -3.947211e+000 -5.629649e+001 1.509970e+002 -2.910968e-002 -2.360126e+000
47487500 -3.008317e-001 -9.160173e+000 -5.112303e+001 3.389370e+000 -5.641182e+001 1.475186e+002 -3.050221e-002 -2.680106e+000
66231250 -3.163986e-001 -1.031205e+001 -5.233770e+001 1.125489e+001 -5.643682e+001 1.421479e+002 -3.255360e-002 -3.007729e+000
84975000 -3.345448e-001 -1.153265e+001 -5.293324e+001 1.416078e+001 -5.687620e+001 1.348850e+002 -3.407597e-002 -3.378107e+000
103718750 -3.556916e-001 -1.283442e+001 -5.350800e+001 1.460100e+001 -5.709698e+001 1.332593e+002 -3.308468e-002 -3.755818e+000
122462500 -3.775619e-001 -1.420960e+001 -5.393389e+001 1.793328e+001 -5.738488e+001 1.297370e+002 -3.199032e-002 -4.150445e+000
141206250 -3.993122e-001 -1.566432e+001 -5.515934e+001 1.760361e+001 -5.821096e+001 1.231473e+002 -3.278131e-002 -4.573546e+000
159950000 -4.243352e-001 -1.719650e+001 -5.595501e+001 2.055896e+001 -5.857305e+001 1.192417e+002 -3.118509e-002 -5.021495e+000
178693750 -4.484855e-001 -1.880527e+001 -5.668508e+001 2.180698e+001 -5.889581e+001 1.164059e+002 -3.080767e-002 -5.498075e+000
197437500 -4.733636e-001 -2.049282e+001 -5.789615e+001 2.318802e+001 -5.912223e+001 1.111568e+002 -2.834603e-002 -6.004104e+000
216181250 -5.029169e-001 -2.224398e+001 -5.861930e+001 2.876356e+001 -5.944646e+001 1.077465e+002 -2.596197e-002 -6.522363e+000
234925000 -5.315048e-001 -2.407845e+001 -5.921163e+001 2.801131e+001 -5.984233e+001 1.065850e+002 -2.409819e-002 -7.073773e+000
253668750 -5.588573e-001 -2.590226e+001 -6.005737e+001 3.064905e+001 -6.011753e+001 9.967879e+001 -2.078980e-002 -7.621184e+000
272412500 -5.837687e-001 -2.770696e+001 -6.045308e+001 4.147610e+001 -6.116778e+001 9.348173e+001 -1.617086e-002 -8.183321e+000
291156250 -6.078302e-001 -2.951830e+001 -6.048096e+001 6.266818e+001 -6.165077e+001 8.223167e+001 -1.089607e-002 -8.724911e+000
309900000 -6.346391e-001 -3.132235e+001 -6.072767e+001 8.193857e+001 -6.186118e+001 7.087584e+001 -5.699915e-003 -9.273410e+000
328643750 -6.613579e-001 -3.309121e+001 -6.141420e+001 1.060723e+002 -6.181533e+001 5.664725e+001 6.499737e-004 -9.808095e+000
347387500 -6.888055e-001 -3.486822e+001 -6.156872e+001 1.206023e+002 -6.163708e+001 3.624943e+001 7.135099e-003 -1.036229e+001
366131250 -7.163725e-001 -3.663176e+001 -6.250456e+001 1.291208e+002 -6.211505e+001 2.013733e+001 1.106107e-002 -1.090478e+001
384875000 -7.484009e-001 -3.836187e+001 -6.239954e+001 1.424432e+002 -6.299372e+001 4.061924e+000 1.378514e-002 -1.144794e+001
403618750 -7.800497e-001 -4.010688e+001 -6.293043e+001 1.551829e+002 -6.257447e+001 -3.621812e+000 1.820300e-002 -1.199324e+001
422362500 -8.070234e-001 -4.182823e+001 -6.339418e+001 1.587141e+002 -6.223317e+001 -2.541347e+001 2.427533e-002 -1.254339e+001
441106250 -8.357473e-001 -4.353470e+001 -6.338174e+001 1.643879e+002 -6.221122e+001 -3.439825e+001 2.920224e-002 -1.308818e+001
459850000 -8.664710e-001 -4.525450e+001 -6.317394e+001 1.645442e+002 -6.219140e+001 -3.541971e+001 3.349253e-002 -1.363996e+001
478593750 -8.959601e-001 -4.693917e+001 -6.340786e+001 1.724938e+002 -6.332349e+001 -3.943322e+001 3.921515e-002 -1.417306e+001
497337500 -9.268718e-001 -4.861444e+001 -6.306094e+001 -1.782504e+002 -6.390781e+001 -3.971211e+001 4.564633e-002 -1.472674e+001
516081250 -9.566609e-001 -5.027430e+001 -6.423765e+001 -1.688397e+002 -6.376488e+001 -3.913616e+001 4.994430e-002 -1.526628e+001
534825000 -9.850065e-001 -5.193543e+001 -6.453179e+001 -1.544039e+002 -6.390924e+001 -4.203794e+001 5.184809e-002 -1.582124e+001
553568750 -1.013145e+000 -5.358199e+001 -6.493863e+001 -1.395209e+002 -6.426360e+001 -4.432069e+001 5.331983e-002 -1.639185e+001
572312500 -1.043027e+000 -5.521598e+001 -6.473009e+001 -1.233910e+002 -6.410009e+001 -4.659012e+001 5.572014e-002 -1.694826e+001
591056250 -1.071568e+000 -5.684794e+001 -6.475965e+001 -1.111837e+002 -6.434289e+001 -5.743981e+001 5.646338e-002 -1.750253e+001
609800000 -1.100887e+000 -5.846395e+001 -6.502638e+001 -9.512994e+001 -6.494297e+001 -7.626785e+001 5.885583e-002 -1.805783e+001
628543750 -1.129925e+000 -6.007228e+001 -6.466713e+001 -8.124449e+001 -6.527451e+001 -8.907333e+001 6.012952e-002 -1.861234e+001
647287500 -1.155527e+000 -6.168094e+001 -6.491621e+001 -7.063412e+001 -6.528202e+001 -1.076033e+002 5.990776e-002 -1.917199e+001
666031250 -1.181324e+000 -6.327571e+001 -6.498483e+001 -5.577632e+001 -6.535151e+001 -1.263913e+002 5.985499e-002 -1.974153e+001
684775000 -1.210156e+000 -6.483955e+001 -6.447910e+001 -4.314836e+001 -6.558430e+001 -1.472812e+002 5.827272e-002 -2.030935e+001
703518750 -1.237095e+000 -6.643644e+001 -6.429842e+001 -3.831105e+001 -6.527174e+001 -1.613997e+002 5.701338e-002 -2.086988e+001
722262500 -1.264862e+000 -6.798940e+001 -6.477071e+001 -3.883008e+001 -6.540784e+001 -1.727294e+002 5.382344e-002 -2.143266e+001
741006250 -1.293682e+000 -6.954767e+001 -6.473622e+001 -4.092762e+001 -6.531306e+001 1.781662e+002 5.129675e-002 -2.199270e+001
759750000 -1.322037e+000 -7.110070e+001 -6.475483e+001 -4.686892e+001 -6.529619e+001 1.667534e+002 4.794892e-002 -2.255792e+001
778493750 -1.346655e+000 -7.263229e+001 -6.525855e+001 -4.758038e+001 -6.542855e+001 1.537511e+002 4.239028e-002 -2.312017e+001
797237500 -1.372856e+000 -7.416426e+001 -6.582753e+001 -4.705825e+001 -6.548885e+001 1.363560e+002 3.811389e-002 -2.368330e+001
815981250 -1.398195e+000 -7.569554e+001 -6.595204e+001 -4.666668e+001 -6.514153e+001 1.185739e+002 3.509276e-002 -2.425998e+001
834725000 -1.420087e+000 -7.721012e+001 -6.557591e+001 -5.256913e+001 -6.512823e+001 9.859116e+001 3.320941e-002 -2.482530e+001
853468750 -1.445264e+000 -7.871452e+001 -6.583456e+001 -5.194324e+001 -6.533144e+001 9.098779e+001 2.900811e-002 -2.539222e+001
872212500 -1.471365e+000 -8.022360e+001 -6.636703e+001 -4.374131e+001 -6.547417e+001 7.378337e+001 2.352513e-002 -2.597169e+001
890956250 -1.496087e+000 -8.170912e+001 -6.682796e+001 -3.686372e+001 -6.566661e+001 5.495761e+001 1.836645e-002 -2.655457e+001
909700000 -1.518627e+000 -8.319555e+001 -6.698235e+001 -3.599715e+001 -6.517445e+001 3.524582e+001 1.134512e-002 -2.713798e+001
928443750 -1.542977e+000 -8.467464e+001 -6.681309e+001 -3.848558e+001 -6.491987e+001 8.679694e+000 3.838299e-003 -2.770870e+001
947187500 -1.566117e+000 -8.615260e+001 -6.590837e+001 -3.647070e+001 -6.506707e+001 -1.920292e+001 -1.794316e-003 -2.827702e+001
965931250 -1.587328e+000 -8.762292e+001 -6.580399e+001 -3.357496e+001 -6.534463e+001 -5.302682e+001 -6.823475e-003 -2.885029e+001
984675000 -1.610605e+000 -8.907880e+001 -6.598557e+001 -3.700614e+001 -6.553240e+001 -8.258448e+001 -1.293149e-002 -2.942057e+001
1003418750 -1.632306e+000 -9.052506e+001 -6.582560e+001 -3.885342e+001 -6.566302e+001 -1.161215e+002 -1.731236e-002 -3.000348e+001
1022162500 -1.652487e+000 -9.196063e+001 -6.634776e+001 -3.959565e+001 -6.585251e+001 -1.401214e+002 -2.434103e-002 -3.058991e+001
1040906250 -1.673622e+000 -9.339467e+001 -6.625287e+001 -4.075634e+001 -6.575305e+001 -1.647924e+002 -3.132203e-002 -3.117572e+001
1059650000 -1.696992e+000 -9.481890e+001 -6.720787e+001 -4.602140e+001 -6.594467e+001 1.663971e+002 -3.916291e-002 -3.173716e+001
1078393750 -1.719969e+000 -9.623457e+001 -6.741240e+001 -5.800579e+001 -6.591953e+001 1.364535e+002 -4.713644e-002 -3.231461e+001
1097137500 -1.746527e+000 -9.763948e+001 -6.762031e+001 -7.398878e+001 -6.614969e+001 9.764332e+001 -5.363736e-002 -3.286962e+001
1115881250 -1.768437e+000 -9.904646e+001 -6.744347e+001 -9.270908e+001 -6.574905e+001 6.253456e+001 -5.973940e-002 -3.343433e+001
1134625000 -1.788814e+000 -1.004416e+002 -6.756829e+001 -1.067346e+002 -6.573465e+001 2.821040e+001 -6.501355e-002 -3.401832e+001
1153368750 -1.808646e+000 -1.018399e+002 -6.781753e+001 -1.252652e+002 -6.536083e+001 -8.278386e+000 -7.127291e-002 -3.459458e+001
1172112500 -1.830309e+000 -1.032070e+002 -6.787542e+001 -1.383158e+002 -6.528349e+001 -4.458815e+001 -7.809970e-002 -3.517510e+001
1190856250 -1.850845e+000 -1.045818e+002 -6.758040e+001 -1.551468e+002 -6.513110e+001 -7.720856e+001 -8.330770e-002 -3.575603e+001
1209600000 -1.871682e+000 -1.059389e+002 -6.741090e+001 -1.688837e+002 -6.524129e+001 -1.101570e+002 -8.796234e-002 -3.633345e+001
1228343750 -1.893019e+000 -1.072951e+002 -6.666611e+001 -1.798651e+002 -6.528537e+001 -1.349747e+002 -9.251177e-002 -3.690294e+001
1247087500 -1.911175e+000 -1.086542e+002 -6.644061e+001 1.613141e+002 -6.545720e+001 -1.547798e+002 -9.696170e-002 -3.746438e+001
1265831250 -1.932316e+000 -1.099938e+002 -6.680855e+001 1.433806e+002 -6.579086e+001 -1.673599e+002 -1.019200e-001 -3.802656e+001
1284575000 -1.951458e+000 -1.113259e+002 -6.646543e+001 1.270481e+002 -6.566855e+001 1.753979e+002 -1.062316e-001 -3.860070e+001
1303318750 -1.970721e+000 -1.126536e+002 -6.602962e+001 9.827551e+001 -6.546566e+001 1.570472e+002 -1.103071e-001 -3.915970e+001
1322062500 -1.988417e+000 -1.139819e+002 -6.597459e+001 7.010958e+001 -6.554082e+001 1.377896e+002 -1.131497e-001 -3.971400e+001
1340806250 -2.009500e+000 -1.153092e+002 -6.589291e+001 4.199791e+001 -6.513122e+001 1.257318e+002 -1.161084e-001 -4.027294e+001
1359550000 -2.028769e+000 -1.166319e+002 -6.604932e+001 1.247389e+001 -6.498877e+001 1.214869e+002 -1.168424e-001 -4.083256e+001
1378293750 -2.050472e+000 -1.179506e+002 -6.619518e+001 -1.614795e+001 -6.505494e+001 1.187106e+002 -1.177660e-001 -4.140195e+001
1397037500 -2.072390e+000 -1.192370e+002 -6.663467e+001 -4.474736e+001 -6.500948e+001 1.204076e+002 -1.193474e-001 -4.196843e+001
1415781250 -2.090411e+000 -1.205367e+002 -6.682857e+001 -7.221607e+001 -6.486967e+001 1.208295e+002 -1.208939e-001 -4.253082e+001
1434525000 -2.110503e+000 -1.218168e+002 -6.663925e+001 -1.023774e+002 -6.478296e+001 1.294697e+002 -1.230049e-001 -4.309307e+001
1453268750 -2.128218e+000 -1.231083e+002 -6.613396e+001 -1.338490e+002 -6.455225e+001 1.356619e+002 -1.253757e-001 -4.363437e+001
1472012500 -2.146678e+000 -1.243963e+002 -6.618559e+001 -1.703794e+002 -6.477965e+001 1.489266e+002 -1.243993e-001 -4.417214e+001
1490756250 -2.165525e+000 -1.256787e+002 -6.499334e+001 1.633895e+002 -6.416116e+001 1.582578e+002 -1.231123e-001 -4.473130e+001
1509500000 -2.184451e+000 -1.269496e+002 -6.499127e+001 1.460348e+002 -6.445619e+001 1.677426e+002 -1.201216e-001 -4.529725e+001
1528243750 -2.202059e+000 -1.282014e+002 -6.499883e+001 1.398450e+002 -6.425990e+001 -1.695090e+002 -1.183281e-001 -4.587009e+001
1546987500 -2.218255e+000 -1.294480e+002 -6.540293e+001 1.287671e+002 -6.453403e+001 -1.463776e+002 -1.192667e-001 -4.642968e+001
1565731250 -2.236170e+000 -1.306965e+002 -6.520384e+001 1.099372e+002 -6.437424e+001 -1.323930e+002 -1.206355e-001 -4.698656e+001
1584475000 -2.251597e+000 -1.319511e+002 -6.492555e+001 9.378816e+001 -6.421298e+001 -1.147632e+002 -1.180338e-001 -4.752448e+001
1603218750 -2.268018e+000 -1.332077e+002 -6.514395e+001 7.428661e+001 -6.442084e+001 -1.006304e+002 -1.130766e-001 -4.806437e+001
1621962500 -2.287859e+000 -1.344519e+002 -6.479922e+001 6.309213e+001 -6.489966e+001 -9.240572e+001 -1.113648e-001 -4.862334e+001
1640706250 -2.307949e+000 -1.356852e+002 -6.485515e+001 4.088640e+001 -6.456252e+001 -7.935810e+001 -1.088763e-001 -4.918332e+001
1659450000 -2.324841e+000 -1.368898e+002 -6.467989e+001 9.622340e+000 -6.452262e+001 -7.166812e+001 -1.077370e-001 -4.975390e+001
1678193750 -2.341174e+000 -1.380946e+002 -6.480017e+001 -2.228074e+001 -6.431013e+001 -6.244453e+001 -1.060455e-001 -5.030828e+001
1696937500 -2.356436e+000 -1.393121e+002 -6.457384e+001 -5.436979e+001 -6.384372e+001 -5.385919e+001 -1.046850e-001 -5.086216e+001
1715681250 -2.374201e+000 -1.405439e+002 -6.453674e+001 -9.193361e+001 -6.429651e+001 -4.560417e+001 -1.019479e-001 -5.139901e+001
1734425000 -2.390999e+000 -1.417558e+002 -6.422858e+001 -1.165372e+002 -6.500214e+001 -3.169930e+001 -9.836935e-002 -5.194076e+001
1753168750 -2.408434e+000 -1.429486e+002 -6.426409e+001 -1.413362e+002 -6.463577e+001 -9.418181e+000 -9.754591e-002 -5.250253e+001
1771912500 -2.426219e+000 -1.441285e+002 -6.423353e+001 -1.640127e+002 -6.477106e+001 1.121325e+001 -9.573738e-002 -5.306626e+001
1790656250 -2.441515e+000 -1.452927e+002 -6.490793e+001 1.750427e+002 -6.494767e+001 2.607249e+001 -9.577825e-002 -5.362269e+001
1809400000 -2.452715e+000 -1.464650e+002 -6.475787e+001 1.551155e+002 -6.484184e+001 4.263182e+001 -9.609502e-002 -5.417117e+001
1828143750 -2.465093e+000 -1.476572e+002 -6.449109e+001 1.239630e+002 -6.467553e+001 5.463686e+001 -9.416798e-002 -5.470333e+001
1846887500 -2.481989e+000 -1.488397e+002 -6.466614e+001 9.155920e+001 -6.436303e+001 6.552494e+001 -8.989014e-002 -5.523884e+001
1865631250 -2.498580e+000 -1.500280e+002 -6.484476e+001 5.916337e+001 -6.393129e+001 6.767959e+001 -8.652645e-002 -5.578829e+001
1884375000 -2.517357e+000 -1.511819e+002 -6.490892e+001 2.872195e+001 -6.378871e+001 6.643686e+001 -8.305211e-002 -5.635867e+001
1903118750 -2.533842e+000 -1.523293e+002 -6.473176e+001 7.884848e+000 -6.347432e+001 5.791498e+001 -8.414559e-002 -5.691802e+001
1921862500 -2.546845e+000 -1.534719e+002 -6.543362e+001 -9.774701e+000 -6.357650e+001 6.031599e+001 -8.585867e-002 -5.747931e+001
1940606250 -2.558739e+000 -1.546400e+002 -6.490323e+001 -3.164245e+001 -6.322960e+001 6.211701e+001 -8.467510e-002 -5.800620e+001
1959350000 -2.572250e+000 -1.558131e+002 -6.491335e+001 -5.572470e+001 -6.343168e+001 6.022371e+001 -8.353892e-002 -5.854060e+001
1978093750 -2.588945e+000 -1.569842e+002 -6.546807e+001 -7.975093e+001 -6.364577e+001 6.063990e+001 -8.055363e-002 -5.908932e+001
1996837500 -2.606421e+000 -1.581184e+002 -6.579390e+001 -9.164022e+001 -6.368576e+001 6.919666e+001 -7.893264e-002 -5.965339e+001
2015581250 -2.625733e+000 -1.592381e+002 -6.558019e+001 -1.083999e+002 -6.374713e+001 6.844752e+001 -8.311719e-002 -6.021563e+001
2034325000 -2.640539e+000 -1.603511e+002 -6.519552e+001 -1.249126e+002 -6.397865e+001 7.071765e+001 -9.094950e-002 -6.078243e+001
2053068750 -2.649162e+000 -1.614835e+002 -6.609080e+001 -1.450200e+002 -6.347255e+001 7.097377e+001 -9.400696e-002 -6.131589e+001
2071812500 -2.659554e+000 -1.626353e+002 -6.597408e+001 -1.542991e+002 -6.396019e+001 6.325647e+001 -9.677768e-002 -6.185381e+001
2090556250 -2.672791e+000 -1.637891e+002 -6.583744e+001 -1.617879e+002 -6.404121e+001 5.249605e+001 -9.651828e-002 -6.239764e+001
2109300000 -2.689908e+000 -1.649216e+002 -6.626530e+001 -1.603804e+002 -6.394625e+001 2.969815e+001 -9.930141e-002 -6.296420e+001
2128043750 -2.708526e+000 -1.660400e+002 -6.637788e+001 -1.621227e+002 -6.404552e+001 2.493993e+000 -1.035832e-001 -6.352966e+001
2146787500 -2.723565e+000 -1.671253e+002 -6.642506e+001 -1.625057e+002 -6.340497e+001 -3.050620e+001 -1.095965e-001 -6.409705e+001
2165531250 -2.734580e+000 -1.682364e+002 -6.652911e+001 -1.650423e+002 -6.294128e+001 -6.127472e+001 -1.157909e-001 -6.464680e+001
2184275000 -2.745323e+000 -1.693698e+002 -6.634735e+001 -1.551888e+002 -6.294479e+001 -9.966768e+001 -1.189492e-001 -6.518568e+001
2203018750 -2.753867e+000 -1.704893e+002 -6.638155e+001 -1.505542e+002 -6.306154e+001 -1.414371e+002 -1.207253e-001 -6.573377e+001
2221762500 -2.768943e+000 -1.716127e+002 -6.585102e+001 -1.516888e+002 -6.302606e+001 1.741020e+002 -1.209789e-001 -6.629034e+001
2240506250 -2.785157e+000 -1.727137e+002 -6.623524e+001 -1.508691e+002 -6.317446e+001 1.280046e+002 -1.231133e-001 -6.684926e+001
2259250000 -2.800647e+000 -1.738028e+002 -6.642664e+001 -1.473658e+002 -6.327943e+001 8.867083e+001 -1.300522e-001 -6.742290e+001
2277993750 -2.810845e+000 -1.748921e+002 -6.606687e+001 -1.481918e+002 -6.350633e+001 4.141327e+001 -1.390545e-001 -6.797028e+001
2296737500 -2.818787e+000 -1.759877e+002 -6.593662e+001 -1.495744e+002 -6.360535e+001 2.301351e+000 -1.469335e-001 -6.850855e+001
2315481250 -2.829051e+000 -1.770862e+002 -6.583575e+001 -1.557531e+002 -6.338879e+001 -3.360974e+001 -1.478782e-001 -6.904778e+001
2334225000 -2.840430e+000 -1.781764e+002 -6.589481e+001 -1.685362e+002 -6.320331e+001 -6.540485e+001 -1.497348e-001 -6.960316e+001
2352968750 -2.856678e+000 -1.792615e+002 -6.565052e+001 1.725944e+002 -6.367344e+001 -9.636790e+001 -1.524988e-001 -7.017515e+001
2371712500 -2.871308e+000 1.796820e+002 -6.600169e+001 1.618289e+002 -6.386563e+001 -1.268034e+002 -1.593236e-001 -7.074751e+001
2390456250 -2.880521e+000 1.786259e+002 -6.635691e+001 1.474006e+002 -6.397362e+001 -1.644989e+002 -1.677221e-001 -7.131243e+001
2409200000 -2.889859e+000 1.775697e+002 -6.599483e+001 1.382440e+002 -6.353128e+001 1.572922e+002 -1.754568e-001 -7.185302e+001
2427943750 -2.897024e+000 1.764900e+002 -6.621445e+001 1.245288e+002 -6.369176e+001 1.108999e+002 -1.802920e-001 -7.238958e+001
2446687500 -2.906911e+000 1.754154e+002 -6.660642e+001 1.154823e+002 -6.374524e+001 7.312582e+001 -1.803412e-001 -7.295293e+001
2465431250 -2.917848e+000 1.743283e+002 -6.693063e+001 9.997421e+001 -6.398128e+001 2.677991e+001 -1.782129e-001 -7.350085e+001
2484175000 -2.933898e+000 1.732848e+002 -6.685567e+001 9.091908e+001 -6.435435e+001 -1.572605e+001 -1.823613e-001 -7.407555e+001
2502918750 -2.947497e+000 1.722564e+002 -6.681281e+001 7.963754e+001 -6.391032e+001 -5.293622e+001 -1.867562e-001 -7.463965e+001
2521662500 -2.957216e+000 1.712206e+002 -6.700804e+001 7.790643e+001 -6.358743e+001 -8.347321e+001 -1.938129e-001 -7.516680e+001
2540406250 -2.964628e+000 1.701706e+002 -6.660736e+001 7.774139e+001 -6.353312e+001 -1.128785e+002 -1.976258e-001 -7.569745e+001
2559150000 -2.971189e+000 1.691150e+002 -6.633720e+001 7.796696e+001 -6.410402e+001 -1.452046e+002 -1.994804e-001 -7.623410e+001
2577893750 -2.979645e+000 1.680343e+002 -6.711586e+001 7.809280e+001 -6.439326e+001 -1.748240e+002 -1.997556e-001 -7.677959e+001
2596637500 -2.993788e+000 1.669785e+002 -6.734988e+001 6.747105e+001 -6.434969e+001 1.532110e+002 -2.017031e-001 -7.734765e+001
2615381250 -3.007599e+000 1.659519e+002 -6.735252e+001 4.244637e+001 -6.451053e+001 1.197146e+002 -2.064694e-001 -7.789065e+001
2634125000 -3.021687e+000 1.649101e+002 -6.744531e+001 2.801389e+001 -6.416012e+001 9.829459e+001 -2.138411e-001 -7.842140e+001
2652868750 -3.028959e+000 1.638719e+002 -6.711356e+001 1.860556e+001 -6.419740e+001 7.956964e+001 -2.203179e-001 -7.897404e+001
2671612500 -3.037216e+000 1.628242e+002 -6.708980e+001 1.231510e+001 -6.442619e+001 5.526765e+001 -2.238755e-001 -7.950618e+001
2690356250 -3.047561e+000 1.617699e+002 -6.724796e+001 6.483598e+000 -6.425782e+001 3.049286e+001 -2.242247e-001 -8.005211e+001
2709100000 -3.060696e+000 1.607264e+002 -6.701830e+001 6.567583e+000 -6.391057e+001 1.288478e+001 -2.236658e-001 -8.061716e+001
2727843750 -3.074107e+000 1.597006e+002 -6.729988e+001 8.142349e+000 -6.402602e+001 -9.766723e+000 -2.269767e-001 -8.117076e+001
2746587500 -3.084270e+000 1.586712e+002 -6.758055e+001 1.245888e+001 -6.435080e+001 -3.135579e+001 -2.370569e-001 -8.173045e+001
2765331250 -3.094909e+000 1.576416e+002 -6.787684e+001 2.423759e+001 -6.417426e+001 -4.753808e+001 -2.447937e-001 -8.226070e+001
2784075000 -3.099707e+000 1.566016e+002 -6.804929e+001 3.210830e+001 -6.396767e+001 -7.180240e+001 -2.480069e-001 -8.277863e+001
2802818750 -3.107439e+000 1.555571e+002 -6.846056e+001 3.154482e+001 -6.395235e+001 -8.719347e+001 -2.507627e-001 -8.331744e+001
2821562500 -3.117586e+000 1.545168e+002 -6.856643e+001 3.311907e+001 -6.374580e+001 -9.771010e+001 -2.531076e-001 -8.385294e+001
2840306250 -3.128312e+000 1.534934e+002 -6.834770e+001 3.220623e+001 -6.461320e+001 -1.152010e+002 -2.543473e-001 -8.440138e+001
2859050000 -3.139747e+000 1.524730e+002 -6.770894e+001 2.420893e+001 -6.457185e+001 -1.229647e+002 -2.581217e-001 -8.494093e+001
2877793750 -3.146722e+000 1.514599e+002 -6.744891e+001 2.114856e+001 -6.436698e+001 -1.344010e+002 -2.648778e-001 -8.545827e+001
2896537500 -3.157471e+000 1.504316e+002 -6.751550e+001 1.712126e+001 -6.500289e+001 -1.379059e+002 -2.699180e-001 -8.603465e+001
2915281250 -3.162193e+000 1.493991e+002 -6.735544e+001 1.357675e+001 -6.437950e+001 -1.402910e+002 -2.705550e-001 -8.657436e+001
2934025000 -3.170526e+000 1.483866e+002 -6.756464e+001 4.092477e+000 -6.514852e+001 -1.356470e+002 -2.758233e-001 -8.708778e+001
2952768750 -3.182252e+000 1.473399e+002 -6.726939e+001 -7.641799e+000 -6.545903e+001 -1.365231e+002 -2.770737e-001 -8.766478e+001
2971512500 -3.188713e+000 1.463145e+002 -6.717414e+001 -2.789752e+001 -6.538223e+001 -1.405602e+002 -2.783880e-001 -8.821494e+001
2990256250 -3.199069e+000 1.453316e+002 -6.730181e+001 -4.719828e+001 -6.490640e+001 -1.416955e+002 -2.862499e-001 -8.875907e+001
3009000000 -3.211342e+000 1.443175e+002 -6.663370e+001 -6.373002e+001 -6.472887e+001 -1.328781e+002 -2.900212e-001 -8.932127e+001
3027743750 -3.213421e+000 1.433074e+002 -6.683983e+001 -7.153275e+001 -6.430793e+001 -1.329191e+002 -2.947682e-001 -8.985583e+001
3046487500 -3.222348e+000 1.423224e+002 -6.670536e+001 -7.724523e+001 -6.432967e+001 -1.263905e+002 -3.016372e-001 -9.039828e+001
3065231250 -3.232304e+000 1.412747e+002 -6.716029e+001 -9.245296e+001 -6.516737e+001 -1.264582e+002 -2.982992e-001 -9.096855e+001
3083975000 -3.236991e+000 1.402582e+002 -6.796964e+001 -1.016185e+002 -6.595249e+001 -1.209182e+002 -3.030952e-001 -9.148836e+001
3102718750 -3.247949e+000 1.392810e+002 -6.778641e+001 -1.178183e+002 -6.620814e+001 -1.166908e+002 -3.138853e-001 -9.202808e+001
3121462500 -3.256278e+000 1.382445e+002 -6.752385e+001 -1.243434e+002 -6.658376e+001 -1.141015e+002 -3.148494e-001 -9.259610e+001
3140206250 -3.258522e+000 1.372388e+002 -6.750745e+001 -1.310624e+002 -6.675929e+001 -1.114329e+002 -3.225625e-001 -9.310786e+001
3158950000 -3.267578e+000 1.362503e+002 -6.735289e+001 -1.341833e+002 -6.696326e+001 -1.007722e+002 -3.293037e-001 -9.367327e+001
3177693750 -3.278294e+000 1.352092e+002 -6.725900e+001 -1.357397e+002 -6.712046e+001 -9.716769e+001 -3.251106e-001 -9.421988e+001
3196437500 -3.283441e+000 1.341933e+002 -6.722102e+001 -1.453966e+002 -6.744150e+001 -9.741066e+001 -3.299445e-001 -9.474664e+001
3215181250 -3.293929e+000 1.332005e+002 -6.709200e+001 -1.591278e+002 -6.719990e+001 -9.536282e+001 -3.434298e-001 -9.531092e+001
3233925000 -3.304153e+000 1.321833e+002 -6.664493e+001 -1.650890e+002 -6.736129e+001 -9.363170e+001 -3.409892e-001 -9.586918e+001
3252668750 -3.308532e+000 1.311710e+002 -6.605463e+001 -1.699146e+002 -6.712812e+001 -9.532624e+001 -3.496578e-001 -9.638112e+001
3271412500 -3.317455e+000 1.301414e+002 -6.583741e+001 -1.725374e+002 -6.634412e+001 -8.890748e+001 -3.585365e-001 -9.694225e+001
3290156250 -3.325340e+000 1.291039e+002 -6.590522e+001 -1.717347e+002 -6.622480e+001 -9.039037e+001 -3.580554e-001 -9.750074e+001
3308900000 -3.331974e+000 1.280875e+002 -6.603504e+001 -1.756690e+002 -6.656799e+001 -8.369328e+001 -3.654658e-001 -9.801294e+001
3327643750 -3.337411e+000 1.270758e+002 -6.562866e+001 -1.721859e+002 -6.580456e+001 -8.255377e+001 -3.742399e-001 -9.854400e+001
3346387500 -3.346492e+000 1.260797e+002 -6.565852e+001 -1.768665e+002 -6.655477e+001 -8.217949e+001 -3.765579e-001 -9.909008e+001
3365131250 -3.353746e+000 1.250648e+002 -6.584208e+001 -1.740321e+002 -6.696744e+001 -9.189024e+001 -3.829281e-001 -9.961429e+001
3383875000 -3.358066e+000 1.240447e+002 -6.677631e+001 -1.726170e+002 -6.729815e+001 -1.083319e+002 -3.930694e-001 -1.001660e+002
3402618750 -3.369200e+000 1.230465e+002 -6.684229e+001 -1.662704e+002 -6.772412e+001 -1.172428e+002 -3.981178e-001 -1.007181e+002
3421362500 -3.373828e+000 1.220158e+002 -6.666302e+001 -1.642525e+002 -6.782374e+001 -1.226264e+002 -4.039639e-001 -1.012430e+002
3440106250 -3.379178e+000 1.209966e+002 -6.679395e+001 -1.628028e+002 -6.785623e+001 -1.337921e+002 -4.123143e-001 -1.017767e+002
3458850000 -3.389596e+000 1.200015e+002 -6.625835e+001 -1.646562e+002 -6.820361e+001 -1.427762e+002 -4.152233e-001 -1.023189e+002
3477593750 -3.392805e+000 1.189500e+002 -6.659751e+001 -1.623167e+002 -6.830518e+001 -1.581783e+002 -4.207322e-001 -1.028426e+002
3496337500 -3.395103e+000 1.179587e+002 -6.598424e+001 -1.565193e+002 -6.817172e+001 -1.676380e+002 -4.302299e-001 -1.033718e+002
3515081250 -3.404690e+000 1.169644e+002 -6.544048e+001 -1.499460e+002 -6.734424e+001 -1.745460e+002 -4.346886e-001 -1.039251e+002
3533825000 -3.409373e+000 1.159167e+002 -6.534463e+001 -1.477010e+002 -6.685555e+001 -1.766431e+002 -4.369607e-001 -1.044674e+002
3552568750 -3.414203e+000 1.149335e+002 -6.562279e+001 -1.564004e+002 -6.655986e+001 1.784035e+002 -4.449724e-001 -1.050047e+002
3571312500 -3.421798e+000 1.139209e+002 -6.570750e+001 -1.573966e+002 -6.685632e+001 1.724787e+002 -4.474258e-001 -1.055726e+002
3590056250 -3.423614e+000 1.128800e+002 -6.602810e+001 -1.618914e+002 -6.648262e+001 1.657458e+002 -4.474371e-001 -1.060893e+002
3608800000 -3.425640e+000 1.118857e+002 -6.579482e+001 -1.612842e+002 -6.626495e+001 1.571018e+002 -4.582471e-001 -1.066102e+002
3627543750 -3.431304e+000 1.108674e+002 -6.557291e+001 -1.646844e+002 -6.607621e+001 1.465890e+002 -4.605488e-001 -1.071705e+002
3646287500 -3.433104e+000 1.098430e+002 -6.545602e+001 -1.628686e+002 -6.619590e+001 1.325185e+002 -4.576062e-001 -1.076975e+002
3665031250 -3.433826e+000 1.088412e+002 -6.537269e+001 -1.611934e+002 -6.644871e+001 1.196549e+002 -4.701163e-001 -1.082227e+002
3683775000 -3.441241e+000 1.078207e+002 -6.560760e+001 -1.575484e+002 -6.666483e+001 1.130389e+002 -4.715823e-001 -1.087852e+002
3702518750 -3.440998e+000 1.068303e+002 -6.552638e+001 -1.575389e+002 -6.696992e+001 1.097499e+002 -4.733527e-001 -1.093230e+002
3721262500 -3.444513e+000 1.058228e+002 -6.617973e+001 -1.595452e+002 -6.731555e+001 1.068271e+002 -4.789594e-001 -1.098457e+002
3740006250 -3.448417e+000 1.047955e+002 -6.603026e+001 -1.630853e+002 -6.736909e+001 1.060115e+002 -4.812331e-001 -1.104077e+002
3758750000 -3.446304e+000 1.037952e+002 -6.666061e+001 -1.709704e+002 -6.706905e+001 1.153851e+002 -4.825022e-001 -1.109397e+002
3777493750 -3.451550e+000 1.027667e+002 -6.700418e+001 1.773119e+002 -6.659161e+001 1.280077e+002 -4.902387e-001 -1.114608e+002
3796237500 -3.452472e+000 1.017225e+002 -6.696320e+001 1.664541e+002 -6.572022e+001 1.446967e+002 -4.919451e-001 -1.120175e+002
3814981250 -3.453309e+000 1.007042e+002 -6.619480e+001 1.466775e+002 -6.572521e+001 1.629058e+002 -4.924811e-001 -1.125490e+002
3833725000 -3.454876e+000 9.967621e+001 -6.617432e+001 1.202776e+002 -6.540942e+001 1.739552e+002 -4.962096e-001 -1.130634e+002
3852468750 -3.460528e+000 9.862936e+001 -6.657117e+001 1.000014e+002 -6.537915e+001 1.795369e+002 -4.979045e-001 -1.136105e+002
3871212500 -3.456619e+000 9.762331e+001 -6.637956e+001 8.012241e+001 -6.606126e+001 -1.778765e+002 -4.984536e-001 -1.141345e+002
3889956250 -3.458864e+000 9.656995e+001 -6.692701e+001 6.496274e+001 -6.637607e+001 -1.730583e+002 -5.027204e-001 -1.146617e+002
3908700000 -3.464410e+000 9.553545e+001 -6.664160e+001 4.434451e+001 -6.624073e+001 -1.600405e+002 -5.050677e-001 -1.152180e+002
3927443750 -3.465404e+000 9.451479e+001 -6.677753e+001 2.915286e+001 -6.559922e+001 -1.580573e+002 -5.080270e-001 -1.157377e+002
3946187500 -3.465813e+000 9.344804e+001 -6.671949e+001 8.212459e+000 -6.555843e+001 -1.645728e+002 -5.135329e-001 -1.162679e+002
3964931250 -3.467172e+000 9.242445e+001 -6.654852e+001 -1.361295e+001 -6.596901e+001 -1.723460e+002 -5.150515e-001 -1.168239e+002
3983675000 -3.466549e+000 9.140383e+001 -6.632732e+001 -2.874515e+001 -6.578449e+001 -1.754952e+002 -5.198236e-001 -1.173123e+002
4002418750 -3.465332e+000 9.034235e+001 -6.654411e+001 -4.664310e+001 -6.551897e+001 -1.745212e+002 -5.270081e-001 -1.178458e+002
4021162500 -3.469085e+000 8.932052e+001 -6.627483e+001 -6.889030e+001 -6.627871e+001 1.788547e+002 -5.338836e-001 -1.183884e+002
4039906250 -3.469016e+000 8.829280e+001 -6.657428e+001 -1.016521e+002 -6.660678e+001 1.770163e+002 -5.346270e-001 -1.189060e+002
4058650000 -3.467152e+000 8.722349e+001 -6.656636e+001 -1.341636e+002 -6.690089e+001 -1.734505e+002 -5.407326e-001 -1.194472e+002
4077393750 -3.469398e+000 8.621786e+001 -6.704863e+001 -1.596105e+002 -6.685967e+001 -1.610165e+002 -5.462475e-001 -1.199887e+002
4096137500 -3.472492e+000 8.517714e+001 -6.740747e+001 1.760834e+002 -6.629784e+001 -1.543826e+002 -5.464228e-001 -1.205070e+002
4114881250 -3.469119e+000 8.412833e+001 -6.716175e+001 1.395615e+002 -6.628002e+001 -1.562626e+002 -5.525489e-001 -1.210406e+002
4133625000 -3.471587e+000 8.311060e+001 -6.767924e+001 1.000549e+002 -6.593412e+001 -1.675998e+002 -5.586691e-001 -1.215698e+002
4152368750 -3.473092e+000 8.207318e+001 -6.715054e+001 6.948924e+001 -6.590623e+001 1.751858e+002 -5.657592e-001 -1.221002e+002
4171112500 -3.470119e+000 8.100786e+001 -6.749185e+001 3.390512e+001 -6.583416e+001 1.488189e+002 -5.703660e-001 -1.226752e+002
4189856250 -3.472805e+000 7.999801e+001 -6.750576e+001 8.258655e+000 -6.565405e+001 1.146376e+002 -5.758779e-001 -1.232147e+002
4208600000 -3.472435e+000 7.894319e+001 -6.686345e+001 -1.640458e+001 -6.561066e+001 8.227280e+001 -5.800338e-001 -1.237418e+002
4227343750 -3.468689e+000 7.789653e+001 -6.702847e+001 -4.088377e+001 -6.526120e+001 5.132243e+001 -5.843418e-001 -1.242842e+002
4246087500 -3.467717e+000 7.688323e+001 -6.694200e+001 -6.358894e+001 -6.459697e+001 2.492029e+001 -5.908687e-001 -1.248072e+002
4264831250 -3.468069e+000 7.580986e+001 -6.734293e+001 -7.560584e+001 -6.480910e+001 -9.760336e-001 -5.971050e-001 -1.253542e+002
4283575000 -3.459387e+000 7.474747e+001 -6.695756e+001 -9.077956e+001 -6.485913e+001 -3.135294e+001 -6.018635e-001 -1.258917e+002
4302318750 -3.460643e+000 7.369322e+001 -6.726814e+001 -1.096387e+002 -6.482450e+001 -6.659581e+001 -6.097407e-001 -1.264280e+002
4321062500 -3.457972e+000 7.264481e+001 -6.679073e+001 -1.303681e+002 -6.438770e+001 -1.029703e+002 -6.160139e-001 -1.269674e+002
4339806250 -3.451471e+000 7.160291e+001 -6.683804e+001 -1.423492e+002 -6.432760e+001 -1.464187e+002 -6.185555e-001 -1.275038e+002
4358550000 -3.448954e+000 7.055243e+001 -6.713770e+001 -1.666030e+002 -6.442853e+001 -1.774337e+002 -6.263584e-001 -1.280569e+002
4377293750 -3.450995e+000 6.950932e+001 -6.735711e+001 1.646398e+002 -6.506298e+001 1.538731e+002 -6.313045e-001 -1.286059e+002
4396037500 -3.444725e+000 6.843140e+001 -6.797153e+001 1.415616e+002 -6.448814e+001 1.253110e+002 -6.385881e-001 -1.291313e+002
4414781250 -3.443044e+000 6.737492e+001 -6.789526e+001 1.169006e+002 -6.485524e+001 1.014267e+002 -6.450796e-001 -1.296844e+002
4433525000 -3.444980e+000 6.630569e+001 -6.837790e+001 9.245520e+001 -6.525263e+001 7.681837e+001 -6.489368e-001 -1.302249e+002
4452268750 -3.436255e+000 6.523582e+001 -6.893883e+001 7.104271e+001 -6.466145e+001 5.145340e+001 -6.547779e-001 -1.307703e+002
4471012500 -3.435293e+000 6.416531e+001 -6.897508e+001 4.694350e+001 -6.475529e+001 2.512440e+001 -6.621063e-001 -1.313207e+002
4489756250 -3.434449e+000 6.309122e+001 -6.920289e+001 3.082368e+001 -6.434538e+001 -1.492030e+000 -6.674880e-001 -1.318643e+002
4508500000 -3.426428e+000 6.199601e+001 -6.865056e+001 7.854140e+000 -6.475870e+001 -3.301458e+001 -6.738153e-001 -1.324016e+002
4527243750 -3.423912e+000 6.092977e+001 -6.896478e+001 -1.886748e+001 -6.497657e+001 -6.569019e+001 -6.846150e-001 -1.329394e+002
4545987500 -3.421280e+000 5.982990e+001 -6.967528e+001 -4.108847e+001 -6.532808e+001 -9.035690e+001 -6.888583e-001 -1.334799e+002
4564731250 -3.413403e+000 5.873803e+001 -6.963258e+001 -6.367113e+001 -6.546539e+001 -1.127610e+002 -6.939287e-001 -1.340274e+002
4583475000 -3.412444e+000 5.767632e+001 -6.979391e+001 -9.796096e+001 -6.548195e+001 -1.268443e+002 -7.004936e-001 -1.345681e+002
4602218750 -3.408532e+000 5.661073e+001 -6.972935e+001 -1.248135e+002 -6.562749e+001 -1.446665e+002 -7.037805e-001 -1.350966e+002
4620962500 -3.402265e+000 5.549249e+001 -6.923236e+001 -1.573805e+002 -6.603968e+001 -1.598611e+002 -7.093894e-001 -1.356171e+002
4639706250 -3.393884e+000 5.440205e+001 -6.925147e+001 1.753787e+002 -6.643541e+001 1.792920e+002 -7.168624e-001 -1.361702e+002
4658450000 -3.390504e+000 5.331134e+001 -6.878107e+001 1.380018e+002 -6.650237e+001 1.599818e+002 -7.228230e-001 -1.367164e+002
4677193750 -3.381687e+000 5.223732e+001 -6.867123e+001 1.065327e+002 -6.668768e+001 1.430916e+002 -7.288017e-001 -1.372672e+002
4695937500 -3.381262e+000 5.117136e+001 -6.833379e+001 6.948885e+001 -6.680969e+001 1.367711e+002 -7.367527e-001 -1.378052e+002
4714681250 -3.374333e+000 5.004485e+001 -6.836998e+001 4.027197e+001 -6.659496e+001 1.280713e+002 -7.417618e-001 -1.383499e+002
4733425000 -3.366662e+000 4.898376e+001 -6.838051e+001 1.385782e+001 -6.589288e+001 1.271945e+002 -7.482457e-001 -1.389207e+002
4752168750 -3.366364e+000 4.788869e+001 -6.855230e+001 -2.087088e+001 -6.590535e+001 1.268369e+002 -7.550067e-001 -1.394547e+002
4770912500 -3.357301e+000 4.672908e+001 -6.854475e+001 -6.517700e+001 -6.609970e+001 1.315923e+002 -7.624580e-001 -1.399983e+002
4789656250 -3.351023e+000 4.566633e+001 -6.816197e+001 -1.056565e+002 -6.632275e+001 1.288228e+002 -7.685128e-001 -1.405448e+002
4808400000 -3.345824e+000 4.455792e+001 -6.785052e+001 -1.400973e+002 -6.578552e+001 1.223170e+002 -7.749062e-001 -1.410725e+002
4827143750 -3.337083e+000 4.343082e+001 -6.718967e+001 -1.756715e+002 -6.595180e+001 1.225498e+002 -7.800053e-001 -1.416251e+002
4845887500 -3.326455e+000 4.234523e+001 -6.768580e+001 1.478194e+002 -6.566659e+001 1.181547e+002 -7.863083e-001 -1.421892e+002
4864631250 -3.323252e+000 4.125793e+001 -6.684895e+001 1.100979e+002 -6.594882e+001 1.087912e+002 -7.903302e-001 -1.427121e+002
4883375000 -3.313931e+000 4.009243e+001 -6.673306e+001 7.044421e+001 -6.602608e+001 1.048621e+002 -7.968633e-001 -1.432431e+002
4902118750 -3.303908e+000 3.901382e+001 -6.678908e+001 3.909301e+001 -6.559966e+001 1.063145e+002 -8.035231e-001 -1.438005e+002
4920862500 -3.300699e+000 3.792045e+001 -6.634324e+001 7.333571e+000 -6.597900e+001 9.488651e+001 -8.101431e-001 -1.443206e+002
4939606250 -3.288828e+000 3.676451e+001 -6.657999e+001 -2.139119e+001 -6.592831e+001 9.023093e+001 -8.159407e-001 -1.448715e+002
4958350000 -3.280259e+000 3.566198e+001 -6.595126e+001 -5.414802e+001 -6.568317e+001 9.038110e+001 -8.191145e-001 -1.454342e+002
4977093750 -3.276004e+000 3.454393e+001 -6.561324e+001 -8.361367e+001 -6.596038e+001 9.555453e+001 -8.234729e-001 -1.459644e+002
4995837500 -3.266656e+000 3.338357e+001 -6.517107e+001 -1.052838e+002 -6.580625e+001 1.071422e+002 -8.296838e-001 -1.465119e+002
5014581250 -3.255085e+000 3.227417e+001 -6.498212e+001 -1.235082e+002 -6.541927e+001 1.176255e+002 -8.349647e-001 -1.470425e+002
5033325000 -3.248759e+000 3.108689e+001 -6.492163e+001 -1.436734e+002 -6.538091e+001 1.390318e+002 -8.440806e-001 -1.475672e+002
5052068750 -3.236554e+000 2.994485e+001 -6.500224e+001 -1.640443e+002 -6.490438e+001 1.519113e+002 -8.515211e-001 -1.481254e+002
5070812500 -3.233629e+000 2.883959e+001 -6.493564e+001 1.787844e+002 -6.464484e+001 1.632209e+002 -8.559648e-001 -1.486567e+002
5089556250 -3.224799e+000 2.764615e+001 -6.511543e+001 1.632578e+002 -6.534993e+001 1.736384e+002 -8.645874e-001 -1.491875e+002
5108300000 -3.214201e+000 2.648094e+001 -6.522931e+001 1.427250e+002 -6.560743e+001 -1.732724e+002 -8.720174e-001 -1.497318e+002
5127043750 -3.203559e+000 2.534454e+001 -6.510754e+001 1.236839e+002 -6.550369e+001 -1.648622e+002 -8.754500e-001 -1.502576e+002
5145787500 -3.194405e+000 2.419236e+001 -6.523383e+001 1.051137e+002 -6.612434e+001 -1.557147e+002 -8.837178e-001 -1.507937e+002
5164531250 -3.182769e+000 2.302997e+001 -6.487485e+001 8.447581e+001 -6.618106e+001 -1.485087e+002 -8.909405e-001 -1.513341e+002
5183275000 -3.173158e+000 2.189715e+001 -6.524997e+001 7.242759e+001 -6.614855e+001 -1.320496e+002 -8.950585e-001 -1.518617e+002
5202018750 -3.162925e+000 2.072495e+001 -6.530003e+001 6.693762e+001 -6.609345e+001 -1.168750e+002 -9.023078e-001 -1.523985e+002
5220762500 -3.151815e+000 1.956081e+001 -6.570436e+001 6.035376e+001 -6.602033e+001 -1.027768e+002 -9.095256e-001 -1.529458e+002
5239506250 -3.142931e+000 1.841082e+001 -6.571095e+001 5.659315e+001 -6.632281e+001 -8.233390e+001 -9.132801e-001 -1.534762e+002
5258250000 -3.132363e+000 1.722715e+001 -6.571320e+001 5.434199e+001 -6.629303e+001 -5.998584e+001 -9.214658e-001 -1.540149e+002
5276993750 -3.122204e+000 1.606713e+001 -6.511198e+001 5.279076e+001 -6.635978e+001 -4.656785e+001 -9.274988e-001 -1.545740e+002
5295737500 -3.111473e+000 1.489895e+001 -6.517796e+001 5.367389e+001 -6.562977e+001 -3.148127e+001 -9.329586e-001 -1.551030e+002
5314481250 -3.099476e+000 1.372924e+001 -6.525798e+001 5.514631e+001 -6.598457e+001 -1.720422e+001 -9.393213e-001 -1.556427e+002
5333225000 -3.089784e+000 1.254816e+001 -6.505962e+001 5.200626e+001 -6.596288e+001 -3.111678e+000 -9.462724e-001 -1.561956e+002
5351968750 -3.077503e+000 1.137457e+001 -6.524561e+001 5.140220e+001 -6.572052e+001 1.432037e+001 -9.510157e-001 -1.567267e+002
5370712500 -3.068711e+000 1.018364e+001 -6.498724e+001 4.570443e+001 -6.568742e+001 2.625329e+001 -9.603345e-001 -1.572665e+002
5389456250 -3.055402e+000 9.011403e+000 -6.491048e+001 4.284322e+001 -6.631020e+001 3.982226e+001 -9.662920e-001 -1.578213e+002
5408200000 -3.046083e+000 7.834424e+000 -6.517940e+001 3.537384e+001 -6.564568e+001 4.728618e+001 -9.722821e-001 -1.583479e+002
5426943750 -3.035029e+000 6.613075e+000 -6.504606e+001 3.300816e+001 -6.624675e+001 4.688155e+001 -9.813456e-001 -1.588797e+002
5445687500 -3.021655e+000 5.414456e+000 -6.532285e+001 3.366167e+001 -6.632440e+001 4.340430e+001 -9.869470e-001 -1.594413e+002
5464431250 -3.010561e+000 4.239071e+000 -6.510948e+001 3.352067e+001 -6.617971e+001 4.075489e+001 -9.924372e-001 -1.599650e+002
5483175000 -2.999174e+000 3.013644e+000 -6.526304e+001 2.869473e+001 -6.645869e+001 5.044487e+001 -1.001598e+000 -1.605160e+002
5501918750 -2.984228e+000 1.820439e+000 -6.537926e+001 2.160585e+001 -6.630419e+001 5.864996e+001 -1.005404e+000 -1.610624e+002
5520662500 -2.979059e+000 6.221532e-001 -6.527628e+001 2.254251e+001 -6.637253e+001 6.430365e+001 -1.010389e+000 -1.615836e+002
5539406250 -2.969512e+000 -6.039759e-001 -6.534435e+001 2.742952e+001 -6.626843e+001 6.388220e+001 -1.019606e+000 -1.621195e+002
5558150000 -2.954200e+000 -1.810202e+000 -6.534444e+001 3.358146e+001 -6.687713e+001 5.991212e+001 -1.024022e+000 -1.626628e+002
5576893750 -2.950340e+000 -3.020660e+000 -6.533360e+001 3.178123e+001 -6.629565e+001 6.388843e+001 -1.028859e+000 -1.631900e+002
5595637500 -2.939803e+000 -4.267715e+000 -6.541931e+001 3.069816e+001 -6.629079e+001 6.447290e+001 -1.038301e+000 -1.637333e+002
5614381250 -2.924481e+000 -5.495026e+000 -6.615875e+001 3.330593e+001 -6.650592e+001 5.966614e+001 -1.043093e+000 -1.642847e+002
5633125000 -2.919259e+000 -6.708453e+000 -6.608875e+001 3.377030e+001 -6.656588e+001 5.753983e+001 -1.047924e+000 -1.648121e+002
5651868750 -2.906247e+000 -7.959647e+000 -6.587579e+001 3.905895e+001 -6.666932e+001 4.960995e+001 -1.056976e+000 -1.653482e+002
5670612500 -2.892502e+000 -9.191775e+000 -6.603841e+001 4.149432e+001 -6.702198e+001 4.293242e+001 -1.060500e+000 -1.658880e+002
5689356250 -2.885050e+000 -1.042498e+001 -6.667548e+001 4.293509e+001 -6.697419e+001 3.779972e+001 -1.066401e+000 -1.664041e+002
5708100000 -2.872841e+000 -1.169066e+001 -6.667585e+001 4.318883e+001 -6.701717e+001 3.450040e+001 -1.076184e+000 -1.669388e+002
5726843750 -2.860011e+000 -1.292688e+001 -6.688556e+001 3.737288e+001 -6.747837e+001 2.814410e+001 -1.081040e+000 -1.674903e+002
5745587500 -2.854285e+000 -1.417338e+001 -6.626731e+001 3.572634e+001 -6.678624e+001 2.766693e+001 -1.088245e+000 -1.680070e+002
5764331250 -2.841285e+000 -1.543818e+001 -6.631686e+001 3.982283e+001 -6.674489e+001 2.326068e+001 -1.097593e+000 -1.685523e+002
5783075000 -2.831824e+000 -1.669191e+001 -6.635925e+001 4.019361e+001 -6.726009e+001 2.578725e+001 -1.100339e+000 -1.690799e+002
5801818750 -2.825041e+000 -1.793016e+001 -6.696651e+001 4.152235e+001 -6.688683e+001 2.996244e+001 -1.104518e+000 -1.695972e+002
5820562500 -2.813458e+000 -1.923308e+001 -6.682634e+001 4.300571e+001 -6.643374e+001 2.982342e+001 -1.113869e+000 -1.701158e+002
5839306250 -2.799122e+000 -2.048124e+001 -6.614198e+001 4.466130e+001 -6.648885e+001 2.860185e+001 -1.121978e+000 -1.706849e+002
5858050000 -2.792128e+000 -2.173004e+001 -6.675001e+001 4.339925e+001 -6.598826e+001 2.965514e+001 -1.125345e+000 -1.712078e+002
5876793750 -2.783894e+000 -2.304219e+001 -6.629107e+001 3.974732e+001 -6.613351e+001 3.263095e+001 -1.137295e+000 -1.717051e+002
5895537500 -2.770510e+000 -2.431509e+001 -6.623164e+001 3.545655e+001 -6.594795e+001 2.697108e+001 -1.149023e+000 -1.722951e+002
5914281250 -2.766074e+000 -2.555749e+001 -6.584072e+001 3.666726e+001 -6.562834e+001 1.550835e+001 -1.147214e+000 -1.728015e+002
5933025000 -2.756133e+000 -2.688288e+001 -6.564880e+001 3.788673e+001 -6.533909e+001 1.106775e+001 -1.162927e+000 -1.733240e+002
5951768750 -2.738626e+000 -2.814390e+001 -6.583871e+001 3.287714e+001 -6.463746e+001 7.256952e+000 -1.172930e+000 -1.739210e+002
5970512500 -2.733238e+000 -2.942768e+001 -6.566795e+001 2.899039e+001 -6.507829e+001 8.476727e+000 -1.169312e+000 -1.744385e+002
5989256250 -2.723697e+000 -3.076480e+001 -6.554333e+001 2.531016e+001 -6.467574e+001 9.098697e+000 -1.182426e+000 -1.749584e+002
6008000000 -2.709308e+000 -3.203548e+001 -6.526704e+001 2.469856e+001 -6.466199e+001 8.098553e+000 -1.194673e+000 -1.755404e+002
6026743750 -2.704663e+000 -3.333416e+001 -6.512433e+001 2.076233e+001 -6.464507e+001 1.016339e+001 -1.189815e+000 -1.760400e+002
6045487500 -2.697603e+000 -3.467295e+001 -6.372886e+001 1.431297e+001 -6.422249e+001 1.147905e+001 -1.204278e+000 -1.765769e+002
6064231250 -2.684968e+000 -3.593964e+001 -6.350573e+001 1.053148e+001 -6.423734e+001 8.063932e+000 -1.215242e+000 -1.771583e+002
6082975000 -2.683373e+000 -3.728221e+001 -6.331477e+001 8.820688e+000 -6.394991e+001 1.347001e+001 -1.212063e+000 -1.776752e+002
6101718750 -2.671517e+000 -3.863964e+001 -6.330327e+001 6.507887e+000 -6.331088e+001 1.485236e+001 -1.229317e+000 -1.782139e+002
6120462500 -2.661603e+000 -3.992284e+001 -6.279143e+001 8.667013e-001 -6.366462e+001 9.635382e+000 -1.239762e+000 -1.787931e+002
6139206250 -2.661957e+000 -4.127555e+001 -6.253331e+001 1.979966e-001 -6.395779e+001 7.333899e+000 -1.239005e+000 -1.793087e+002
6157950000 -2.651460e+000 -4.264802e+001 -6.240613e+001 -2.303035e+000 -6.335976e+001 1.243187e+001 -1.258404e+000 -1.798677e+002
6176693750 -2.642953e+000 -4.394186e+001 -6.259304e+001 -3.160710e+000 -6.351061e+001 1.241188e+001 -1.264511e+000 1.795371e+002
6195437500 -2.637554e+000 -4.531268e+001 -6.225208e+001 -5.512950e+000 -6.349202e+001 1.122888e+001 -1.270545e+000 1.790209e+002
6214181250 -2.625989e+000 -4.667705e+001 -6.235984e+001 -9.903153e+000 -6.287696e+001 7.741808e+000 -1.283506e+000 1.784456e+002
6232925000 -2.620386e+000 -4.802983e+001 -6.151100e+001 -1.287054e+001 -6.317006e+001 3.479380e+000 -1.290267e+000 1.778978e+002
6251668750 -2.613885e+000 -4.938887e+001 -6.150404e+001 -1.611465e+001 -6.334879e+001 8.778110e-001 -1.298251e+000 1.773407e+002
6270412500 -2.607731e+000 -5.078977e+001 -6.193637e+001 -1.232036e+001 -6.301207e+001 -3.661839e+000 -1.311545e+000 1.768191e+002
6289156250 -2.595927e+000 -5.215586e+001 -6.148171e+001 -1.521071e+001 -6.282192e+001 -7.145022e+000 -1.319335e+000 1.762458e+002
6307900000 -2.592247e+000 -5.350786e+001 -6.134680e+001 -1.814736e+001 -6.247275e+001 -8.966721e+000 -1.320683e+000 1.756552e+002
6326643750 -2.593929e+000 -5.490401e+001 -6.142321e+001 -1.683382e+001 -6.239736e+001 -1.043446e+001 -1.327276e+000 1.751673e+002
6345387500 -2.584777e+000 -5.631314e+001 -6.167299e+001 -1.893127e+001 -6.258068e+001 -1.287714e+001 -1.340211e+000 1.745712e+002
6364131250 -2.582323e+000 -5.765906e+001 -6.141666e+001 -2.066662e+001 -6.246868e+001 -1.559651e+001 -1.341783e+000 1.739998e+002
6382875000 -2.585564e+000 -5.908410e+001 -6.107915e+001 -2.007818e+001 -6.257384e+001 -1.878674e+001 -1.349788e+000 1.734995e+002
6401618750 -2.578829e+000 -6.049506e+001 -6.131459e+001 -2.116002e+001 -6.203332e+001 -2.379760e+001 -1.365371e+000 1.728914e+002
6420362500 -2.578373e+000 -6.186883e+001 -6.141529e+001 -2.359160e+001 -6.156190e+001 -2.641435e+001 -1.368572e+000 1.723268e+002
6439106250 -2.580496e+000 -6.330954e+001 -6.143761e+001 -2.720925e+001 -6.165783e+001 -2.865949e+001 -1.376444e+000 1.718199e+002
6457850000 -2.575950e+000 -6.471581e+001 -6.153377e+001 -2.796970e+001 -6.140879e+001 -2.827193e+001 -1.395909e+000 1.712077e+002
6476593750 -2.574493e+000 -6.611845e+001 -6.174201e+001 -2.792512e+001 -6.129145e+001 -2.880530e+001 -1.400018e+000 1.706470e+002
6495337500 -2.578226e+000 -6.756705e+001 -6.182581e+001 -3.124394e+001 -6.098895e+001 -3.103535e+001 -1.408773e+000 1.701193e+002
6514081250 -2.574394e+000 -6.897996e+001 -6.173326e+001 -3.501893e+001 -6.122932e+001 -3.266102e+001 -1.426076e+000 1.695005e+002
6532825000 -2.578086e+000 -7.039197e+001 -6.173467e+001 -3.866590e+001 -6.136287e+001 -3.481429e+001 -1.427328e+000 1.689355e+002
6551568750 -2.582442e+000 -7.186101e+001 -6.185625e+001 -3.864816e+001 -6.116970e+001 -3.402988e+001 -1.437217e+000 1.684066e+002
6570312500 -2.580669e+000 -7.328876e+001 -6.291849e+001 -4.585129e+001 -6.066288e+001 -3.418233e+001 -1.450843e+000 1.677971e+002
6589056250 -2.585866e+000 -7.472970e+001 -6.283065e+001 -4.561245e+001 -6.063766e+001 -3.812661e+001 -1.451335e+000 1.672543e+002
6607800000 -2.590077e+000 -7.621066e+001 -6.264113e+001 -4.748218e+001 -6.058354e+001 -4.247940e+001 -1.464886e+000 1.667278e+002
6626543750 -2.597805e+000 -7.765379e+001 -6.285519e+001 -5.124319e+001 -6.054486e+001 -4.310027e+001 -1.470176e+000 1.661115e+002
6645287500 -2.607724e+000 -7.913255e+001 -6.274459e+001 -5.155707e+001 -6.049482e+001 -4.645020e+001 -1.476997e+000 1.655706e+002
6664031250 -2.610056e+000 -8.061700e+001 -6.278856e+001 -5.299040e+001 -6.056293e+001 -4.931087e+001 -1.493035e+000 1.649911e+002
6682775000 -2.621576e+000 -8.207111e+001 -6.273772e+001 -5.678050e+001 -6.018870e+001 -5.177704e+001 -1.498376e+000 1.643818e+002
6701518750 -2.630666e+000 -8.354851e+001 -6.286391e+001 -6.351851e+001 -6.063416e+001 -5.228666e+001 -1.502618e+000 1.638041e+002
6720262500 -2.644545e+000 -8.504376e+001 -6.271294e+001 -6.624531e+001 -6.093962e+001 -5.901260e+001 -1.514265e+000 1.632358e+002
6739006250 -2.652726e+000 -8.653152e+001 -6.299590e+001 -6.606567e+001 -6.131804e+001 -6.215566e+001 -1.524626e+000 1.626291e+002
6757750000 -2.661635e+000 -8.803486e+001 -6.281918e+001 -6.799395e+001 -6.142092e+001 -6.429893e+001 -1.530933e+000 1.620484e+002
6776493750 -2.673811e+000 -8.953450e+001 -6.258923e+001 -6.925362e+001 -6.123738e+001 -6.350257e+001 -1.546055e+000 1.614819e+002
6795237500 -2.683557e+000 -9.106953e+001 -6.262777e+001 -7.072820e+001 -6.185686e+001 -6.360782e+001 -1.552374e+000 1.608757e+002
6813981250 -2.694700e+000 -9.257343e+001 -6.276309e+001 -7.409061e+001 -6.181154e+001 -6.383990e+001 -1.559226e+000 1.603080e+002
6832725000 -2.712199e+000 -9.409615e+001 -6.254790e+001 -7.668583e+001 -6.206604e+001 -6.159875e+001 -1.570026e+000 1.597464e+002
6851468750 -2.725286e+000 -9.563922e+001 -6.274848e+001 -7.992119e+001 -6.229301e+001 -6.174038e+001 -1.578126e+000 1.591201e+002
6870212500 -2.740240e+000 -9.718326e+001 -6.289247e+001 -8.086437e+001 -6.256490e+001 -5.916375e+001 -1.584341e+000 1.585445e+002
6888956250 -2.758352e+000 -9.873398e+001 -6.328373e+001 -7.688017e+001 -6.266303e+001 -6.238424e+001 -1.591738e+000 1.579733e+002
6907700000 -2.772606e+000 -1.002812e+002 -6.334914e+001 -8.020993e+001 -6.283529e+001 -6.394785e+001 -1.598265e+000 1.573488e+002
6926443750 -2.789871e+000 -1.018414e+002 -6.447004e+001 -8.588181e+001 -6.319526e+001 -6.595350e+001 -1.605347e+000 1.567781e+002
6945187500 -2.813918e+000 -1.034185e+002 -6.435368e+001 -8.819741e+001 -6.326912e+001 -6.988306e+001 -1.613511e+000 1.561915e+002
6963931250 -2.829608e+000 -1.049995e+002 -6.503642e+001 -8.998059e+001 -6.321952e+001 -7.249252e+001 -1.621520e+000 1.555839e+002
6982675000 -2.852186e+000 -1.065794e+002 -6.494474e+001 -9.418411e+001 -6.330978e+001 -7.567753e+001 -1.627731e+000 1.550081e+002
7001418750 -2.873971e+000 -1.081748e+002 -6.431898e+001 -9.191833e+001 -6.336085e+001 -7.825516e+001 -1.640950e+000 1.544222e+002
7020162500 -2.889747e+000 -1.097464e+002 -6.427647e+001 -9.283805e+001 -6.347121e+001 -8.002798e+001 -1.649244e+000 1.538069e+002
7038906250 -2.917868e+000 -1.113369e+002 -6.422330e+001 -9.257084e+001 -6.361469e+001 -8.053674e+001 -1.653119e+000 1.532225e+002
7057650000 -2.942367e+000 -1.129524e+002 -6.442979e+001 -9.400361e+001 -6.436158e+001 -7.958087e+001 -1.665698e+000 1.526311e+002
7076393750 -2.960997e+000 -1.145544e+002 -6.441430e+001 -9.875290e+001 -6.426841e+001 -8.213496e+001 -1.674285e+000 1.520146e+002
7095137500 -2.993614e+000 -1.161593e+002 -6.447218e+001 -9.853252e+001 -6.423309e+001 -8.051778e+001 -1.678534e+000 1.514277e+002
7113881250 -3.016195e+000 -1.178117e+002 -6.522379e+001 -9.945425e+001 -6.440989e+001 -8.411521e+001 -1.692564e+000 1.508248e+002
7132625000 -3.041292e+000 -1.194204e+002 -6.484323e+001 -9.931741e+001 -6.413892e+001 -8.805152e+001 -1.699943e+000 1.502238e+002
7151368750 -3.075377e+000 -1.210517e+002 -6.490010e+001 -9.800993e+001 -6.414951e+001 -8.811736e+001 -1.710138e+000 1.496349e+002
7170112500 -3.104566e+000 -1.227222e+002 -6.479425e+001 -9.870518e+001 -6.435680e+001 -9.078764e+001 -1.722361e+000 1.490350e+002
7188856250 -3.132287e+000 -1.243485e+002 -6.510537e+001 -1.023285e+002 -6.522557e+001 -9.948566e+001 -1.729906e+000 1.484149e+002
7207600000 -3.169830e+000 -1.260063e+002 -6.536463e+001 -1.082407e+002 -6.560662e+001 -1.172836e+002 -1.737032e+000 1.478340e+002
7226343750 -3.200772e+000 -1.276861e+002 -6.620654e+001 -1.122253e+002 -6.575786e+001 -1.344380e+002 -1.749634e+000 1.472214e+002
7245087500 -3.232940e+000 -1.293111e+002 -6.611918e+001 -1.148743e+002 -6.602786e+001 -1.575492e+002 -1.756570e+000 1.465991e+002
7263831250 -3.270316e+000 -1.309924e+002 -6.643215e+001 -1.147347e+002 -6.577499e+001 -1.770258e+002 -1.766002e+000 1.460119e+002
7282575000 -3.304306e+000 -1.326912e+002 -6.608173e+001 -1.124902e+002 -6.570833e+001 1.674313e+002 -1.776719e+000 1.453911e+002
7301318750 -3.341225e+000 -1.343377e+002 -6.627190e+001 -1.124480e+002 -6.562459e+001 1.488491e+002 -1.783884e+000 1.447708e+002
7320062500 -3.379473e+000 -1.360687e+002 -6.578630e+001 -1.194598e+002 -6.594360e+001 1.317252e+002 -1.797198e+000 1.441767e+002
7338806250 -3.415985e+000 -1.377740e+002 -6.574803e+001 -1.191573e+002 -6.596377e+001 1.149374e+002 -1.807799e+000 1.435594e+002
7357550000 -3.458184e+000 -1.394440e+002 -6.481451e+001 -1.152231e+002 -6.607861e+001 1.015068e+002 -1.815131e+000 1.429445e+002
7376293750 -3.497322e+000 -1.411894e+002 -6.500951e+001 -1.159540e+002 -6.584084e+001 8.177016e+001 -1.829314e+000 1.423532e+002
7395037500 -3.542069e+000 -1.429106e+002 -6.435801e+001 -1.183178e+002 -6.584337e+001 6.843098e+001 -1.841393e+000 1.417317e+002
7413781250 -3.583742e+000 -1.446322e+002 -6.430991e+001 -1.155176e+002 -6.577171e+001 4.964167e+001 -1.848612e+000 1.410876e+002
7432525000 -3.626459e+000 -1.463859e+002 -6.427222e+001 -1.157708e+002 -6.569807e+001 3.295886e+001 -1.856009e+000 1.405122e+002
7451268750 -3.675333e+000 -1.481326e+002 -6.417650e+001 -1.161399e+002 -6.581236e+001 1.581032e+001 -1.868150e+000 1.398887e+002
7470012500 -3.719668e+000 -1.499107e+002 -6.483794e+001 -1.201368e+002 -6.611296e+001 1.160326e+000 -1.879304e+000 1.392854e+002
7488756250 -3.763599e+000 -1.516720e+002 -6.533832e+001 -1.265581e+002 -6.550566e+001 -1.545252e+001 -1.892704e+000 1.386727e+002
7507500000 -3.817346e+000 -1.534274e+002 -6.540173e+001 -1.379912e+002 -6.554834e+001 -2.912869e+001 -1.900126e+000 1.380337e+002
7526243750 -3.863885e+000 -1.552441e+002 -6.564812e+001 -1.582728e+002 -6.546854e+001 -3.863106e+001 -1.911953e+000 1.374340e+002
7544987500 -3.911602e+000 -1.570203e+002 -6.513177e+001 -1.738471e+002 -6.538192e+001 -5.104563e+001 -1.921853e+000 1.368194e+002
7563731250 -3.966266e+000 -1.587988e+002 -6.517622e+001 1.706195e+002 -6.570940e+001 -6.610146e+001 -1.929216e+000 1.361680e+002
7582475000 -4.015190e+000 -1.606180e+002 -6.528706e+001 1.522896e+002 -6.562378e+001 -7.829895e+001 -1.937722e+000 1.355812e+002
7601218750 -4.065589e+000 -1.624144e+002 -6.541817e+001 1.341253e+002 -6.553340e+001 -9.568842e+001 -1.949173e+000 1.349485e+002
7619962500 -4.124788e+000 -1.642266e+002 -6.514289e+001 1.203718e+002 -6.483059e+001 -1.018235e+002 -1.957143e+000 1.343268e+002
7638706250 -4.177293e+000 -1.660907e+002 -6.552547e+001 1.087117e+002 -6.468427e+001 -1.025951e+002 -1.965556e+000 1.337343e+002
7657450000 -4.229203e+000 -1.679112e+002 -6.479762e+001 9.943034e+001 -6.397892e+001 -1.053547e+002 -1.981793e+000 1.330935e+002
7676193750 -4.289660e+000 -1.697636e+002 -6.495835e+001 8.661040e+001 -6.409674e+001 -9.464774e+001 -1.989089e+000 1.324509e+002
7694937500 -4.344531e+000 -1.716260e+002 -6.515529e+001 7.818280e+001 -6.468684e+001 -8.329717e+001 -1.999761e+000 1.318542e+002
7713681250 -4.399657e+000 -1.734763e+002 -6.547060e+001 7.334515e+001 -6.442091e+001 -6.905484e+001 -2.015997e+000 1.312059e+002
7732425000 -4.464286e+000 -1.753686e+002 -6.514960e+001 7.133328e+001 -6.416574e+001 -5.621182e+001 -2.022394e+000 1.305718e+002
7751168750 -4.520285e+000 -1.772495e+002 -6.540593e+001 7.108129e+001 -6.385366e+001 -3.808104e+001 -2.031625e+000 1.299686e+002
7769912500 -4.579645e+000 -1.791224e+002 -6.531047e+001 6.814299e+001 -6.429312e+001 -2.312700e+001 -2.048561e+000 1.293181e+002
7788656250 -4.643924e+000 1.789772e+002 -6.503812e+001 6.796233e+001 -6.413885e+001 -9.648408e+000 -2.053454e+000 1.286858e+002
7807400000 -4.700850e+000 1.770878e+002 -6.515334e+001 6.837835e+001 -6.432224e+001 3.227993e+000 -2.062408e+000 1.280967e+002
7826143750 -4.761273e+000 1.751909e+002 -6.511509e+001 7.162213e+001 -6.426799e+001 1.547234e+001 -2.075768e+000 1.274206e+002
7844887500 -4.829701e+000 1.732536e+002 -6.540701e+001 6.974836e+001 -6.436577e+001 2.607017e+001 -2.081590e+000 1.268138e+002
7863631250 -4.888335e+000 1.713174e+002 -6.531039e+001 6.624966e+001 -6.481391e+001 4.414096e+001 -2.098168e+000 1.261833e+002
7882375000 -4.951282e+000 1.694035e+002 -6.579220e+001 6.628991e+001 -6.493951e+001 5.672364e+001 -2.109900e+000 1.255030e+002
7901118750 -5.019617e+000 1.674660e+002 -6.507021e+001 6.535937e+001 -6.444191e+001 6.824672e+001 -2.112511e+000 1.248428e+002
7919862500 -5.079047e+000 1.655053e+002 -6.509882e+001 7.669646e+001 -6.461630e+001 8.362119e+001 -2.125511e+000 1.242495e+002
7938606250 -5.145092e+000 1.635598e+002 -6.512151e+001 8.887113e+001 -6.472237e+001 9.729556e+001 -2.139784e+000 1.235705e+002
7957350000 -5.214177e+000 1.615746e+002 -6.494807e+001 1.096932e+002 -6.465628e+001 1.022375e+002 -2.142219e+000 1.229243e+002
7976093750 -5.274377e+000 1.595884e+002 -6.546935e+001 1.227681e+002 -6.558114e+001 1.118833e+002 -2.156438e+000 1.223100e+002
7994837500 -5.343631e+000 1.576167e+002 -6.577347e+001 1.343864e+002 -6.521266e+001 1.294499e+002 -2.173438e+000 1.216409e+002
8013581250 -5.412795e+000 1.555964e+002 -6.576674e+001 1.477782e+002 -6.511797e+001 1.425198e+002 -2.177169e+000 1.209805e+002
8032325000 -5.472805e+000 1.535861e+002 -6.614942e+001 1.586858e+002 -6.492665e+001 1.570151e+002 -2.192860e+000 1.203778e+002
8051068750 -5.541579e+000 1.515866e+002 -6.617152e+001 1.694759e+002 -6.469483e+001 1.719979e+002 -2.206698e+000 1.196788e+002
8069812500 -5.607621e+000 1.495255e+002 -6.564603e+001 -1.741885e+002 -6.484962e+001 -1.715254e+002 -2.213240e+000 1.190146e+002
8088556250 -5.668591e+000 1.474986e+002 -6.629362e+001 -1.646290e+002 -6.556491e+001 -1.525545e+002 -2.227659e+000 1.183929e+002
8107300000 -5.735085e+000 1.454707e+002 -6.617663e+001 -1.450159e+002 -6.570873e+001 -1.388056e+002 -2.241100e+000 1.177053e+002
8126043750 -5.800431e+000 1.433847e+002 -6.595110e+001 -1.327902e+002 -6.548582e+001 -1.343181e+002 -2.246556e+000 1.170468e+002
8144787500 -5.862909e+000 1.413438e+002 -6.597903e+001 -1.302087e+002 -6.570333e+001 -1.361764e+002 -2.261858e+000 1.164322e+002
8163531250 -5.928851e+000 1.392798e+002 -6.631540e+001 -1.289417e+002 -6.588637e+001 -1.366678e+002 -2.276029e+000 1.157382e+002
8182275000 -5.992547e+000 1.371550e+002 -6.629755e+001 -1.272430e+002 -6.602192e+001 -1.385898e+002 -2.285131e+000 1.150799e+002
8201018750 -6.052650e+000 1.350714e+002 -6.701567e+001 -1.256302e+002 -6.586585e+001 -1.357401e+002 -2.297385e+000 1.144376e+002
8219762500 -6.115308e+000 1.329690e+002 -6.750589e+001 -1.202766e+002 -6.558844e+001 -1.364278e+002 -2.312194e+000 1.137431e+002
8238506250 -6.178027e+000 1.308292e+002 -6.726592e+001 -1.188550e+002 -6.530628e+001 -1.264218e+002 -2.321724e+000 1.130831e+002
8257250000 -6.237818e+000 1.287327e+002 -6.731000e+001 -1.245127e+002 -6.538325e+001 -1.218205e+002 -2.336980e+000 1.124379e+002
8275993750 -6.295974e+000 1.266043e+002 -6.729829e+001 -1.251339e+002 -6.537935e+001 -1.159059e+002 -2.350998e+000 1.117369e+002
8294737500 -6.355059e+000 1.244320e+002 -6.736851e+001 -1.215589e+002 -6.518438e+001 -1.125723e+002 -2.361748e+000 1.110828e+002
8313481250 -6.411675e+000 1.222949e+002 -6.729675e+001 -1.212925e+002 -6.523918e+001 -1.051984e+002 -2.377501e+000 1.104119e+002
8332225000 -6.466451e+000 1.201437e+002 -6.774514e+001 -1.145496e+002 -6.553618e+001 -1.075102e+002 -2.393102e+000 1.097188e+002
8350968750 -6.522831e+000 1.179727e+002 -6.723055e+001 -1.193424e+002 -6.540585e+001 -1.089282e+002 -2.403854e+000 1.090421e+002
8369712500 -6.575887e+000 1.158122e+002 -6.740391e+001 -1.261022e+002 -6.548827e+001 -1.054956e+002 -2.423232e+000 1.083775e+002
8388456250 -6.625979e+000 1.136301e+002 -6.761602e+001 -1.378200e+002 -6.548492e+001 -1.007278e+002 -2.439606e+000 1.076615e+002
8407200000 -6.678272e+000 1.114221e+002 -6.704633e+001 -1.476819e+002 -6.495773e+001 -9.559566e+001 -2.454056e+000 1.069949e+002
8425943750 -6.724448e+000 1.092425e+002 -6.649713e+001 -1.583894e+002 -6.493272e+001 -9.439165e+001 -2.469180e+000 1.063085e+002
8444687500 -6.769019e+000 1.070581e+002 -6.641294e+001 -1.696182e+002 -6.496488e+001 -9.048422e+001 -2.483407e+000 1.055978e+002
8463431250 -6.817010e+000 1.048590e+002 -6.599335e+001 -1.771900e+002 -6.484735e+001 -8.308326e+001 -2.495130e+000 1.049204e+002
8482175000 -6.860908e+000 1.026484e+002 -6.610809e+001 1.730325e+002 -6.483154e+001 -8.390724e+001 -2.513099e+000 1.042371e+002
8500918750 -6.902226e+000 1.004468e+002 -6.583202e+001 1.603085e+002 -6.446530e+001 -8.320975e+001 -2.528521e+000 1.035250e+002
8519662500 -6.946453e+000 9.821504e+001 -6.504076e+001 1.498340e+002 -6.428701e+001 -8.446980e+001 -2.540871e+000 1.028454e+002
8538406250 -6.984313e+000 9.598598e+001 -6.477479e+001 1.314053e+002 -6.381107e+001 -8.605982e+001 -2.559715e+000 1.021378e+002
8557150000 -7.020732e+000 9.377316e+001 -6.434177e+001 1.124065e+002 -6.348539e+001 -8.692355e+001 -2.575885e+000 1.014133e+002
8575893750 -7.061363e+000 9.153983e+001 -6.406236e+001 9.909571e+001 -6.344375e+001 -8.353002e+001 -2.588162e+000 1.007220e+002
8594637500 -7.092436e+000 8.930347e+001 -6.387280e+001 8.338025e+001 -6.328548e+001 -8.024203e+001 -2.609923e+000 1.000071e+002
8613381250 -7.122807e+000 8.707527e+001 -6.354292e+001 6.872963e+001 -6.292371e+001 -7.898225e+001 -2.624776e+000 9.927399e+001
8632125000 -7.156341e+000 8.483446e+001 -6.273753e+001 5.485641e+001 -6.285380e+001 -8.094173e+001 -2.640424e+000 9.856658e+001
8650868750 -7.177063e+000 8.259985e+001 -6.222735e+001 3.708729e+001 -6.268703e+001 -7.795625e+001 -2.660185e+000 9.782683e+001
8669612500 -7.201924e+000 8.039651e+001 -6.211728e+001 2.156787e+001 -6.265809e+001 -7.937465e+001 -2.676653e+000 9.708643e+001
8688356250 -7.229707e+000 7.815595e+001 -6.167542e+001 1.008360e+001 -6.242104e+001 -8.083624e+001 -2.691505e+000 9.637785e+001
8707100000 -7.248100e+000 7.592251e+001 -6.113236e+001 -2.854150e+000 -6.186846e+001 -7.943757e+001 -2.714404e+000 9.564671e+001
8725843750 -7.267355e+000 7.370485e+001 -6.059866e+001 -1.789583e+001 -6.158445e+001 -8.239240e+001 -2.729299e+000 9.488680e+001
8744587500 -7.285098e+000 7.144881e+001 -6.010693e+001 -3.458089e+001 -6.116265e+001 -8.371644e+001 -2.746967e+000 9.417266e+001
8763331250 -7.295712e+000 6.924681e+001 -5.949873e+001 -5.194849e+001 -6.082504e+001 -7.841195e+001 -2.767624e+000 9.342760e+001
8782075000 -7.311706e+000 6.704043e+001 -5.893238e+001 -6.522715e+001 -6.057645e+001 -7.660878e+001 -2.783214e+000 9.266561e+001
8800818750 -7.322487e+000 6.478939e+001 -5.842401e+001 -7.158417e+001 -6.017453e+001 -7.712372e+001 -2.798682e+000 9.192736e+001
8819562500 -7.327818e+000 6.260844e+001 -5.781082e+001 -7.591457e+001 -5.979025e+001 -7.720419e+001 -2.818950e+000 9.118279e+001
8838306250 -7.337375e+000 6.040245e+001 -5.749929e+001 -7.795249e+001 -5.908664e+001 -7.690805e+001 -2.834541e+000 9.041146e+001
8857050000 -7.337962e+000 5.816318e+001 -5.744352e+001 -7.885806e+001 -5.882455e+001 -7.774635e+001 -2.851418e+000 8.965879e+001
8875793750 -7.338831e+000 5.598755e+001 -5.701456e+001 -7.944997e+001 -5.854728e+001 -7.816570e+001 -2.874148e+000 8.888223e+001
8894537500 -7.344760e+000 5.378309e+001 -5.659303e+001 -8.079603e+001 -5.827424e+001 -8.070345e+001 -2.890436e+000 8.810403e+001
8913281250 -7.339133e+000 5.157977e+001 -5.624863e+001 -8.058002e+001 -5.799575e+001 -8.030397e+001 -2.908444e+000 8.733762e+001
8932025000 -7.335439e+000 4.943491e+001 -5.615594e+001 -8.130099e+001 -5.780208e+001 -8.040808e+001 -2.931506e+000 8.655281e+001
8950768750 -7.331860e+000 4.722605e+001 -5.585227e+001 -8.258795e+001 -5.712574e+001 -7.977386e+001 -2.946192e+000 8.575287e+001
8969512500 -7.318611e+000 4.505478e+001 -5.563558e+001 -8.339046e+001 -5.651702e+001 -8.113099e+001 -2.965323e+000 8.497597e+001
8988256250 -7.308771e+000 4.293303e+001 -5.535727e+001 -8.315039e+001 -5.600956e+001 -8.198569e+001 -2.984970e+000 8.417445e+001
9007000000 -7.298485e+000 4.075453e+001 -5.502851e+001 -8.428324e+001 -5.550697e+001 -8.284953e+001 -3.000878e+000 8.337283e+001
9025743750 -7.278805e+000 3.862348e+001 -5.443996e+001 -8.428930e+001 -5.507895e+001 -8.327824e+001 -3.018964e+000 8.259019e+001
9044487500 -7.268822e+000 3.654406e+001 -5.411515e+001 -8.436735e+001 -5.482719e+001 -8.312991e+001 -3.038965e+000 8.177422e+001
9063231250 -7.251526e+000 3.437572e+001 -5.364629e+001 -8.558884e+001 -5.417366e+001 -8.337297e+001 -3.054860e+000 8.096880e+001
9081975000 -7.228811e+000 3.226563e+001 -5.327322e+001 -8.740188e+001 -5.392285e+001 -8.433356e+001 -3.076609e+000 8.016769e+001
9100718750 -7.214176e+000 3.018688e+001 -5.294373e+001 -8.865591e+001 -5.344254e+001 -8.505250e+001 -3.096564e+000 7.930878e+001
9119462500 -7.190556e+000 2.805043e+001 -5.259939e+001 -8.874057e+001 -5.296580e+001 -8.639456e+001 -3.113062e+000 7.849437e+001
9138206250 -7.164147e+000 2.599215e+001 -5.230101e+001 -9.002076e+001 -5.258516e+001 -8.646303e+001 -3.133008e+000 7.767322e+001
9156950000 -7.146719e+000 2.394343e+001 -5.201483e+001 -9.055752e+001 -5.216329e+001 -8.740449e+001 -3.153586e+000 7.683088e+001
9175693750 -7.118552e+000 2.184657e+001 -5.171101e+001 -9.082334e+001 -5.172614e+001 -8.846203e+001 -3.169187e+000 7.599422e+001
9194437500 -7.089606e+000 1.980034e+001 -5.143434e+001 -9.221630e+001 -5.125738e+001 -8.872411e+001 -3.190826e+000 7.516333e+001
9213181250 -7.066777e+000 1.777233e+001 -5.111104e+001 -9.270773e+001 -5.070776e+001 -9.056733e+001 -3.210160e+000 7.431328e+001
9231925000 -7.034677e+000 1.572159e+001 -5.067894e+001 -9.379849e+001 -5.032386e+001 -9.188124e+001 -3.228951e+000 7.348068e+001
9250668750 -7.007905e+000 1.372873e+001 -5.044069e+001 -9.453255e+001 -4.991584e+001 -9.337097e+001 -3.252977e+000 7.264374e+001
9269412500 -6.984245e+000 1.169572e+001 -5.001978e+001 -9.615779e+001 -4.962376e+001 -9.462195e+001 -3.273990e+000 7.177011e+001
9288156250 -6.948336e+000 9.672524e+000 -4.951883e+001 -9.656802e+001 -4.922716e+001 -9.591536e+001 -3.292439e+000 7.091441e+001
9306900000 -6.916404e+000 7.709737e+000 -4.924934e+001 -9.763513e+001 -4.878799e+001 -9.723396e+001 -3.315678e+000 7.004958e+001
9325643750 -6.886621e+000 5.714839e+000 -4.891856e+001 -9.895444e+001 -4.836088e+001 -9.842162e+001 -3.337236e+000 6.915534e+001
9344387500 -6.847724e+000 3.740991e+000 -4.848924e+001 -1.004500e+002 -4.801532e+001 -9.933820e+001 -3.356570e+000 6.829337e+001
9363131250 -6.817729e+000 1.802471e+000 -4.809283e+001 -1.022331e+002 -4.757501e+001 -1.014766e+002 -3.380247e+000 6.741059e+001
9381875000 -6.788999e+000 -1.666844e-001 -4.773795e+001 -1.031049e+002 -4.721354e+001 -1.026731e+002 -3.403671e+000 6.652389e+001
9400618750 -6.748379e+000 -2.124001e+000 -4.738017e+001 -1.039934e+002 -4.692699e+001 -1.037475e+002 -3.423218e+000 6.564215e+001
9419362500 -6.717206e+000 -4.031073e+000 -4.698494e+001 -1.054007e+002 -4.651600e+001 -1.043756e+002 -3.449998e+000 6.472904e+001
9438106250 -6.683280e+000 -5.985553e+000 -4.657230e+001 -1.068105e+002 -4.614723e+001 -1.053518e+002 -3.470212e+000 6.381056e+001
9456850000 -6.645160e+000 -7.889764e+000 -4.626919e+001 -1.079227e+002 -4.570184e+001 -1.066489e+002 -3.492120e+000 6.291651e+001
9475593750 -6.614708e+000 -9.796902e+000 -4.586314e+001 -1.093551e+002 -4.528801e+001 -1.081824e+002 -3.520214e+000 6.199915e+001
9494337500 -6.582811e+000 -1.172470e+001 -4.549413e+001 -1.108713e+002 -4.494569e+001 -1.093299e+002 -3.543333e+000 6.106875e+001
9513081250 -6.542962e+000 -1.361291e+001 -4.510192e+001 -1.122889e+002 -4.446708e+001 -1.109428e+002 -3.564861e+000 6.015474e+001
9531825000 -6.511913e+000 -1.549191e+001 -4.478329e+001 -1.135021e+002 -4.409219e+001 -1.127330e+002 -3.591511e+000 5.923680e+001
9550568750 -6.478163e+000 -1.738709e+001 -4.447509e+001 -1.147703e+002 -4.373229e+001 -1.140518e+002 -3.614202e+000 5.828944e+001
9569312500 -6.443250e+000 -1.925810e+001 -4.405301e+001 -1.158593e+002 -4.335820e+001 -1.156990e+002 -3.640332e+000 5.737074e+001
9588056250 -6.416010e+000 -2.114480e+001 -4.368983e+001 -1.172789e+002 -4.300687e+001 -1.170416e+002 -3.668910e+000 5.640899e+001
9606800000 -6.385778e+000 -2.302630e+001 -4.324358e+001 -1.187248e+002 -4.260011e+001 -1.185350e+002 -3.694134e+000 5.545907e+001
9625543750 -6.353040e+000 -2.488574e+001 -4.279255e+001 -1.199225e+002 -4.221226e+001 -1.199850e+002 -3.720527e+000 5.449889e+001
9644287500 -6.323579e+000 -2.674100e+001 -4.238282e+001 -1.211631e+002 -4.185919e+001 -1.212440e+002 -3.751081e+000 5.350913e+001
9663031250 -6.291911e+000 -2.860212e+001 -4.197947e+001 -1.226040e+002 -4.148460e+001 -1.228262e+002 -3.774858e+000 5.251792e+001
9681775000 -6.261407e+000 -3.043474e+001 -4.153586e+001 -1.242064e+002 -4.113906e+001 -1.243917e+002 -3.802893e+000 5.155428e+001
9700518750 -6.235662e+000 -3.227954e+001 -4.117675e+001 -1.249547e+002 -4.075410e+001 -1.257172e+002 -3.834166e+000 5.055297e+001
9719262500 -6.207080e+000 -3.413099e+001 -4.075299e+001 -1.266067e+002 -4.035361e+001 -1.273177e+002 -3.862319e+000 4.955706e+001
9738006250 -6.180779e+000 -3.596263e+001 -4.035221e+001 -1.281288e+002 -3.995743e+001 -1.290808e+002 -3.894729e+000 4.856469e+001
9756750000 -6.156481e+000 -3.779394e+001 -3.995613e+001 -1.297133e+002 -3.960262e+001 -1.302965e+002 -3.930370e+000 4.754331e+001
9775493750 -6.131456e+000 -3.962810e+001 -3.951190e+001 -1.313262e+002 -3.921495e+001 -1.317245e+002 -3.958349e+000 4.651194e+001
9794237500 -6.107893e+000 -4.148000e+001 -3.908916e+001 -1.329271e+002 -3.880565e+001 -1.332133e+002 -3.988228e+000 4.549582e+001
9812981250 -6.084048e+000 -4.329600e+001 -3.866072e+001 -1.344593e+002 -3.839181e+001 -1.348476e+002 -4.022443e+000 4.446964e+001
9831725000 -6.070520e+000 -4.512495e+001 -3.825253e+001 -1.360356e+002 -3.795739e+001 -1.365143e+002 -4.059685e+000 4.341831e+001
9850468750 -6.048747e+000 -4.697506e+001 -3.784867e+001 -1.377777e+002 -3.757068e+001 -1.382464e+002 -4.092969e+000 4.237836e+001
9869212500 -6.027047e+000 -4.875456e+001 -3.746311e+001 -1.394396e+002 -3.718145e+001 -1.400716e+002 -4.129320e+000 4.132483e+001
9887956250 -6.019523e+000 -5.055718e+001 -3.703764e+001 -1.413926e+002 -3.675896e+001 -1.419201e+002 -4.167315e+000 4.026448e+001
9906700000 -6.006294e+000 -5.242485e+001 -3.659414e+001 -1.433609e+002 -3.633643e+001 -1.436296e+002 -4.206162e+000 3.916477e+001
9925443750 -5.989175e+000 -5.423423e+001 -3.617097e+001 -1.449521e+002 -3.592202e+001 -1.452538e+002 -4.244429e+000 3.809955e+001
9944187500 -5.991084e+000 -5.606751e+001 -3.578162e+001 -1.467871e+002 -3.553249e+001 -1.469311e+002 -4.288800e+000 3.702045e+001
9962931250 -5.979805e+000 -5.794347e+001 -3.533031e+001 -1.486639e+002 -3.512859e+001 -1.487455e+002 -4.331357e+000 3.587100e+001
9981675000 -5.974933e+000 -5.972222e+001 -3.490184e+001 -1.505788e+002 -3.471362e+001 -1.504803e+002 -4.370616e+000 3.475235e+001
10000418750 -5.985383e+000 -6.156237e+001 -3.448829e+001 -1.526892e+002 -3.429523e+001 -1.522631e+002 -4.413605e+000 3.362835e+001
10019162500 -5.981212e+000 -6.343264e+001 -3.407216e+001 -1.546821e+002 -3.388181e+001 -1.543004e+002 -4.458353e+000 3.245954e+001
10037906250 -5.986526e+000 -6.523647e+001 -3.365901e+001 -1.565479e+002 -3.348200e+001 -1.563555e+002 -4.502692e+000 3.133077e+001
10056650000 -6.003378e+000 -6.711258e+001 -3.324627e+001 -1.586481e+002 -3.306666e+001 -1.582455e+002 -4.553535e+000 3.018691e+001
10075393750 -6.008156e+000 -6.898330e+001 -3.280440e+001 -1.609128e+002 -3.263433e+001 -1.603824e+002 -4.604221e+000 2.898965e+001
10094137500 -6.027240e+000 -7.077834e+001 -3.237603e+001 -1.629682e+002 -3.220655e+001 -1.626015e+002 -4.652691e+000 2.782636e+001
10112881250 -6.056618e+000 -7.265907e+001 -3.194623e+001 -1.650995e+002 -3.178288e+001 -1.647129e+002 -4.708615e+000 2.661559e+001
10131625000 -6.075430e+000 -7.453166e+001 -3.150602e+001 -1.671903e+002 -3.134001e+001 -1.667837e+002 -4.761004e+000 2.539040e+001
10150368750 -6.111624e+000 -7.637178e+001 -3.108847e+001 -1.692846e+002 -3.090952e+001 -1.690566e+002 -4.814611e+000 2.420054e+001
10169112500 -6.150927e+000 -7.828775e+001 -3.065437e+001 -1.716427e+002 -3.046531e+001 -1.713589e+002 -4.873862e+000 2.295968e+001
10187856250 -6.182979e+000 -8.014740e+001 -3.022074e+001 -1.739008e+002 -3.003039e+001 -1.738568e+002 -4.929194e+000 2.169696e+001
10206600000 -6.236384e+000 -8.199046e+001 -2.979836e+001 -1.763168e+002 -2.957616e+001 -1.763468e+002 -4.991481e+000 2.047775e+001
10225343750 -6.294744e+000 -8.388777e+001 -2.934990e+001 -1.787951e+002 -2.914767e+001 -1.787298e+002 -5.061931e+000 1.920153e+001
10244087500 -6.351696e+000 -8.577933e+001 -2.891567e+001 1.787058e+002 -2.872278e+001 1.786990e+002 -5.126736e+000 1.788972e+001
10262831250 -6.418489e+000 -8.765091e+001 -2.847560e+001 1.762077e+002 -2.828787e+001 1.760975e+002 -5.192505e+000 1.663472e+001
10281575000 -6.493115e+000 -8.955543e+001 -2.803375e+001 1.736107e+002 -2.785262e+001 1.736047e+002 -5.268790e+000 1.532453e+001
10300318750 -6.576058e+000 -9.143188e+001 -2.759846e+001 1.710083e+002 -2.740938e+001 1.710542e+002 -5.343850e+000 1.398300e+001
10319062500 -6.666472e+000 -9.332984e+001 -2.716249e+001 1.684149e+002 -2.696491e+001 1.684073e+002 -5.417930e+000 1.266668e+001
10337806250 -6.767877e+000 -9.518283e+001 -2.673565e+001 1.657847e+002 -2.654146e+001 1.657098e+002 -5.497014e+000 1.133481e+001
10356550000 -6.881616e+000 -9.705164e+001 -2.630629e+001 1.630239e+002 -2.610583e+001 1.629481e+002 -5.579410e+000 9.955053e+000
10375293750 -6.995363e+000 -9.892636e+001 -2.586188e+001 1.602358e+002 -2.564534e+001 1.600835e+002 -5.662384e+000 8.614880e+000
10394037500 -7.122916e+000 -1.007368e+002 -2.543161e+001 1.573717e+002 -2.520795e+001 1.572425e+002 -5.750757e+000 7.269970e+000
10412781250 -7.263963e+000 -1.025437e+002 -2.500192e+001 1.544344e+002 -2.478107e+001 1.542742e+002 -5.848171e+000 5.892606e+000
10431525000 -7.414255e+000 -1.043148e+002 -2.456603e+001 1.515177e+002 -2.434645e+001 1.512939e+002 -5.945530e+000 4.506638e+000
10450268750 -7.579904e+000 -1.060478e+002 -2.414284e+001 1.484680e+002 -2.392767e+001 1.482614e+002 -6.044306e+000 3.116269e+000
10469012500 -7.756905e+000 -1.077841e+002 -2.371317e+001 1.453893e+002 -2.349918e+001 1.451652e+002 -6.149289e+000 1.712399e+000
10487756250 -7.939248e+000 -1.094351e+002 -2.328595e+001 1.423391e+002 -2.307963e+001 1.419124e+002 -6.258012e+000 3.119133e-001
10506500000 -8.138574e+000 -1.110173e+002 -2.287622e+001 1.391579e+002 -2.267229e+001 1.386629e+002 -6.369103e+000 -1.081373e+000
10525243750 -8.352736e+000 -1.125234e+002 -2.245802e+001 1.358565e+002 -2.226357e+001 1.353554e+002 -6.488722e+000 -2.491952e+000
10543987500 -8.577478e+000 -1.139550e+002 -2.204383e+001 1.325671e+002 -2.185503e+001 1.320261e+002 -6.608295e+000 -3.902586e+000
10562731250 -8.820152e+000 -1.152918e+002 -2.164344e+001 1.292269e+002 -2.145692e+001 1.286297e+002 -6.732286e+000 -5.308845e+000
10581475000 -9.067786e+000 -1.165651e+002 -2.124440e+001 1.257887e+002 -2.106010e+001 1.251834e+002 -6.865758e+000 -6.726797e+000
10600218750 -9.314294e+000 -1.176722e+002 -2.085349e+001 1.223913e+002 -2.066868e+001 1.216894e+002 -7.001248e+000 -8.133420e+000
10618962500 -9.577456e+000 -1.186392e+002 -2.047005e+001 1.188371e+002 -2.029017e+001 1.181301e+002 -7.142822e+000 -9.545420e+000
10637706250 -9.843188e+000 -1.194507e+002 -2.007531e+001 1.152464e+002 -1.991898e+001 1.145548e+002 -7.290433e+000 -1.097612e+001
10656450000 -1.011703e+001 -1.200943e+002 -1.971000e+001 1.116495e+002 -1.955388e+001 1.109141e+002 -7.438142e+000 -1.239779e+001
10675193750 -1.039530e+001 -1.206159e+002 -1.934873e+001 1.079579e+002 -1.919437e+001 1.072059e+002 -7.593009e+000 -1.381151e+001
10693937500 -1.066626e+001 -1.210384e+002 -1.899062e+001 1.042895e+002 -1.884465e+001 1.035249e+002 -7.752274e+000 -1.521307e+001
10712681250 -1.092662e+001 -1.212767e+002 -1.865335e+001 1.005575e+002 -1.850324e+001 9.973119e+001 -7.918483e+000 -1.661269e+001
10731425000 -1.117671e+001 -1.213537e+002 -1.831373e+001 9.673187e+001 -1.817072e+001 9.592412e+001 -8.089838e+000 -1.799128e+001
10750168750 -1.141821e+001 -1.212268e+002 -1.797972e+001 9.295650e+001 -1.785813e+001 9.212881e+001 -8.267659e+000 -1.940359e+001
10768912500 -1.165412e+001 -1.209732e+002 -1.766514e+001 8.909499e+001 -1.755172e+001 8.822493e+001 -8.449105e+000 -2.080565e+001
10787656250 -1.187843e+001 -1.206528e+002 -1.734989e+001 8.517731e+001 -1.724308e+001 8.437499e+001 -8.635574e+000 -2.217379e+001
10806400000 -1.208556e+001 -1.202349e+002 -1.705093e+001 8.131818e+001 -1.695139e+001 8.048976e+001 -8.826141e+000 -2.355673e+001
10825143750 -1.227028e+001 -1.197371e+002 -1.676579e+001 7.736620e+001 -1.666707e+001 7.653581e+001 -9.023084e+000 -2.491069e+001
10843887500 -1.242466e+001 -1.191450e+002 -1.647660e+001 7.343591e+001 -1.638969e+001 7.263338e+001 -9.228139e+000 -2.625364e+001
10862631250 -1.256334e+001 -1.184102e+002 -1.621245e+001 6.951291e+001 -1.613378e+001 6.868390e+001 -9.438880e+000 -2.763779e+001
10881375000 -1.269243e+001 -1.176301e+002 -1.594978e+001 6.551413e+001 -1.587197e+001 6.470123e+001 -9.652057e+000 -2.897861e+001
10900118750 -1.280076e+001 -1.168547e+002 -1.569391e+001 6.157233e+001 -1.562502e+001 6.078822e+001 -9.871397e+000 -3.032734e+001
10918862500 -1.288673e+001 -1.160946e+002 -1.545662e+001 5.761311e+001 -1.539516e+001 5.681032e+001 -1.009632e+001 -3.167105e+001
10937606250 -1.294819e+001 -1.153712e+002 -1.522149e+001 5.357514e+001 -1.515975e+001 5.285030e+001 -1.033036e+001 -3.294951e+001
10956350000 -1.297738e+001 -1.146214e+002 -1.499648e+001 4.965395e+001 -1.494054e+001 4.893457e+001 -1.057303e+001 -3.425890e+001
10975093750 -1.299062e+001 -1.138316e+002 -1.478798e+001 4.566536e+001 -1.473627e+001 4.492794e+001 -1.082202e+001 -3.560760e+001
10993837500 -1.299189e+001 -1.130595e+002 -1.457833e+001 4.168036e+001 -1.452379e+001 4.098007e+001 -1.107799e+001 -3.688626e+001
11012581250 -1.298091e+001 -1.123857e+002 -1.438120e+001 3.775742e+001 -1.433313e+001 3.710048e+001 -1.134033e+001 -3.814848e+001
11031325000 -1.295727e+001 -1.118334e+002 -1.419168e+001 3.379246e+001 -1.414797e+001 3.313553e+001 -1.161002e+001 -3.937513e+001
11050068750 -1.290697e+001 -1.113899e+002 -1.400523e+001 2.985864e+001 -1.395822e+001 2.925596e+001 -1.188851e+001 -4.056626e+001
11068812500 -1.283688e+001 -1.110131e+002 -1.383507e+001 2.595974e+001 -1.379299e+001 2.540153e+001 -1.218248e+001 -4.175795e+001
11087556250 -1.275850e+001 -1.106656e+002 -1.366720e+001 2.202256e+001 -1.362371e+001 2.146371e+001 -1.248298e+001 -4.296239e+001
11106300000 -1.268052e+001 -1.104420e+002 -1.350325e+001 1.815837e+001 -1.345691e+001 1.765042e+001 -1.278857e+001 -4.411353e+001
11125043750 -1.259587e+001 -1.103407e+002 -1.335365e+001 1.429066e+001 -1.331149e+001 1.380498e+001 -1.310442e+001 -4.521777e+001
11143787500 -1.251325e+001 -1.103752e+002 -1.320363e+001 1.043738e+001 -1.316094e+001 9.938801e+000 -1.342872e+001 -4.623343e+001
11162531250 -1.242574e+001 -1.105505e+002 -1.306374e+001 6.644059e+000 -1.301278e+001 6.178038e+000 -1.377370e+001 -4.718933e+001
11181275000 -1.233122e+001 -1.108148e+002 -1.293460e+001 2.822962e+000 -1.288431e+001 2.371116e+000 -1.413001e+001 -4.811887e+001
11200018750 -1.224046e+001 -1.110955e+002 -1.280256e+001 -9.649804e-001 -1.274303e+001 -1.434744e+000 -1.449194e+001 -4.900728e+001
11218762500 -1.216047e+001 -1.114516e+002 -1.268079e+001 -4.713564e+000 -1.261829e+001 -5.117313e+000 -1.486076e+001 -4.981319e+001
11237506250 -1.209109e+001 -1.118969e+002 -1.256139e+001 -8.500741e+000 -1.250310e+001 -8.868711e+000 -1.523802e+001 -5.051831e+001
11256250000 -1.202610e+001 -1.124190e+002 -1.244077e+001 -1.220496e+001 -1.237973e+001 -1.258745e+001 -1.562716e+001 -5.101514e+001
11274993750 -1.196927e+001 -1.130323e+002 -1.233622e+001 -1.590691e+001 -1.227047e+001 -1.622994e+001 -1.603340e+001 -5.140329e+001
11293737500 -1.191230e+001 -1.136730e+002 -1.222823e+001 -1.963144e+001 -1.217009e+001 -1.992954e+001 -1.645305e+001 -5.170432e+001
11312481250 -1.186289e+001 -1.142796e+002 -1.212758e+001 -2.325190e+001 -1.206464e+001 -2.356976e+001 -1.688760e+001 -5.190984e+001
11331225000 -1.182507e+001 -1.149027e+002 -1.203478e+001 -2.691696e+001 -1.196994e+001 -2.717945e+001 -1.730789e+001 -5.200813e+001
11349968750 -1.179853e+001 -1.155427e+002 -1.193640e+001 -3.056601e+001 -1.187716e+001 -3.080250e+001 -1.771663e+001 -5.189423e+001
11368712500 -1.178051e+001 -1.162112e+002 -1.184843e+001 -3.410458e+001 -1.178305e+001 -3.437792e+001 -1.812206e+001 -5.151902e+001
11387456250 -1.176724e+001 -1.169080e+002 -1.176784e+001 -3.772804e+001 -1.169555e+001 -3.794437e+001 -1.854242e+001 -5.097794e+001
11406200000 -1.174866e+001 -1.175794e+002 -1.167859e+001 -4.129006e+001 -1.161039e+001 -4.151936e+001 -1.895198e+001 -5.025980e+001
11424943750 -1.173793e+001 -1.182099e+002 -1.160408e+001 -4.478823e+001 -1.153009e+001 -4.502752e+001 -1.935300e+001 -4.950497e+001
11443687500 -1.173500e+001 -1.188045e+002 -1.153090e+001 -4.833594e+001 -1.145880e+001 -4.855707e+001 -1.972879e+001 -4.865901e+001
11462431250 -1.173560e+001 -1.194085e+002 -1.145391e+001 -5.182849e+001 -1.138339e+001 -5.205995e+001 -2.006523e+001 -4.757078e+001
11481175000 -1.174616e+001 -1.200196e+002 -1.139309e+001 -5.526797e+001 -1.131589e+001 -5.551395e+001 -2.040018e+001 -4.629782e+001
11499918750 -1.175360e+001 -1.206372e+002 -1.132672e+001 -5.877320e+001 -1.124722e+001 -5.899640e+001 -2.070233e+001 -4.492238e+001
11518662500 -1.175594e+001 -1.212425e+002 -1.125811e+001 -6.216479e+001 -1.118189e+001 -6.241615e+001 -2.100271e+001 -4.338656e+001
11537406250 -1.176551e+001 -1.217613e+002 -1.120651e+001 -6.557260e+001 -1.112198e+001 -6.581043e+001 -2.127494e+001 -4.192255e+001
11556150000 -1.178014e+001 -1.222670e+002 -1.114742e+001 -6.901469e+001 -1.106231e+001 -6.921364e+001 -2.150084e+001 -4.053461e+001
11574893750 -1.179565e+001 -1.227702e+002 -1.108757e+001 -7.234317e+001 -1.100630e+001 -7.257121e+001 -2.168899e+001 -3.898214e+001
11593637500 -1.181414e+001 -1.233061e+002 -1.104155e+001 -7.571650e+001 -1.095722e+001 -7.592902e+001 -2.185378e+001 -3.738077e+001
11612381250 -1.182828e+001 -1.238510e+002 -1.098526e+001 -7.907487e+001 -1.089814e+001 -7.924763e+001 -2.199437e+001 -3.578573e+001
11631125000 -1.183233e+001 -1.243692e+002 -1.093339e+001 -8.233588e+001 -1.085195e+001 -8.254128e+001 -2.212134e+001 -3.413888e+001
11649868750 -1.184485e+001 -1.248350e+002 -1.089062e+001 -8.566753e+001 -1.080623e+001 -8.588970e+001 -2.223002e+001 -3.270242e+001
11668612500 -1.185634e+001 -1.253004e+002 -1.084167e+001 -8.894577e+001 -1.075941e+001 -8.915814e+001 -2.228599e+001 -3.137820e+001
11687356250 -1.187006e+001 -1.257800e+002 -1.080133e+001 -9.216048e+001 -1.071881e+001 -9.241930e+001 -2.230898e+001 -3.010738e+001
11706100000 -1.188672e+001 -1.262970e+002 -1.076438e+001 -9.544439e+001 -1.067563e+001 -9.568486e+001 -2.231075e+001 -2.894119e+001
11724843750 -1.189541e+001 -1.268292e+002 -1.071939e+001 -9.864398e+001 -1.062978e+001 -9.889159e+001 -2.228359e+001 -2.780880e+001
11743587500 -1.189822e+001 -1.273116e+002 -1.068508e+001 -1.018225e+002 -1.059504e+001 -1.020962e+002 -2.224069e+001 -2.675705e+001
11762331250 -1.190729e+001 -1.277846e+002 -1.065076e+001 -1.050452e+002 -1.055477e+001 -1.053164e+002 -2.219938e+001 -2.595724e+001
11781075000 -1.191556e+001 -1.282917e+002 -1.061009e+001 -1.081851e+002 -1.051616e+001 -1.084457e+002 -2.213296e+001 -2.544222e+001
11799818750 -1.192433e+001 -1.287748e+002 -1.057502e+001 -1.113251e+002 -1.048393e+001 -1.116311e+002 -2.205121e+001 -2.509699e+001
11818562500 -1.193252e+001 -1.293152e+002 -1.053807e+001 -1.144443e+002 -1.044547e+001 -1.147869e+002 -2.195945e+001 -2.488337e+001
11837306250 -1.193774e+001 -1.298659e+002 -1.050572e+001 -1.175624e+002 -1.041275e+001 -1.178569e+002 -2.186674e+001 -2.485905e+001
11856050000 -1.193856e+001 -1.304042e+002 -1.047223e+001 -1.206643e+002 -1.038353e+001 -1.210031e+002 -2.177498e+001 -2.499727e+001
11874793750 -1.194308e+001 -1.309411e+002 -1.044824e+001 -1.237523e+002 -1.034755e+001 -1.241241e+002 -2.169324e+001 -2.543205e+001
11893537500 -1.195394e+001 -1.314846e+002 -1.041444e+001 -1.268412e+002 -1.031888e+001 -1.271684e+002 -2.161533e+001 -2.613526e+001
11912281250 -1.196162e+001 -1.320589e+002 -1.038334e+001 -1.298492e+002 -1.029401e+001 -1.302640e+002 -2.152346e+001 -2.695116e+001
11931025000 -1.197306e+001 -1.326748e+002 -1.036095e+001 -1.328888e+002 -1.026308e+001 -1.333286e+002 -2.146833e+001 -2.796943e+001
11949768750 -1.197719e+001 -1.332905e+002 -1.032923e+001 -1.359469e+002 -1.023804e+001 -1.363642e+002 -2.140057e+001 -2.916241e+001
11968512500 -1.197662e+001 -1.338933e+002 -1.030165e+001 -1.389166e+002 -1.021704e+001 -1.394290e+002 -2.135531e+001 -3.047998e+001
11987256250 -1.198550e+001 -1.344782e+002 -1.028111e+001 -1.419217e+002 -1.018774e+001 -1.424545e+002 -2.133646e+001 -3.195103e+001
12006000000 -1.199927e+001 -1.350758e+002 -1.024976e+001 -1.449441e+002 -1.016183e+001 -1.454290e+002 -2.132464e+001 -3.361731e+001
12024743750 -1.201631e+001 -1.356946e+002 -1.022358e+001 -1.478641e+002 -1.014219e+001 -1.484368e+002 -2.132911e+001 -3.539164e+001
12043487500 -1.203779e+001 -1.363432e+002 -1.020250e+001 -1.508623e+002 -1.011532e+001 -1.514257e+002 -2.134940e+001 -3.733163e+001
12062231250 -1.205346e+001 -1.370369e+002 -1.017310e+001 -1.538456e+002 -1.009444e+001 -1.543733e+002 -2.138760e+001 -3.939657e+001
12080975000 -1.206565e+001 -1.376810e+002 -1.015121e+001 -1.567333e+002 -1.007642e+001 -1.573524e+002 -2.142957e+001 -4.158051e+001
12099718750 -1.208747e+001 -1.383228e+002 -1.013227e+001 -1.596976e+002 -1.005007e+001 -1.603069e+002 -2.149667e+001 -4.396678e+001
12118462500 -1.211375e+001 -1.389872e+002 -1.010283e+001 -1.626410e+002 -1.003033e+001 -1.632046e+002 -2.156623e+001 -4.641248e+001
12137206250 -1.214690e+001 -1.396434e+002 -1.008073e+001 -1.655046e+002 -1.001065e+001 -1.661673e+002 -2.165551e+001 -4.896622e+001
12155950000 -1.218151e+001 -1.403484e+002 -1.006226e+001 -1.684498e+002 -9.984400e+000 -1.690933e+002 -2.176040e+001 -5.173391e+001
12174693750 -1.221117e+001 -1.410710e+002 -1.003216e+001 -1.713751e+002 -9.965856e+000 -1.719812e+002 -2.186832e+001 -5.473125e+001
12193437500 -1.223925e+001 -1.417252e+002 -1.001219e+001 -1.742232e+002 -9.949218e+000 -1.749176e+002 -2.196745e+001 -5.784241e+001
12212181250 -1.227753e+001 -1.423740e+002 -9.996482e+000 -1.771565e+002 -9.926117e+000 -1.777998e+002 -2.209462e+001 -6.092376e+001
12230925000 -1.232469e+001 -1.430518e+002 -9.971784e+000 1.799557e+002 -9.912934e+000 1.793584e+002 -2.223416e+001 -6.413357e+001
12249668750 -1.237605e+001 -1.437536e+002 -9.957627e+000 1.770658e+002 -9.898386e+000 1.764192e+002 -2.237920e+001 -6.756687e+001
12268412500 -1.242703e+001 -1.444706e+002 -9.939360e+000 1.741769e+002 -9.876904e+000 1.735518e+002 -2.253509e+001 -7.121790e+001
12287156250 -1.247569e+001 -1.451843e+002 -9.919500e+000 1.713141e+002 -9.865232e+000 1.707072e+002 -2.266920e+001 -7.504087e+001
12305900000 -1.251998e+001 -1.458414e+002 -9.896235e+000 1.684585e+002 -9.846461e+000 1.678163e+002 -2.277845e+001 -7.889837e+001
12324643750 -1.257261e+001 -1.464742e+002 -9.883725e+000 1.656078e+002 -9.828061e+000 1.649679e+002 -2.290967e+001 -8.276257e+001
12343387500 -1.263474e+001 -1.471160e+002 -9.867427e+000 1.627057e+002 -9.816863e+000 1.621200e+002 -2.306097e+001 -8.686560e+001
12362131250 -1.270054e+001 -1.477699e+002 -9.845489e+000 1.598646e+002 -9.798697e+000 1.592501e+002 -2.319382e+001 -9.110947e+001
12380875000 -1.276519e+001 -1.484675e+002 -9.835057e+000 1.570186e+002 -9.783619e+000 1.564487e+002 -2.331502e+001 -9.571362e+001
12399618750 -1.282710e+001 -1.491558e+002 -9.818103e+000 1.541413e+002 -9.774021e+000 1.536098e+002 -2.339891e+001 -1.003452e+002
12418362500 -1.288933e+001 -1.497604e+002 -9.797247e+000 1.513271e+002 -9.755283e+000 1.507687e+002 -2.346620e+001 -1.048533e+002
12437106250 -1.295822e+001 -1.503569e+002 -9.791136e+000 1.484797e+002 -9.744445e+000 1.479607e+002 -2.354385e+001 -1.094968e+002
12455850000 -1.303375e+001 -1.509713e+002 -9.775912e+000 1.455998e+002 -9.736699e+000 1.451182e+002 -2.360398e+001 -1.143166e+002
12474593750 -1.310750e+001 -1.515982e+002 -9.762838e+000 1.428083e+002 -9.726208e+000 1.422859e+002 -2.365236e+001 -1.192132e+002
12493337500 -1.318514e+001 -1.522365e+002 -9.759645e+000 1.399570e+002 -9.716162e+000 1.394805e+002 -2.365045e+001 -1.243095e+002
12512081250 -1.325609e+001 -1.528689e+002 -9.744636e+000 1.370924e+002 -9.708241e+000 1.366615e+002 -2.361997e+001 -1.292568e+002
12530825000 -1.332570e+001 -1.534369e+002 -9.736879e+000 1.343105e+002 -9.699089e+000 1.338533e+002 -2.359493e+001 -1.340362e+002
12549568750 -1.340704e+001 -1.539693e+002 -9.734964e+000 1.314628e+002 -9.693118e+000 1.310515e+002 -2.356878e+001 -1.390254e+002
12568312500 -1.349087e+001 -1.545083e+002 -9.722203e+000 1.286447e+002 -9.690356e+000 1.282424e+002 -2.350308e+001 -1.440319e+002
12587056250 -1.357203e+001 -1.550792e+002 -9.716811e+000 1.258519e+002 -9.688524e+000 1.254637e+002 -2.340912e+001 -1.490899e+002
12605800000 -1.365707e+001 -1.556660e+002 -9.715408e+000 1.230481e+002 -9.681412e+000 1.226333e+002 -2.328027e+001 -1.539708e+002
12624543750 -1.373660e+001 -1.562467e+002 -9.707754e+000 1.202306e+002 -9.673628e+000 1.198706e+002 -2.314270e+001 -1.586836e+002
12643287500 -1.381348e+001 -1.567783e+002 -9.705151e+000 1.174510e+002 -9.675664e+000 1.170741e+002 -2.299117e+001 -1.633875e+002
12662031250 -1.389398e+001 -1.572755e+002 -9.705421e+000 1.146364e+002 -9.668853e+000 1.142458e+002 -2.282503e+001 -1.681374e+002
12680775000 -1.398289e+001 -1.577772e+002 -9.704732e+000 1.118487e+002 -9.671456e+000 1.115044e+002 -2.262921e+001 -1.728647e+002
12699518750 -1.407269e+001 -1.583559e+002 -9.707928e+000 1.090486e+002 -9.675929e+000 1.086979e+002 -2.239870e+001 -1.774225e+002
12718262500 -1.415807e+001 -1.589533e+002 -9.707228e+000 1.062401e+002 -9.670568e+000 1.059212e+002 -2.216514e+001 1.782057e+002
12737006250 -1.424679e+001 -1.594999e+002 -9.709652e+000 1.034633e+002 -9.674052e+000 1.031761e+002 -2.194062e+001 1.740475e+002
12755750000 -1.433082e+001 -1.600441e+002 -9.716557e+000 1.006618e+002 -9.681123e+000 1.003738e+002 -2.170961e+001 1.699010e+002
12774493750 -1.442046e+001 -1.605678e+002 -9.717475e+000 9.787893e+001 -9.679295e+000 9.759819e+001 -2.145607e+001 1.658163e+002
12793237500 -1.451349e+001 -1.611154e+002 -9.726877e+000 9.512139e+001 -9.688725e+000 9.486092e+001 -2.117921e+001 1.618661e+002
12811981250 -1.461460e+001 -1.617121e+002 -9.734938e+000 9.232047e+001 -9.695847e+000 9.205856e+001 -2.089369e+001 1.582281e+002
12830725000 -1.470856e+001 -1.623603e+002 -9.739339e+000 8.954757e+001 -9.694707e+000 8.929901e+001 -2.062181e+001 1.547380e+002
12849468750 -1.480277e+001 -1.630173e+002 -9.753740e+000 8.677930e+001 -9.707160e+000 8.654277e+001 -2.035911e+001 1.512990e+002
12868212500 -1.490094e+001 -1.636407e+002 -9.763781e+000 8.397254e+001 -9.719956e+000 8.374848e+001 -2.008906e+001 1.479469e+002
12886956250 -1.500191e+001 -1.642567e+002 -9.771172e+000 8.123541e+001 -9.722022e+000 8.100266e+001 -1.981220e+001 1.446433e+002
12905700000 -1.511375e+001 -1.649162e+002 -9.789922e+000 7.845986e+001 -9.733093e+000 7.827065e+001 -1.952556e+001 1.415143e+002
12924443750 -1.522300e+001 -1.656434e+002 -9.798429e+000 7.567956e+001 -9.746138e+000 7.548051e+001 -1.924797e+001 1.385991e+002
12943187500 -1.533720e+001 -1.664078e+002 -9.811963e+000 7.298164e+001 -9.754014e+000 7.273444e+001 -1.898932e+001 1.357436e+002
12961931250 -1.545591e+001 -1.671277e+002 -9.830886e+000 7.019611e+001 -9.772657e+000 6.998992e+001 -1.872565e+001 1.329100e+002
12980675000 -1.557538e+001 -1.678614e+002 -9.839256e+000 6.742705e+001 -9.787461e+000 6.720109e+001 -1.846671e+001 1.301984e+002
12999418750 -1.570340e+001 -1.686338e+002 -9.859233e+000 6.469453e+001 -9.794054e+000 6.446355e+001 -1.821225e+001 1.275229e+002
13018162500 -1.585318e+001 -1.694361e+002 -9.883669e+000 6.192510e+001 -9.811629e+000 6.172425e+001 -1.795913e+001 1.250319e+002
13036906250 -1.599687e+001 -1.703723e+002 -9.898390e+000 5.914363e+001 -9.832561e+000 5.896556e+001 -1.771894e+001 1.225883e+002
13055650000 -1.614111e+001 -1.712914e+002 -9.924397e+000 5.645351e+001 -9.851243e+000 5.623069e+001 -1.749292e+001 1.201809e+002
13074393750 -1.630222e+001 -1.721311e+002 -9.950996e+000 5.366543e+001 -9.873057e+000 5.350029e+001 -1.727140e+001 1.178023e+002
13093137500 -1.647302e+001 -1.729975e+002 -9.970534e+000 5.092281e+001 -9.896051e+000 5.073450e+001 -1.704424e+001 1.154434e+002
13111881250 -1.665973e+001 -1.739046e+002 -9.996386e+000 4.819032e+001 -9.914969e+000 4.800477e+001 -1.681983e+001 1.132111e+002
13130625000 -1.686783e+001 -1.748645e+002 -1.001999e+001 4.544172e+001 -9.939902e+000 4.528798e+001 -1.659836e+001 1.110129e+002
13149368750 -1.707292e+001 -1.759474e+002 -1.004193e+001 4.271848e+001 -9.965232e+000 4.250416e+001 -1.638722e+001 1.089297e+002
13168112500 -1.728945e+001 -1.770183e+002 -1.007344e+001 3.998585e+001 -9.988838e+000 3.978093e+001 -1.618988e+001 1.067992e+002
13186856250 -1.752446e+001 -1.779841e+002 -1.010011e+001 3.724363e+001 -1.001930e+001 3.707458e+001 -1.598294e+001 1.046382e+002
13205600000 -1.777868e+001 -1.790218e+002 -1.012747e+001 3.454112e+001 -1.004262e+001 3.431878e+001 -1.577576e+001 1.025845e+002
13224343750 -1.806697e+001 1.798935e+002 -1.016312e+001 3.180253e+001 -1.006711e+001 3.161497e+001 -1.557733e+001 1.005291e+002
13243087500 -1.838317e+001 1.787271e+002 -1.019260e+001 2.907755e+001 -1.010328e+001 2.889557e+001 -1.538328e+001 9.854592e+001
13261831250 -1.869953e+001 1.775215e+002 -1.022374e+001 2.638143e+001 -1.013342e+001 2.614014e+001 -1.520382e+001 9.661767e+001
13280575000 -1.903673e+001 1.763693e+002 -1.026034e+001 2.364638e+001 -1.016451e+001 2.345052e+001 -1.502926e+001 9.461973e+001
13299318750 -1.941914e+001 1.752877e+002 -1.029280e+001 2.094947e+001 -1.020352e+001 2.072136e+001 -1.484812e+001 9.262450e+001
13318062500 -1.984838e+001 1.742200e+002 -1.033294e+001 1.825693e+001 -1.023639e+001 1.796957e+001 -1.467231e+001 9.075412e+001
13336806250 -2.033210e+001 1.730571e+002 -1.036835e+001 1.551667e+001 -1.027331e+001 1.528017e+001 -1.449462e+001 8.886245e+001
13355550000 -2.088823e+001 1.716935e+002 -1.040499e+001 1.282833e+001 -1.031452e+001 1.255073e+001 -1.432434e+001 8.704293e+001
13374293750 -2.144615e+001 1.701916e+002 -1.044961e+001 1.010325e+001 -1.034744e+001 9.821310e+000 -1.416609e+001 8.525313e+001
13393037500 -2.206793e+001 1.690190e+002 -1.048694e+001 7.378235e+000 -1.038450e+001 7.154359e+000 -1.401191e+001 8.338477e+001
13411781250 -2.282063e+001 1.679886e+002 -1.053236e+001 4.704129e+000 -1.042995e+001 4.414944e+000 -1.385227e+001 8.155466e+001
13430525000 -2.380515e+001 1.675045e+002 -1.058005e+001 1.989707e+000 -1.047152e+001 1.699359e+000 -1.370257e+001 7.975571e+001
13449268750 -2.551196e+001 1.748456e+002 -1.061981e+001 -7.236518e-001 -1.051665e+001 -9.923120e-001 -1.355359e+001 7.794398e+001
13468012500 -2.664272e+001 -1.765922e+002 -1.066904e+001 -3.381103e+000 -1.056316e+001 -3.714082e+000 -1.340550e+001 7.619068e+001
13486756250 -2.775200e+001 -1.694536e+002 -1.071648e+001 -6.102357e+000 -1.060594e+001 -6.434800e+000 -1.326799e+001 7.445619e+001
13505500000 -2.855557e+001 -1.633822e+002 -1.076048e+001 -8.773954e+000 -1.065387e+001 -9.124456e+000 -1.312400e+001 7.265053e+001
13524243750 -2.915583e+001 -1.573976e+002 -1.081648e+001 -1.144053e+001 -1.070358e+001 -1.184009e+001 -1.298820e+001 7.091746e+001
13542987500 -2.959916e+001 -1.514202e+002 -1.086633e+001 -1.412914e+001 -1.074824e+001 -1.452929e+001 -1.286047e+001 6.918933e+001
13561731250 -2.992822e+001 -1.449921e+002 -1.091756e+001 -1.678556e+001 -1.080305e+001 -1.719041e+001 -1.273718e+001 6.743933e+001
13580475000 -3.024798e+001 -1.383421e+002 -1.097859e+001 -1.945686e+001 -1.085557e+001 -1.987852e+001 -1.262193e+001 6.575211e+001
13599218750 -3.050567e+001 -1.320349e+002 -1.102938e+001 -2.213238e+001 -1.090738e+001 -2.253671e+001 -1.251676e+001 6.403384e+001
13617962500 -3.068825e+001 -1.258591e+002 -1.108375e+001 -2.475275e+001 -1.096709e+001 -2.521225e+001 -1.240996e+001 6.229698e+001
13636706250 -3.078795e+001 -1.197041e+002 -1.114586e+001 -2.742441e+001 -1.102499e+001 -2.788735e+001 -1.230542e+001 6.060271e+001
13655450000 -3.079160e+001 -1.135409e+002 -1.119700e+001 -3.006538e+001 -1.108275e+001 -3.052569e+001 -1.220986e+001 5.893016e+001
13674193750 -3.072920e+001 -1.070452e+002 -1.125862e+001 -3.267360e+001 -1.113873e+001 -3.318351e+001 -1.211302e+001 5.725841e+001
13692937500 -3.066534e+001 -1.006019e+002 -1.132368e+001 -3.533286e+001 -1.119497e+001 -3.584829e+001 -1.202607e+001 5.565635e+001
13711681250 -3.054329e+001 -9.442312e+001 -1.137807e+001 -3.794186e+001 -1.125307e+001 -3.846684e+001 -1.195131e+001 5.402278e+001
13730425000 -3.033446e+001 -8.829645e+001 -1.144101e+001 -4.053997e+001 -1.131009e+001 -4.111356e+001 -1.187406e+001 5.237131e+001
13749168750 -3.004152e+001 -8.229578e+001 -1.150073e+001 -4.321441e+001 -1.136504e+001 -4.373340e+001 -1.180094e+001 5.075771e+001
13767912500 -2.964363e+001 -7.614757e+001 -1.155960e+001 -4.578559e+001 -1.142629e+001 -4.635714e+001 -1.173358e+001 4.912344e+001
13786656250 -2.917064e+001 -6.961740e+001 -1.162501e+001 -4.837547e+001 -1.148613e+001 -4.898072e+001 -1.166781e+001 4.752627e+001
13805400000 -2.868547e+001 -6.311760e+001 -1.168229e+001 -5.100444e+001 -1.154484e+001 -5.157213e+001 -1.161052e+001 4.596415e+001
13824143750 -2.809752e+001 -5.705035e+001 -1.173901e+001 -5.357076e+001 -1.160850e+001 -5.420444e+001 -1.155943e+001 4.436355e+001
13842887500 -2.734702e+001 -5.109505e+001 -1.180454e+001 -5.615179e+001 -1.166743e+001 -5.682344e+001 -1.150758e+001 4.278045e+001
13861631250 -2.634036e+001 -4.576565e+001 -1.186003e+001 -5.876196e+001 -1.172492e+001 -5.941182e+001 -1.146025e+001 4.122120e+001
13880375000 -2.456429e+001 -4.814459e+001 -1.192088e+001 -6.129202e+001 -1.178590e+001 -6.202323e+001 -1.141508e+001 3.966171e+001
13899118750 -2.336766e+001 -5.156992e+001 -1.198453e+001 -6.391111e+001 -1.184527e+001 -6.464554e+001 -1.137520e+001 3.814530e+001
13917862500 -2.218552e+001 -5.374870e+001 -1.204212e+001 -6.652090e+001 -1.190535e+001 -6.722845e+001 -1.134390e+001 3.667767e+001
13936606250 -2.126052e+001 -5.496894e+001 -1.210070e+001 -6.906566e+001 -1.196652e+001 -6.983964e+001 -1.132093e+001 3.516106e+001
13955350000 -2.051770e+001 -5.610138e+001 -1.216350e+001 -7.168766e+001 -1.202720e+001 -7.242535e+001 -1.129392e+001 3.365117e+001
13974093750 -1.989299e+001 -5.724546e+001 -1.222008e+001 -7.428324e+001 -1.208900e+001 -7.504006e+001 -1.127080e+001 3.216842e+001
13992837500 -1.933906e+001 -5.871001e+001 -1.228178e+001 -7.683586e+001 -1.215062e+001 -7.768439e+001 -1.125282e+001 3.070135e+001
14011581250 -1.880532e+001 -6.027151e+001 -1.234301e+001 -7.945493e+001 -1.220823e+001 -8.029104e+001 -1.122912e+001 2.926411e+001
14030325000 -1.831354e+001 -6.168736e+001 -1.239937e+001 -8.205081e+001 -1.227103e+001 -8.291341e+001 -1.122065e+001 2.787170e+001
14049068750 -1.785317e+001 -6.306108e+001 -1.246318e+001 -8.462727e+001 -1.232853e+001 -8.552312e+001 -1.121927e+001 2.646335e+001
14067812500 -1.744477e+001 -6.436157e+001 -1.252278e+001 -8.728215e+001 -1.238985e+001 -8.814104e+001 -1.121600e+001 2.504886e+001
14086556250 -1.708378e+001 -6.565252e+001 -1.257804e+001 -8.988707e+001 -1.244737e+001 -9.078723e+001 -1.121891e+001 2.365969e+001
14105300000 -1.674266e+001 -6.706307e+001 -1.264195e+001 -9.248743e+001 -1.250663e+001 -9.343306e+001 -1.122765e+001 2.228588e+001
14124043750 -1.641289e+001 -6.840862e+001 -1.269967e+001 -9.516019e+001 -1.257163e+001 -9.605406e+001 -1.123205e+001 2.096469e+001
14142787500 -1.610359e+001 -6.966321e+001 -1.275791e+001 -9.777229e+001 -1.263521e+001 -9.873199e+001 -1.124495e+001 1.964970e+001
14161531250 -1.581164e+001 -7.092429e+001 -1.282354e+001 -1.004036e+002 -1.269487e+001 -1.013937e+002 -1.126795e+001 1.834108e+001
14180275000 -1.555328e+001 -7.206858e+001 -1.288225e+001 -1.030701e+002 -1.276258e+001 -1.040301e+002 -1.128733e+001 1.706912e+001
14199018750 -1.532382e+001 -7.324936e+001 -1.294093e+001 -1.057106e+002 -1.282536e+001 -1.067184e+002 -1.131620e+001 1.581809e+001
14217762500 -1.509037e+001 -7.447018e+001 -1.300948e+001 -1.083855e+002 -1.288818e+001 -1.094054e+002 -1.134628e+001 1.458632e+001
14236506250 -1.487246e+001 -7.556975e+001 -1.306728e+001 -1.110829e+002 -1.295748e+001 -1.120933e+002 -1.137550e+001 1.339040e+001
14255250000 -1.467001e+001 -7.667847e+001 -1.313233e+001 -1.137260e+002 -1.302461e+001 -1.147975e+002 -1.141677e+001 1.225024e+001
14273993750 -1.448026e+001 -7.776340e+001 -1.320115e+001 -1.164543e+002 -1.309090e+001 -1.174820e+002 -1.145829e+001 1.107401e+001
14292737500 -1.430367e+001 -7.875256e+001 -1.326087e+001 -1.191663e+002 -1.316664e+001 -1.201888e+002 -1.150040e+001 9.977829e+000
14311481250 -1.414439e+001 -7.979619e+001 -1.332916e+001 -1.218668e+002 -1.323312e+001 -1.229263e+002 -1.155186e+001 8.919585e+000
14330225000 -1.398337e+001 -8.085274e+001 -1.340134e+001 -1.245865e+002 -1.329831e+001 -1.256233e+002 -1.160567e+001 7.857620e+000
14348968750 -1.383120e+001 -8.182200e+001 -1.346460e+001 -1.273109e+002 -1.337704e+001 -1.283613e+002 -1.165726e+001 6.837399e+000
14367712500 -1.369094e+001 -8.276632e+001 -1.354355e+001 -1.300187e+002 -1.344511e+001 -1.311321e+002 -1.171773e+001 5.880289e+000
14386456250 -1.355532e+001 -8.365784e+001 -1.361475e+001 -1.327647e+002 -1.351643e+001 -1.338665e+002 -1.177834e+001 4.895508e+000
14405200000 -1.343360e+001 -8.449754e+001 -1.368133e+001 -1.355087e+002 -1.359618e+001 -1.366013e+002 -1.183511e+001 3.996902e+000
14423943750 -1.332350e+001 -8.531176e+001 -1.376055e+001 -1.382614e+002 -1.366432e+001 -1.393755e+002 -1.189247e+001 3.121943e+000
14442687500 -1.321015e+001 -8.609522e+001 -1.383707e+001 -1.410690e+002 -1.374574e+001 -1.421252e+002 -1.195539e+001 2.289820e+000
14461431250 -1.309726e+001 -8.683345e+001 -1.390788e+001 -1.438266e+002 -1.382910e+001 -1.449299e+002 -1.201082e+001 1.508896e+000
14480175000 -1.299124e+001 -8.754655e+001 -1.398974e+001 -1.466137e+002 -1.390283e+001 -1.477565e+002 -1.207810e+001 7.502595e-001
14498918750 -1.289166e+001 -8.816437e+001 -1.406735e+001 -1.494160e+002 -1.398698e+001 -1.505154e+002 -1.213931e+001 -7.908724e-003
14517662500 -1.279626e+001 -8.876582e+001 -1.415275e+001 -1.522104e+002 -1.407741e+001 -1.533668e+002 -1.219608e+001 -7.224897e-001
14536406250 -1.270107e+001 -8.939650e+001 -1.424168e+001 -1.550392e+002 -1.416063e+001 -1.561870e+002 -1.225276e+001 -1.437789e+000
14555150000 -1.260617e+001 -8.994230e+001 -1.432731e+001 -1.578555e+002 -1.425316e+001 -1.589928e+002 -1.230548e+001 -2.108269e+000
14573893750 -1.251201e+001 -9.045767e+001 -1.441988e+001 -1.606838e+002 -1.434750e+001 -1.618700e+002 -1.235647e+001 -2.702077e+000
14592637500 -1.241748e+001 -9.095672e+001 -1.451462e+001 -1.635383e+002 -1.443681e+001 -1.646709e+002 -1.240733e+001 -3.309728e+000
14611381250 -1.232489e+001 -9.137740e+001 -1.460846e+001 -1.663586e+002 -1.453697e+001 -1.674917e+002 -1.245661e+001 -3.934686e+000
14630125000 -1.223256e+001 -9.181268e+001 -1.470873e+001 -1.691975e+002 -1.463862e+001 -1.704035e+002 -1.249747e+001 -4.494837e+000
14648868750 -1.214129e+001 -9.225362e+001 -1.480921e+001 -1.720466e+002 -1.473743e+001 -1.732244e+002 -1.253806e+001 -5.105670e+000
14667612500 -1.204497e+001 -9.263119e+001 -1.491812e+001 -1.748990e+002 -1.484639e+001 -1.760780e+002 -1.256904e+001 -5.651055e+000
14686356250 -1.195021e+001 -9.301454e+001 -1.503022e+001 -1.777549e+002 -1.494757e+001 -1.790011e+002 -1.260124e+001 -6.168443e+000
14705100000 -1.185164e+001 -9.337612e+001 -1.514059e+001 1.793872e+002 -1.505335e+001 1.781735e+002 -1.263788e+001 -6.697165e+000
14723843750 -1.175483e+001 -9.366960e+001 -1.525409e+001 1.765414e+002 -1.517086e+001 1.753025e+002 -1.266306e+001 -7.269925e+000
14742587500 -1.165756e+001 -9.402097e+001 -1.537062e+001 1.736554e+002 -1.527986e+001 1.723903e+002 -1.268375e+001 -7.828432e+000
14761331250 -1.155637e+001 -9.434413e+001 -1.548594e+001 1.707761e+002 -1.540164e+001 1.695613e+002 -1.269739e+001 -8.426500e+000
14780075000 -1.145305e+001 -9.466132e+001 -1.561016e+001 1.679247e+002 -1.552689e+001 1.666674e+002 -1.270600e+001 -9.005815e+000
14798818750 -1.134794e+001 -9.499124e+001 -1.573324e+001 1.650251e+002 -1.565020e+001 1.637772e+002 -1.271568e+001 -9.576710e+000
14817562500 -1.123545e+001 -9.528180e+001 -1.585942e+001 1.621575e+002 -1.578078e+001 1.609335e+002 -1.272813e+001 -1.018351e+001
14836306250 -1.112600e+001 -9.556882e+001 -1.599682e+001 1.593035e+002 -1.591459e+001 1.580175e+002 -1.273223e+001 -1.083971e+001
14855050000 -1.101167e+001 -9.592393e+001 -1.612741e+001 1.564252e+002 -1.604410e+001 1.551552e+002 -1.273654e+001 -1.148807e+001
14873793750 -1.089502e+001 -9.627509e+001 -1.626204e+001 1.536150e+002 -1.618314e+001 1.523218e+002 -1.273425e+001 -1.223942e+001
14892537500 -1.077582e+001 -9.659889e+001 -1.640925e+001 1.507658e+002 -1.632335e+001 1.494367e+002 -1.272429e+001 -1.297126e+001
14911281250 -1.065506e+001 -9.695438e+001 -1.655262e+001 1.479059e+002 -1.646458e+001 1.465997e+002 -1.271554e+001 -1.373457e+001
14930025000 -1.052838e+001 -9.732494e+001 -1.670158e+001 1.450838e+002 -1.661293e+001 1.437508e+002 -1.271193e+001 -1.454751e+001
14948768750 -1.040773e+001 -9.768938e+001 -1.685406e+001 1.422224e+002 -1.676143e+001 1.409025e+002 -1.270309e+001 -1.539005e+001
14967512500 -1.028684e+001 -9.809916e+001 -1.699928e+001 1.394050e+002 -1.690995e+001 1.381109e+002 -1.269640e+001 -1.625588e+001
14986256250 -1.015865e+001 -9.855324e+001 -1.715725e+001 1.366297e+002 -1.706310e+001 1.352578e+002 -1.268895e+001 -1.724759e+001
15005000000 -1.003220e+001 -9.897224e+001 -1.731257e+001 1.338055e+002 -1.722456e+001 1.324521e+002 -1.267305e+001 -1.826989e+001
15023743750 -9.909355e+000 -9.942982e+001 -1.746597e+001 1.310450e+002 -1.738940e+001 1.296426e+002 -1.266208e+001 -1.926427e+001
15042487500 -9.777474e+000 -9.990421e+001 -1.763043e+001 1.282643e+002 -1.755033e+001 1.268151e+002 -1.265505e+001 -2.038437e+001
15061231250 -9.653914e+000 -1.003615e+002 -1.779390e+001 1.254497e+002 -1.771377e+001 1.240547e+002 -1.264493e+001 -2.156436e+001
15079975000 -9.534579e+000 -1.008976e+002 -1.795502e+001 1.226952e+002 -1.788500e+001 1.212758e+002 -1.264375e+001 -2.273521e+001
15098718750 -9.405228e+000 -1.014275e+002 -1.813132e+001 1.199615e+002 -1.805601e+001 1.184848e+002 -1.264526e+001 -2.404555e+001
15117462500 -9.280313e+000 -1.019784e+002 -1.829898e+001 1.171540e+002 -1.823386e+001 1.157470e+002 -1.264294e+001 -2.534430e+001
15136206250 -9.157497e+000 -1.025554e+002 -1.846452e+001 1.144615e+002 -1.841570e+001 1.130013e+002 -1.265192e+001 -2.669700e+001
15154950000 -9.028202e+000 -1.031278e+002 -1.865024e+001 1.117671e+002 -1.859041e+001 1.102735e+002 -1.265975e+001 -2.816318e+001
15173693750 -8.910652e+000 -1.036910e+002 -1.882932e+001 1.090110e+002 -1.877805e+001 1.076030e+002 -1.267277e+001 -2.963427e+001
15192437500 -8.793085e+000 -1.043358e+002 -1.900663e+001 1.063516e+002 -1.896490e+001 1.048786e+002 -1.269745e+001 -3.115669e+001
15211181250 -8.670979e+000 -1.049481e+002 -1.919917e+001 1.036763e+002 -1.914399e+001 1.022102e+002 -1.272145e+001 -3.278890e+001
15229925000 -8.559199e+000 -1.056022e+002 -1.938459e+001 1.009845e+002 -1.933671e+001 9.956491e+001 -1.275256e+001 -3.442141e+001
15248668750 -8.444528e+000 -1.062789e+002 -1.957019e+001 9.838750e+001 -1.952634e+001 9.688037e+001 -1.278974e+001 -3.610615e+001
15267412500 -8.327401e+000 -1.069066e+002 -1.977077e+001 9.574908e+001 -1.971543e+001 9.426598e+001 -1.283648e+001 -3.789906e+001
15286156250 -8.227058e+000 -1.075760e+002 -1.995714e+001 9.308079e+001 -1.991289e+001 9.162149e+001 -1.288621e+001 -3.971663e+001
15304900000 -8.117892e+000 -1.082750e+002 -2.014981e+001 9.048221e+001 -2.010813e+001 8.893171e+001 -1.294710e+001 -4.159324e+001
15323643750 -8.010580e+000 -1.089556e+002 -2.035213e+001 8.786390e+001 -2.030018e+001 8.636005e+001 -1.301341e+001 -4.354491e+001
15342387500 -7.913585e+000 -1.096598e+002 -2.054151e+001 8.523979e+001 -2.050412e+001 8.382159e+001 -1.308897e+001 -4.551762e+001
15361131250 -7.810861e+000 -1.103859e+002 -2.073628e+001 8.269978e+001 -2.070790e+001 8.120692e+001 -1.316952e+001 -4.759737e+001
15379875000 -7.710788e+000 -1.110670e+002 -2.093585e+001 8.013850e+001 -2.091080e+001 7.865124e+001 -1.325966e+001 -4.972617e+001
15398618750 -7.622073e+000 -1.117976e+002 -2.113269e+001 7.757684e+001 -2.112149e+001 7.611767e+001 -1.335819e+001 -5.187763e+001
15417362500 -7.528092e+000 -1.125283e+002 -2.133102e+001 7.505429e+001 -2.132057e+001 7.359058e+001 -1.346872e+001 -5.411903e+001
15436106250 -7.437181e+000 -1.132741e+002 -2.153649e+001 7.249844e+001 -2.152075e+001 7.105978e+001 -1.359824e+001 -5.643563e+001
15454850000 -7.348565e+000 -1.140431e+002 -2.173275e+001 6.996838e+001 -2.172538e+001 6.856131e+001 -1.373605e+001 -5.886430e+001
15473593750 -7.261371e+000 -1.147898e+002 -2.194167e+001 6.755412e+001 -2.193647e+001 6.606335e+001 -1.387787e+001 -6.134603e+001
15492337500 -7.176914e+000 -1.155386e+002 -2.215642e+001 6.503920e+001 -2.214529e+001 6.361292e+001 -1.403185e+001 -6.386021e+001
15511081250 -7.095175e+000 -1.162953e+002 -2.235770e+001 6.257691e+001 -2.235590e+001 6.117567e+001 -1.419013e+001 -6.648260e+001
15529825000 -7.014268e+000 -1.170709e+002 -2.256092e+001 6.015105e+001 -2.256062e+001 5.874993e+001 -1.437156e+001 -6.915479e+001
15548568750 -6.936320e+000 -1.178299e+002 -2.277214e+001 5.769415e+001 -2.277105e+001 5.630518e+001 -1.456706e+001 -7.200813e+001
15567312500 -6.860661e+000 -1.185970e+002 -2.297966e+001 5.525499e+001 -2.298998e+001 5.383899e+001 -1.475979e+001 -7.499667e+001
15586056250 -6.786696e+000 -1.193741e+002 -2.319271e+001 5.282000e+001 -2.320264e+001 5.138028e+001 -1.496651e+001 -7.804166e+001
15604800000 -6.715044e+000 -1.201446e+002 -2.340066e+001 5.039333e+001 -2.340957e+001 4.897177e+001 -1.518219e+001 -8.126414e+001
15623543750 -6.645655e+000 -1.209031e+002 -2.361214e+001 4.800576e+001 -2.362535e+001 4.654272e+001 -1.540797e+001 -8.453606e+001
15642287500 -6.577096e+000 -1.216844e+002 -2.383082e+001 4.562687e+001 -2.384116e+001 4.411747e+001 -1.566072e+001 -8.798035e+001
15661031250 -6.509983e+000 -1.224321e+002 -2.404142e+001 4.320584e+001 -2.404468e+001 4.175718e+001 -1.591120e+001 -9.170994e+001
15679775000 -6.444895e+000 -1.231987e+002 -2.425489e+001 4.079557e+001 -2.426738e+001 3.938404e+001 -1.616340e+001 -9.557121e+001
15698518750 -6.383278e+000 -1.239763e+002 -2.447643e+001 3.835449e+001 -2.448209e+001 3.699464e+001 -1.641372e+001 -9.963006e+001
15717262500 -6.319517e+000 -1.247284e+002 -2.469638e+001 3.596805e+001 -2.470866e+001 3.469072e+001 -1.666104e+001 -1.037641e+002
15736006250 -6.262662e+000 -1.255004e+002 -2.491496e+001 3.361343e+001 -2.493838e+001 3.236751e+001 -1.693355e+001 -1.081159e+002
15754750000 -6.205190e+000 -1.262658e+002 -2.514166e+001 3.124785e+001 -2.516602e+001 3.003899e+001 -1.720724e+001 -1.128475e+002
15773493750 -6.148729e+000 -1.270213e+002 -2.536544e+001 2.889983e+001 -2.539468e+001 2.768540e+001 -1.744293e+001 -1.177786e+002
15792237500 -6.095880e+000 -1.277798e+002 -2.560152e+001 2.654472e+001 -2.560867e+001 2.539148e+001 -1.766189e+001 -1.228130e+002
15810981250 -6.042779e+000 -1.285367e+002 -2.582905e+001 2.421408e+001 -2.583243e+001 2.309582e+001 -1.786766e+001 -1.280332e+002
15829725000 -5.988490e+000 -1.292597e+002 -2.605979e+001 2.189345e+001 -2.606588e+001 2.081969e+001 -1.806966e+001 -1.334181e+002
15848468750 -5.940036e+000 -1.300081e+002 -2.629340e+001 1.962563e+001 -2.630152e+001 1.855413e+001 -1.825773e+001 -1.390254e+002
15867212500 -5.890373e+000 -1.307802e+002 -2.653276e+001 1.731650e+001 -2.654383e+001 1.634397e+001 -1.840388e+001 -1.448933e+002
15885956250 -5.843407e+000 -1.314795e+002 -2.678340e+001 1.504471e+001 -2.678467e+001 1.398872e+001 -1.850796e+001 -1.509247e+002
15904700000 -5.798364e+000 -1.322410e+002 -2.702850e+001 1.272021e+001 -2.701562e+001 1.174396e+001 -1.857823e+001 -1.569142e+002
15923443750 -5.753728e+000 -1.329876e+002 -2.726605e+001 1.055245e+001 -2.726661e+001 9.508778e+000 -1.863737e+001 -1.630221e+002
15942187500 -5.708366e+000 -1.336772e+002 -2.751602e+001 8.416054e+000 -2.751001e+001 7.186479e+000 -1.867481e+001 -1.692714e+002
15960931250 -5.669309e+000 -1.344315e+002 -2.775557e+001 6.208081e+000 -2.775791e+001 4.973274e+000 -1.866455e+001 -1.756293e+002
15979675000 -5.625242e+000 -1.351680e+002 -2.800822e+001 4.020185e+000 -2.801435e+001 2.805720e+000 -1.860755e+001 1.780173e+002
15998418750 -5.582068e+000 -1.358690e+002 -2.827172e+001 1.825875e+000 -2.825523e+001 6.334220e-001 -1.851780e+001 1.717740e+002
16017162500 -5.547973e+000 -1.366104e+002 -2.853540e+001 -4.162780e-001 -2.849725e+001 -1.542514e+000 -1.839899e+001 1.655892e+002
16035906250 -5.505375e+000 -1.373375e+002 -2.878865e+001 -2.470183e+000 -2.877742e+001 -3.729337e+000 -1.826226e+001 1.594227e+002
16054650000 -5.466349e+000 -1.380397e+002 -2.906015e+001 -4.638122e+000 -2.902999e+001 -5.919145e+000 -1.808660e+001 1.532300e+002
16073393750 -5.432555e+000 -1.387651e+002 -2.931317e+001 -6.782904e+000 -2.928596e+001 -8.059265e+000 -1.786560e+001 1.470724e+002
16092137500 -5.391354e+000 -1.394876e+002 -2.958214e+001 -8.858168e+000 -2.957434e+001 -1.020508e+001 -1.760764e+001 1.411376e+002
16110881250 -5.355172e+000 -1.401790e+002 -2.984610e+001 -1.089427e+001 -2.982128e+001 -1.229791e+001 -1.732607e+001 1.353493e+002
16129625000 -5.323980e+000 -1.408955e+002 -3.010184e+001 -1.301546e+001 -3.008130e+001 -1.431402e+001 -1.703193e+001 1.297672e+002
16148368750 -5.286367e+000 -1.415997e+002 -3.038007e+001 -1.504920e+001 -3.035062e+001 -1.653982e+001 -1.672682e+001 1.242352e+002
16167112500 -5.249524e+000 -1.422717e+002 -3.065388e+001 -1.720254e+001 -3.061389e+001 -1.867719e+001 -1.637810e+001 1.188625e+002
16185856250 -5.221091e+000 -1.429926e+002 -3.090729e+001 -1.925397e+001 -3.089929e+001 -2.079467e+001 -1.600297e+001 1.137208e+002
16204600000 -5.182796e+000 -1.436893e+002 -3.118434e+001 -2.129801e+001 -3.118526e+001 -2.295411e+001 -1.562847e+001 1.088466e+002
16223343750 -5.150735e+000 -1.443484e+002 -3.146282e+001 -2.338344e+001 -3.148676e+001 -2.518231e+001 -1.526101e+001 1.041577e+002
16242087500 -5.122798e+000 -1.450683e+002 -3.174576e+001 -2.525277e+001 -3.177575e+001 -2.719998e+001 -1.488605e+001 9.959892e+001
16260831250 -5.086990e+000 -1.457778e+002 -3.203447e+001 -2.725303e+001 -3.205881e+001 -2.931529e+001 -1.449646e+001 9.525164e+001
16279575000 -5.058386e+000 -1.464509e+002 -3.233599e+001 -2.931797e+001 -3.235131e+001 -3.137704e+001 -1.410563e+001 9.108438e+001
16298318750 -5.031279e+000 -1.471252e+002 -3.262741e+001 -3.121879e+001 -3.265433e+001 -3.323584e+001 -1.371690e+001 8.714879e+001
16317062500 -4.995744e+000 -1.478399e+002 -3.292186e+001 -3.316768e+001 -3.295119e+001 -3.518888e+001 -1.334273e+001 8.354388e+001
16335806250 -4.969288e+000 -1.484979e+002 -3.323533e+001 -3.511906e+001 -3.325062e+001 -3.712215e+001 -1.299675e+001 7.993038e+001
16354550000 -4.942235e+000 -1.491869e+002 -3.353991e+001 -3.689398e+001 -3.355138e+001 -3.898542e+001 -1.264053e+001 7.644712e+001
16373293750 -4.911031e+000 -1.499071e+002 -3.384986e+001 -3.895630e+001 -3.386509e+001 -4.078062e+001 -1.229049e+001 7.320074e+001
16392037500 -4.885724e+000 -1.505585e+002 -3.417338e+001 -4.082059e+001 -3.417739e+001 -4.259100e+001 -1.196344e+001 7.000591e+001
16410781250 -4.859840e+000 -1.512342e+002 -3.448451e+001 -4.261320e+001 -3.449643e+001 -4.456726e+001 -1.163851e+001 6.693898e+001
16429525000 -4.830299e+000 -1.519207e+002 -3.478373e+001 -4.446456e+001 -3.487184e+001 -4.631448e+001 -1.133272e+001 6.401199e+001
16448268750 -4.803432e+000 -1.525533e+002 -3.508701e+001 -4.638396e+001 -3.520126e+001 -4.805857e+001 -1.105003e+001 6.106102e+001
16467012500 -4.780391e+000 -1.532368e+002 -3.544600e+001 -4.819053e+001 -3.552225e+001 -4.990016e+001 -1.075877e+001 5.822730e+001
16485756250 -4.752376e+000 -1.539112e+002 -3.577806e+001 -4.993871e+001 -3.584436e+001 -5.157597e+001 -1.048971e+001 5.550132e+001
16504500000 -4.729878e+000 -1.545697e+002 -3.612908e+001 -5.172597e+001 -3.620408e+001 -5.313302e+001 -1.023003e+001 5.282183e+001
16523243750 -4.705339e+000 -1.552453e+002 -3.646802e+001 -5.333438e+001 -3.653473e+001 -5.454359e+001 -9.977142e+000 5.023905e+001
16541987500 -4.676874e+000 -1.559128e+002 -3.683141e+001 -5.505875e+001 -3.691391e+001 -5.620900e+001 -9.743746e+000 4.777285e+001
16560731250 -4.655442e+000 -1.565703e+002 -3.716706e+001 -5.657446e+001 -3.726781e+001 -5.810883e+001 -9.518250e+000 4.524308e+001
16579475000 -4.631515e+000 -1.572623e+002 -3.752625e+001 -5.797541e+001 -3.766078e+001 -5.942080e+001 -9.291856e+000 4.281213e+001
16598218750 -4.610014e+000 -1.579308e+002 -3.791085e+001 -5.927648e+001 -3.801587e+001 -6.100272e+001 -9.082982e+000 4.044783e+001
16616962500 -4.588439e+000 -1.585850e+002 -3.830460e+001 -6.071195e+001 -3.836834e+001 -6.251001e+001 -8.881801e+000 3.812591e+001
16635706250 -4.564288e+000 -1.592741e+002 -3.865650e+001 -6.196327e+001 -3.877145e+001 -6.406676e+001 -8.686657e+000 3.589692e+001
16654450000 -4.539876e+000 -1.599414e+002 -3.902378e+001 -6.325259e+001 -3.916246e+001 -6.518465e+001 -8.502131e+000 3.368835e+001
16673193750 -4.522196e+000 -1.605848e+002 -3.943699e+001 -6.471408e+001 -3.955156e+001 -6.665815e+001 -8.326003e+000 3.150373e+001
16691937500 -4.502007e+000 -1.612786e+002 -3.983120e+001 -6.593885e+001 -3.991074e+001 -6.805962e+001 -8.154865e+000 2.937533e+001
16710681250 -4.480077e+000 -1.619412e+002 -4.025658e+001 -6.687599e+001 -4.031981e+001 -6.912284e+001 -7.993435e+000 2.729278e+001
16729425000 -4.462735e+000 -1.626070e+002 -4.066550e+001 -6.825539e+001 -4.069374e+001 -7.071838e+001 -7.835815e+000 2.522864e+001
16748168750 -4.441767e+000 -1.632859e+002 -4.107534e+001 -6.964645e+001 -4.108798e+001 -7.195501e+001 -7.686741e+000 2.321404e+001
16766912500 -4.420265e+000 -1.639221e+002 -4.148149e+001 -7.108664e+001 -4.155176e+001 -7.322710e+001 -7.545994e+000 2.126026e+001
16785656250 -4.406848e+000 -1.645864e+002 -4.188296e+001 -7.274916e+001 -4.192623e+001 -7.405691e+001 -7.408194e+000 1.930463e+001
16804400000 -4.387453e+000 -1.652772e+002 -4.231586e+001 -7.387894e+001 -4.235270e+001 -7.521079e+001 -7.277600e+000 1.740759e+001
16823143750 -4.366456e+000 -1.659381e+002 -4.267405e+001 -7.482230e+001 -4.275866e+001 -7.606792e+001 -7.150300e+000 1.555467e+001
16841887500 -4.351267e+000 -1.666245e+002 -4.304591e+001 -7.565003e+001 -4.325178e+001 -7.670587e+001 -7.029757e+000 1.370795e+001
16860631250 -4.328783e+000 -1.673068e+002 -4.352812e+001 -7.631868e+001 -4.364163e+001 -7.826371e+001 -6.917231e+000 1.190509e+001
16879375000 -4.312003e+000 -1.679505e+002 -4.394005e+001 -7.781753e+001 -4.405228e+001 -7.894738e+001 -6.807133e+000 1.014957e+001
16898118750 -4.297876e+000 -1.686070e+002 -4.425784e+001 -7.864941e+001 -4.443128e+001 -7.887757e+001 -6.702882e+000 8.422856e+000
16916862500 -4.280119e+000 -1.692991e+002 -4.466804e+001 -7.906843e+001 -4.495753e+001 -7.876201e+001 -6.603964e+000 6.738289e+000
16935606250 -4.265078e+000 -1.699396e+002 -4.504772e+001 -7.970902e+001 -4.536746e+001 -7.932477e+001 -6.510019e+000 5.062160e+000
16954350000 -4.250034e+000 -1.706290e+002 -4.543468e+001 -8.032310e+001 -4.582803e+001 -7.939724e+001 -6.419178e+000 3.413551e+000
16973093750 -4.231967e+000 -1.712920e+002 -4.577396e+001 -8.105102e+001 -4.618197e+001 -8.003549e+001 -6.332988e+000 1.787710e+000
16991837500 -4.216009e+000 -1.719080e+002 -4.613051e+001 -8.123376e+001 -4.661772e+001 -8.048267e+001 -6.249598e+000 2.115074e-001
17010581250 -4.205839e+000 -1.725685e+002 -4.649789e+001 -8.165343e+001 -4.707286e+001 -8.135586e+001 -6.171288e+000 -1.358595e+000
17029325000 -4.187585e+000 -1.732402e+002 -4.689937e+001 -8.327523e+001 -4.737257e+001 -8.133492e+001 -6.096742e+000 -2.906316e+000
17048068750 -4.175341e+000 -1.738902e+002 -4.725462e+001 -8.301897e+001 -4.778912e+001 -8.137608e+001 -6.025028e+000 -4.404898e+000
17066812500 -4.164637e+000 -1.745787e+002 -4.761617e+001 -8.435238e+001 -4.810409e+001 -8.183553e+001 -5.955936e+000 -5.914645e+000
17085556250 -4.148750e+000 -1.752249e+002 -4.799828e+001 -8.486149e+001 -4.846564e+001 -8.202591e+001 -5.891418e+000 -7.367758e+000
17104300000 -4.135856e+000 -1.758361e+002 -4.832185e+001 -8.453712e+001 -4.884757e+001 -8.236488e+001 -5.829826e+000 -8.799268e+000
17123043750 -4.128793e+000 -1.764993e+002 -4.870282e+001 -8.497541e+001 -4.912580e+001 -8.352298e+001 -5.770976e+000 -1.023134e+001
17141787500 -4.114106e+000 -1.771533e+002 -4.902197e+001 -8.565366e+001 -4.965765e+001 -8.500791e+001 -5.712693e+000 -1.161783e+001
17160531250 -4.105019e+000 -1.777968e+002 -4.942563e+001 -8.551498e+001 -5.014277e+001 -8.529524e+001 -5.662214e+000 -1.296172e+001
17179275000 -4.097088e+000 -1.784957e+002 -4.965711e+001 -8.625346e+001 -5.061644e+001 -8.610861e+001 -5.611891e+000 -1.432055e+001
17198018750 -4.079444e+000 -1.791393e+002 -4.997345e+001 -8.630575e+001 -5.092609e+001 -8.734016e+001 -5.561909e+000 -1.564778e+001
17216762500 -4.068709e+000 -1.797431e+002 -5.040938e+001 -8.634316e+001 -5.130033e+001 -8.788084e+001 -5.518365e+000 -1.695096e+001
17235506250 -4.064692e+000 1.795785e+002 -5.088866e+001 -8.720348e+001 -5.164882e+001 -8.928128e+001 -5.475378e+000 -1.825398e+001
17254250000 -4.051623e+000 1.789417e+002 -5.139361e+001 -8.856889e+001 -5.202696e+001 -8.979935e+001 -5.434276e+000 -1.952804e+001
17272993750 -4.046168e+000 1.783064e+002 -5.199733e+001 -8.886237e+001 -5.233831e+001 -9.029267e+001 -5.396359e+000 -2.076734e+001
17291737500 -4.038377e+000 1.776147e+002 -5.270690e+001 -9.290349e+001 -5.269354e+001 -9.136090e+001 -5.356994e+000 -2.200642e+001
17310481250 -4.022453e+000 1.769917e+002 -5.354524e+001 -9.193791e+001 -5.358393e+001 -9.434821e+001 -5.320245e+000 -2.321640e+001
17329225000 -4.018965e+000 1.763663e+002 -5.400931e+001 -9.279660e+001 -5.439260e+001 -9.258503e+001 -5.285946e+000 -2.441327e+001
17347968750 -4.012791e+000 1.757030e+002 -5.438188e+001 -9.422151e+001 -5.476590e+001 -9.123975e+001 -5.252738e+000 -2.562230e+001
17366712500 -4.001497e+000 1.750704e+002 -5.473103e+001 -9.548190e+001 -5.523459e+001 -8.149391e+001 -5.220183e+000 -2.679489e+001
17385456250 -4.000134e+000 1.744081e+002 -5.542611e+001 -1.034448e+002 -5.614391e+001 -7.493375e+001 -5.191230e+000 -2.795459e+001
17404200000 -3.989031e+000 1.737042e+002 -5.597967e+001 -1.112819e+002 -5.639371e+001 -7.496886e+001 -5.160798e+000 -2.912369e+001
17422943750 -3.975889e+000 1.730852e+002 -5.663826e+001 -1.270623e+002 -5.687438e+001 -6.805657e+001 -5.133335e+000 -3.024269e+001
17441687500 -3.974588e+000 1.724693e+002 -5.722627e+001 -1.406131e+002 -5.750354e+001 -6.132855e+001 -5.107549e+000 -3.135389e+001
17460431250 -3.970353e+000 1.717978e+002 -5.770084e+001 -1.512380e+002 -5.802322e+001 -5.934436e+001 -5.082629e+000 -3.247102e+001
17479175000 -3.961705e+000 1.711857e+002 -5.801629e+001 -1.610951e+002 -5.834727e+001 -5.677198e+001 -5.057836e+000 -3.354894e+001
17497918750 -3.960726e+000 1.705445e+002 -5.868251e+001 -1.666957e+002 -5.869593e+001 -5.252620e+001 -5.039158e+000 -3.463589e+001
17516662500 -3.948494e+000 1.698278e+002 -6.024244e+001 -1.766277e+002 -5.879416e+001 -5.179878e+001 -5.016329e+000 -3.572058e+001
17535406250 -3.934174e+000 1.692195e+002 -6.076603e+001 1.718356e+002 -5.928226e+001 -5.405098e+001 -4.997406e+000 -3.677821e+001
17554150000 -3.932865e+000 1.685970e+002 -6.102453e+001 1.608666e+002 -5.955418e+001 -4.812810e+001 -4.976935e+000 -3.783165e+001
17572893750 -3.926101e+000 1.679353e+002 -6.117524e+001 1.536684e+002 -6.016281e+001 -4.084888e+001 -4.957642e+000 -3.889122e+001
17591637500 -3.917806e+000 1.673338e+002 -6.142195e+001 1.422961e+002 -6.020575e+001 -3.587530e+001 -4.938274e+000 -3.991370e+001
17610381250 -3.917478e+000 1.666843e+002 -6.169915e+001 1.318360e+002 -6.053744e+001 -3.207880e+001 -4.922950e+000 -4.094757e+001
17629125000 -3.904893e+000 1.660023e+002 -6.220733e+001 1.171395e+002 -6.068192e+001 -2.515360e+001 -4.905329e+000 -4.197262e+001
17647868750 -3.897032e+000 1.654159e+002 -6.283665e+001 1.060345e+002 -6.064882e+001 -2.145242e+001 -4.889964e+000 -4.297723e+001
17666612500 -3.892200e+000 1.648030e+002 -6.273855e+001 9.700901e+001 -6.090030e+001 -1.530220e+001 -4.874430e+000 -4.398743e+001
17685356250 -3.884017e+000 1.641613e+002 -6.262980e+001 8.723741e+001 -6.116713e+001 -8.449702e+000 -4.859172e+000 -4.499224e+001
17704100000 -3.878293e+000 1.635713e+002 -6.245676e+001 7.807005e+001 -6.125497e+001 -2.046479e+000 -4.845766e+000 -4.597703e+001
17722843750 -3.879416e+000 1.629007e+002 -6.216904e+001 6.950809e+001 -6.133978e+001 5.767166e+000 -4.834765e+000 -4.697847e+001
17741587500 -3.867557e+000 1.622384e+002 -6.154287e+001 5.910604e+001 -6.093858e+001 1.512179e+001 -4.820162e+000 -4.797219e+001
17760331250 -3.855307e+000 1.616750e+002 -6.139009e+001 4.953836e+001 -6.064255e+001 1.726548e+001 -4.809233e+000 -4.893837e+001
17779075000 -3.857686e+000 1.610606e+002 -6.107342e+001 4.109845e+001 -6.057796e+001 2.194271e+001 -4.797270e+000 -4.991510e+001
17797818750 -3.847531e+000 1.604319e+002 -6.113431e+001 3.326640e+001 -6.030204e+001 1.730633e+001 -4.786868e+000 -5.087059e+001
17816562500 -3.848538e+000 1.598640e+002 -6.077832e+001 2.954505e+001 -5.950675e+001 1.583623e+001 -4.779317e+000 -5.182229e+001
17835306250 -3.854592e+000 1.591923e+002 -6.041891e+001 2.542388e+001 -6.024665e+001 2.561191e+001 -4.769977e+000 -5.278290e+001
17854050000 -3.840750e+000 1.585190e+002 -5.988977e+001 3.183576e+001 -6.000782e+001 2.410498e+001 -4.760299e+000 -5.372963e+001
17872793750 -3.836453e+000 1.579531e+002 -5.948204e+001 3.580062e+001 -5.948289e+001 2.470662e+001 -4.753920e+000 -5.468964e+001
17891537500 -3.839471e+000 1.573134e+002 -5.903986e+001 3.769923e+001 -5.909240e+001 2.692200e+001 -4.745443e+000 -5.562283e+001
17910281250 -3.828774e+000 1.566905e+002 -5.900521e+001 3.794783e+001 -5.916113e+001 2.829759e+001 -4.740783e+000 -5.655191e+001
17929025000 -3.832643e+000 1.561091e+002 -5.841438e+001 3.387201e+001 -5.891613e+001 3.089947e+001 -4.732288e+000 -5.747513e+001
17947768750 -3.835028e+000 1.554374e+002 -5.687154e+001 3.324646e+001 -5.873712e+001 3.516372e+001 -4.726725e+000 -5.841014e+001
17966512500 -3.821244e+000 1.547626e+002 -5.629782e+001 3.308401e+001 -5.817777e+001 4.394559e+001 -4.720629e+000 -5.931771e+001
17985256250 -3.818815e+000 1.541922e+002 -5.604223e+001 3.359885e+001 -5.813784e+001 4.394318e+001 -4.716315e+000 -6.023485e+001
18004000000 -3.817217e+000 1.535607e+002 -5.579925e+001 3.091625e+001 -5.722012e+001 4.293732e+001 -4.713154e+000 -6.112494e+001
18022743750 -3.807895e+000 1.529448e+002 -5.553801e+001 3.203676e+001 -5.699657e+001 4.390577e+001 -4.710019e+000 -6.201810e+001
18041487500 -3.811836e+000 1.523584e+002 -5.523258e+001 3.339276e+001 -5.651276e+001 4.522636e+001 -4.706505e+000 -6.291306e+001
18060231250 -3.812841e+000 1.516690e+002 -5.453409e+001 3.795815e+001 -5.624667e+001 4.506400e+001 -4.704045e+000 -6.381521e+001
18078975000 -3.797460e+000 1.510214e+002 -5.372203e+001 3.952799e+001 -5.627495e+001 4.584765e+001 -4.699333e+000 -6.469340e+001
18097718750 -3.800643e+000 1.504610e+002 -5.341841e+001 3.811118e+001 -5.581811e+001 4.586859e+001 -4.695693e+000 -6.558166e+001
18116462500 -3.799560e+000 1.498168e+002 -5.316603e+001 3.830704e+001 -5.526434e+001 4.454614e+001 -4.692130e+000 -6.646662e+001
18135206250 -3.793019e+000 1.492242e+002 -5.283591e+001 3.732618e+001 -5.484811e+001 4.347523e+001 -4.693714e+000 -6.733157e+001
18153950000 -3.800554e+000 1.486386e+002 -5.238666e+001 3.898057e+001 -5.443545e+001 4.166861e+001 -4.689547e+000 -6.819745e+001
18172693750 -3.797894e+000 1.479478e+002 -5.226556e+001 3.864700e+001 -5.400235e+001 4.036633e+001 -4.689843e+000 -6.906064e+001
18191437500 -3.792170e+000 1.473237e+002 -5.205228e+001 3.814069e+001 -5.354514e+001 4.028286e+001 -4.688385e+000 -6.992504e+001
18210181250 -3.790187e+000 1.467429e+002 -5.205325e+001 3.700325e+001 -5.326089e+001 3.806236e+001 -4.687053e+000 -7.078555e+001
18228925000 -3.786258e+000 1.460918e+002 -5.172039e+001 3.557129e+001 -5.302917e+001 3.768390e+001 -4.686892e+000 -7.162421e+001
18247668750 -3.779824e+000 1.455356e+002 -5.132536e+001 3.647316e+001 -5.295039e+001 3.680710e+001 -4.684896e+000 -7.248078e+001
18266412500 -3.783937e+000 1.449332e+002 -5.104508e+001 3.806876e+001 -5.194558e+001 3.203881e+001 -4.687206e+000 -7.332716e+001
18285156250 -3.780844e+000 1.442749e+002 -5.082323e+001 3.611607e+001 -5.161450e+001 3.194019e+001 -4.688465e+000 -7.418542e+001
18303900000 -3.772311e+000 1.436676e+002 -5.050500e+001 3.444698e+001 -5.133158e+001 2.997974e+001 -4.688486e+000 -7.502315e+001
18322643750 -3.770609e+000 1.430823e+002 -5.025025e+001 3.349828e+001 -5.119455e+001 3.022583e+001 -4.689494e+000 -7.586488e+001
18341387500 -3.768541e+000 1.424506e+002 -4.981880e+001 3.179311e+001 -5.056170e+001 3.092175e+001 -4.691359e+000 -7.669001e+001
18360131250 -3.764513e+000 1.418679e+002 -4.954921e+001 3.156172e+001 -5.037056e+001 2.959024e+001 -4.691936e+000 -7.751898e+001
18378875000 -3.771657e+000 1.412526e+002 -4.931650e+001 3.133301e+001 -5.024664e+001 2.903797e+001 -4.693502e+000 -7.836163e+001
18397618750 -3.770953e+000 1.406019e+002 -4.909128e+001 3.154235e+001 -5.009551e+001 2.771414e+001 -4.694008e+000 -7.919920e+001
18416362500 -3.765657e+000 1.399902e+002 -4.877139e+001 3.103119e+001 -4.972130e+001 2.783129e+001 -4.694725e+000 -8.002258e+001
18435106250 -3.767959e+000 1.393683e+002 -4.864191e+001 2.976935e+001 -4.960309e+001 2.789975e+001 -4.697984e+000 -8.086726e+001
18453850000 -3.768201e+000 1.387345e+002 -4.830429e+001 2.908980e+001 -4.941616e+001 2.730123e+001 -4.701709e+000 -8.169175e+001
18472593750 -3.769948e+000 1.381394e+002 -4.816947e+001 2.829498e+001 -4.919102e+001 2.732097e+001 -4.703721e+000 -8.251976e+001
18491337500 -3.776353e+000 1.374897e+002 -4.795232e+001 2.780878e+001 -4.899238e+001 2.658401e+001 -4.706893e+000 -8.332734e+001
18510081250 -3.774779e+000 1.368327e+002 -4.775629e+001 2.720214e+001 -4.862763e+001 2.711814e+001 -4.710982e+000 -8.415235e+001
18528825000 -3.772666e+000 1.362077e+002 -4.758098e+001 2.751770e+001 -4.851949e+001 2.633372e+001 -4.714962e+000 -8.496066e+001
18547568750 -3.773731e+000 1.355668e+002 -4.742450e+001 2.715840e+001 -4.832246e+001 2.541635e+001 -4.718155e+000 -8.576001e+001
18566312500 -3.772222e+000 1.349337e+002 -4.717372e+001 2.664274e+001 -4.824536e+001 2.500333e+001 -4.721109e+000 -8.656696e+001
18585056250 -3.775144e+000 1.343441e+002 -4.715140e+001 2.582839e+001 -4.809262e+001 2.469760e+001 -4.726282e+000 -8.737573e+001
18603800000 -3.780465e+000 1.336728e+002 -4.694747e+001 2.528510e+001 -4.793196e+001 2.352983e+001 -4.733372e+000 -8.817646e+001
18622543750 -3.775645e+000 1.330040e+002 -4.676300e+001 2.474253e+001 -4.780354e+001 2.345755e+001 -4.737683e+000 -8.898281e+001
18641287500 -3.775347e+000 1.323535e+002 -4.648877e+001 2.428772e+001 -4.750145e+001 2.351454e+001 -4.743807e+000 -8.979772e+001
18660031250 -3.777728e+000 1.317123e+002 -4.618913e+001 2.340145e+001 -4.736450e+001 2.255709e+001 -4.748396e+000 -9.058674e+001
18678775000 -3.777635e+000 1.310709e+002 -4.604990e+001 2.246929e+001 -4.707884e+001 2.180637e+001 -4.756436e+000 -9.137597e+001
18697518750 -3.785110e+000 1.304664e+002 -4.595388e+001 2.112907e+001 -4.689109e+001 2.094823e+001 -4.760894e+000 -9.217406e+001
18716262500 -3.794972e+000 1.297964e+002 -4.586528e+001 2.032502e+001 -4.672658e+001 1.964306e+001 -4.766699e+000 -9.293774e+001
18735006250 -3.794865e+000 1.291075e+002 -4.577222e+001 1.968723e+001 -4.659423e+001 1.874010e+001 -4.774131e+000 -9.371333e+001
18753750000 -3.795882e+000 1.284640e+002 -4.568439e+001 1.889586e+001 -4.641370e+001 1.794087e+001 -4.781291e+000 -9.449954e+001
18772493750 -3.797152e+000 1.278193e+002 -4.550406e+001 1.778605e+001 -4.632752e+001 1.732927e+001 -4.787959e+000 -9.528593e+001
18791237500 -3.798084e+000 1.272011e+002 -4.550191e+001 1.674416e+001 -4.612845e+001 1.594906e+001 -4.797382e+000 -9.607417e+001
18809981250 -3.804038e+000 1.265806e+002 -4.540344e+001 1.634716e+001 -4.599506e+001 1.490543e+001 -4.807482e+000 -9.683828e+001
18828725000 -3.812842e+000 1.259071e+002 -4.535493e+001 1.552048e+001 -4.586877e+001 1.374755e+001 -4.816251e+000 -9.760883e+001
18847468750 -3.814473e+000 1.252526e+002 -4.531696e+001 1.483381e+001 -4.579222e+001 1.253772e+001 -4.826979e+000 -9.838810e+001
18866212500 -3.817521e+000 1.246124e+002 -4.516394e+001 1.409599e+001 -4.565388e+001 1.113098e+001 -4.835083e+000 -9.916503e+001
18884956250 -3.819019e+000 1.239592e+002 -4.508802e+001 1.314545e+001 -4.553181e+001 9.707777e+000 -4.844307e+000 -9.992706e+001
18903700000 -3.820189e+000 1.233660e+002 -4.496121e+001 1.182344e+001 -4.540604e+001 9.046672e+000 -4.856220e+000 -1.006949e+002
18922443750 -3.831162e+000 1.227542e+002 -4.497532e+001 1.018483e+001 -4.531973e+001 7.914003e+000 -4.867060e+000 -1.014724e+002
18941187500 -3.841182e+000 1.220709e+002 -4.484626e+001 8.286765e+000 -4.525975e+001 6.473458e+000 -4.880566e+000 -1.022330e+002
18959931250 -3.843086e+000 1.214102e+002 -4.484404e+001 6.664090e+000 -4.511142e+001 6.021590e+000 -4.891478e+000 -1.030043e+002
18978675000 -3.848429e+000 1.207564e+002 -4.480220e+001 5.688632e+000 -4.517745e+001 5.443786e+000 -4.904930e+000 -1.037820e+002
18997418750 -3.850642e+000 1.201010e+002 -4.483463e+001 4.212907e+000 -4.499199e+001 3.897166e+000 -4.918260e+000 -1.045505e+002
19016162500 -3.854773e+000 1.194758e+002 -4.463029e+001 3.430066e+000 -4.497531e+001 2.847705e+000 -4.930668e+000 -1.053244e+002
19034906250 -3.867481e+000 1.188451e+002 -4.457851e+001 2.109164e+000 -4.483775e+001 2.265953e+000 -4.943390e+000 -1.060762e+002
19053650000 -3.878892e+000 1.181623e+002 -4.454913e+001 1.179179e+000 -4.476899e+001 1.081631e+000 -4.959110e+000 -1.068378e+002
19072393750 -3.883264e+000 1.174887e+002 -4.452328e+001 -2.716017e-001 -4.476165e+001 -2.254510e-001 -4.974499e+000 -1.075909e+002
19091137500 -3.890269e+000 1.168181e+002 -4.451543e+001 -1.296505e+000 -4.464515e+001 -9.923530e-001 -4.989718e+000 -1.083623e+002
19109881250 -3.894107e+000 1.161430e+002 -4.440471e+001 -2.225885e+000 -4.462150e+001 -1.784974e+000 -5.006133e+000 -1.091185e+002
19128625000 -3.899611e+000 1.155086e+002 -4.433438e+001 -2.730294e+000 -4.456344e+001 -2.705604e+000 -5.022281e+000 -1.098748e+002
19147368750 -3.913119e+000 1.148460e+002 -4.429481e+001 -3.224419e+000 -4.444184e+001 -3.461247e+000 -5.040552e+000 -1.106576e+002
19166112500 -3.921653e+000 1.141657e+002 -4.423476e+001 -4.356199e+000 -4.432886e+001 -4.517278e+000 -5.059714e+000 -1.114265e+002
19184856250 -3.926978e+000 1.134854e+002 -4.417423e+001 -5.522313e+000 -4.430176e+001 -4.770330e+000 -5.078480e+000 -1.121934e+002
19203600000 -3.935175e+000 1.127824e+002 -4.416035e+001 -6.397375e+000 -4.426228e+001 -6.334899e+000 -5.098053e+000 -1.129613e+002
19222343750 -3.938326e+000 1.121118e+002 -4.403540e+001 -7.663905e+000 -4.424850e+001 -7.372065e+000 -5.119781e+000 -1.137189e+002
19241087500 -3.946098e+000 1.114780e+002 -4.394465e+001 -9.269072e+000 -4.422162e+001 -8.132413e+000 -5.142908e+000 -1.144885e+002
19259831250 -3.959168e+000 1.108104e+002 -4.391594e+001 -1.061171e+001 -4.411475e+001 -8.893110e+000 -5.166032e+000 -1.152544e+002
19278575000 -3.964348e+000 1.101128e+002 -4.382500e+001 -1.173471e+001 -4.399583e+001 -9.944599e+000 -5.190021e+000 -1.160217e+002
19297318750 -3.972634e+000 1.094200e+002 -4.377081e+001 -1.300750e+001 -4.397020e+001 -1.080707e+001 -5.214805e+000 -1.167848e+002
19316062500 -3.979929e+000 1.087260e+002 -4.366540e+001 -1.434497e+001 -4.394133e+001 -1.177483e+001 -5.239033e+000 -1.175678e+002
19334806250 -3.982263e+000 1.080387e+002 -4.363038e+001 -1.543421e+001 -4.391294e+001 -1.282781e+001 -5.264990e+000 -1.183350e+002
19353550000 -3.990059e+000 1.073980e+002 -4.363984e+001 -1.594276e+001 -4.386227e+001 -1.407804e+001 -5.293004e+000 -1.191030e+002
19372293750 -4.003622e+000 1.067127e+002 -4.357094e+001 -1.688904e+001 -4.382589e+001 -1.452988e+001 -5.318587e+000 -1.198791e+002
19391037500 -4.010801e+000 1.060233e+002 -4.354630e+001 -1.739103e+001 -4.381028e+001 -1.559611e+001 -5.346073e+000 -1.206521e+002
19409781250 -4.020586e+000 1.053194e+002 -4.348577e+001 -1.876666e+001 -4.375320e+001 -1.652548e+001 -5.374353e+000 -1.214202e+002
19428525000 -4.029016e+000 1.046281e+002 -4.346840e+001 -1.971752e+001 -4.382216e+001 -1.716718e+001 -5.402321e+000 -1.221976e+002
19447268750 -4.032269e+000 1.039706e+002 -4.350048e+001 -2.036988e+001 -4.375513e+001 -1.792949e+001 -5.434237e+000 -1.229801e+002
19466012500 -4.044600e+000 1.033103e+002 -4.348866e+001 -2.149645e+001 -4.380019e+001 -1.878017e+001 -5.465265e+000 -1.237766e+002
19484756250 -4.055171e+000 1.026211e+002 -4.344208e+001 -2.219319e+001 -4.373518e+001 -1.940089e+001 -5.497139e+000 -1.245908e+002
19503500000 -4.064323e+000 1.019450e+002 -4.345027e+001 -2.299909e+001 -4.372663e+001 -2.077359e+001 -5.529586e+000 -1.253877e+002
19522243750 -4.074579e+000 1.012547e+002 -4.348449e+001 -2.375986e+001 -4.374663e+001 -2.158450e+001 -5.565191e+000 -1.262100e+002
19540987500 -4.081118e+000 1.005677e+002 -4.353658e+001 -2.456565e+001 -4.372690e+001 -2.266219e+001 -5.601027e+000 -1.270322e+002
19559731250 -4.085472e+000 9.992947e+001 -4.364923e+001 -2.544871e+001 -4.379349e+001 -2.343258e+001 -5.639088e+000 -1.278513e+002
19578475000 -4.098306e+000 9.927592e+001 -4.365796e+001 -2.637264e+001 -4.389513e+001 -2.423977e+001 -5.679732e+000 -1.286874e+002
19597218750 -4.109426e+000 9.857017e+001 -4.365937e+001 -2.719291e+001 -4.394315e+001 -2.489517e+001 -5.719929e+000 -1.295402e+002
19615962500 -4.120124e+000 9.786351e+001 -4.375683e+001 -2.840946e+001 -4.397896e+001 -2.620168e+001 -5.760980e+000 -1.303892e+002
19634706250 -4.132312e+000 9.716030e+001 -4.381342e+001 -2.923174e+001 -4.402168e+001 -2.642640e+001 -5.802936e+000 -1.312661e+002
19653450000 -4.138088e+000 9.646196e+001 -4.388335e+001 -2.946093e+001 -4.406107e+001 -2.655142e+001 -5.845366e+000 -1.321463e+002
19672193750 -4.147194e+000 9.580296e+001 -4.392266e+001 -2.999056e+001 -4.407265e+001 -2.680564e+001 -5.891788e+000 -1.330410e+002
19690937500 -4.161665e+000 9.511505e+001 -4.395584e+001 -2.950811e+001 -4.418874e+001 -2.729315e+001 -5.940782e+000 -1.339529e+002
19709681250 -4.178278e+000 9.440402e+001 -4.396538e+001 -2.958016e+001 -4.430381e+001 -2.752606e+001 -5.993726e+000 -1.348736e+002
19728425000 -4.188143e+000 9.369851e+001 -4.399435e+001 -2.961928e+001 -4.427125e+001 -2.789803e+001 -6.047521e+000 -1.357872e+002
19747168750 -4.199037e+000 9.297154e+001 -4.397489e+001 -2.995528e+001 -4.428028e+001 -2.763756e+001 -6.101934e+000 -1.367436e+002
19765912500 -4.205925e+000 9.227795e+001 -4.395569e+001 -3.009513e+001 -4.424132e+001 -2.759036e+001 -6.160207e+000 -1.376946e+002
19784656250 -4.215571e+000 9.160283e+001 -4.388718e+001 -3.045218e+001 -4.424422e+001 -2.782972e+001 -6.222885e+000 -1.386490e+002
19803400000 -4.227638e+000 9.091833e+001 -4.389399e+001 -3.072864e+001 -4.408884e+001 -2.852784e+001 -6.289320e+000 -1.396243e+002
19822143750 -4.241389e+000 9.017175e+001 -4.378426e+001 -3.006839e+001 -4.394904e+001 -2.819248e+001 -6.358611e+000 -1.406456e+002
19840887500 -4.252730e+000 8.946876e+001 -4.372472e+001 -2.963343e+001 -4.381690e+001 -2.877591e+001 -6.428475e+000 -1.416301e+002
19859631250 -4.266534e+000 8.870667e+001 -4.356796e+001 -2.958933e+001 -4.376079e+001 -2.868656e+001 -6.503840e+000 -1.426424e+002
19878375000 -4.275271e+000 8.797973e+001 -4.340858e+001 -2.997409e+001 -4.378846e+001 -2.900661e+001 -6.582420e+000 -1.436633e+002
19897118750 -4.283966e+000 8.727860e+001 -4.330601e+001 -2.948247e+001 -4.378344e+001 -2.909100e+001 -6.674051e+000 -1.447353e+002
19915862500 -4.298690e+000 8.657963e+001 -4.327232e+001 -2.985258e+001 -4.370383e+001 -2.917443e+001 -6.765045e+000 -1.457890e+002
19934606250 -4.314482e+000 8.584744e+001 -4.315562e+001 -3.023948e+001 -4.356276e+001 -2.890334e+001 -6.858253e+000 -1.468417e+002
19953350000 -4.330265e+000 8.508308e+001 -4.297240e+001 -3.062618e+001 -4.352512e+001 -2.911036e+001 -6.960872e+000 -1.479212e+002
19972093750 -4.340623e+000 8.431960e+001 -4.288288e+001 -3.068887e+001 -4.328862e+001 -2.977073e+001 -7.068557e+000 -1.490343e+002
19990837500 -4.347102e+000 8.356110e+001 -4.261558e+001 -3.082213e+001 -4.307747e+001 -2.899962e+001 -7.176718e+000 -1.501051e+002
20009581250 -4.355043e+000 8.283733e+001 -4.247145e+001 -3.156294e+001 -4.291683e+001 -2.856939e+001 -7.298861e+000 -1.512258e+002
20028325000 -4.367920e+000 8.213754e+001 -4.238325e+001 -3.169437e+001 -4.273182e+001 -2.898403e+001 -7.420340e+000 -1.523851e+002
20047068750 -4.380965e+000 8.143437e+001 -4.209315e+001 -3.182509e+001 -4.258129e+001 -2.916196e+001 -7.557761e+000 -1.535486e+002
20065812500 -4.392804e+000 8.066874e+001 -4.195561e+001 -3.198739e+001 -4.241996e+001 -3.025850e+001 -7.702742e+000 -1.547641e+002
20084556250 -4.401690e+000 7.992054e+001 -4.167658e+001 -3.281562e+001 -4.213136e+001 -3.097229e+001 -7.855608e+000 -1.559829e+002
20103300000 -4.405492e+000 7.919115e+001 -4.144493e+001 -3.311264e+001 -4.195235e+001 -3.183866e+001 -8.015097e+000 -1.571245e+002
20122043750 -4.417459e+000 7.850393e+001 -4.121784e+001 -3.467135e+001 -4.171970e+001 -3.284501e+001 -8.192622e+000 -1.583773e+002
20140787500 -4.429103e+000 7.778425e+001 -4.106335e+001 -3.559757e+001 -4.156760e+001 -3.377601e+001 -8.370299e+000 -1.596109e+002
20159531250 -4.444297e+000 7.702164e+001 -4.086417e+001 -3.673463e+001 -4.137198e+001 -3.425782e+001 -8.566739e+000 -1.608746e+002
20178275000 -4.460932e+000 7.625303e+001 -4.074427e+001 -3.745022e+001 -4.118142e+001 -3.565960e+001 -8.777541e+000 -1.621365e+002
20197018750 -4.467707e+000 7.547762e+001 -4.055700e+001 -3.887867e+001 -4.092246e+001 -3.651806e+001 -8.995316e+000 -1.633965e+002
20215762500 -4.476429e+000 7.475015e+001 -4.039219e+001 -3.982474e+001 -4.071451e+001 -3.668629e+001 -9.238934e+000 -1.646820e+002
20234506250 -4.490217e+000 7.401901e+001 -4.023430e+001 -4.072224e+001 -4.075372e+001 -3.746515e+001 -9.500340e+000 -1.660256e+002
20253250000 -4.502588e+000 7.328942e+001 -4.012179e+001 -4.228167e+001 -4.070470e+001 -3.865825e+001 -9.777598e+000 -1.673296e+002
20271993750 -4.514793e+000 7.251025e+001 -4.001134e+001 -4.378117e+001 -4.061617e+001 -3.977929e+001 -1.007725e+001 -1.686873e+002
20290737500 -4.524789e+000 7.174310e+001 -3.989639e+001 -4.573044e+001 -4.038006e+001 -4.149316e+001 -1.038721e+001 -1.700513e+002
20309481250 -4.532020e+000 7.095330e+001 -3.979999e+001 -4.709702e+001 -4.014598e+001 -4.326033e+001 -1.072980e+001 -1.712872e+002
20328225000 -4.540668e+000 7.023556e+001 -3.968573e+001 -4.895529e+001 -3.996301e+001 -4.433254e+001 -1.110096e+001 -1.724532e+002
20346968750 -4.554824e+000 6.950861e+001 -3.950641e+001 -5.035512e+001 -3.993231e+001 -4.609088e+001 -1.151302e+001 -1.737025e+002
20365712500 -4.571542e+000 6.875159e+001 -3.951950e+001 -5.183406e+001 -3.979446e+001 -4.736438e+001 -1.196022e+001 -1.749937e+002
20384456250 -4.581882e+000 6.799850e+001 -3.942143e+001 -5.305088e+001 -3.965439e+001 -4.891111e+001 -1.243167e+001 -1.762394e+002
20403200000 -4.596099e+000 6.721349e+001 -3.936125e+001 -5.432368e+001 -3.956494e+001 -5.018135e+001 -1.295311e+001 -1.772833e+002
20421943750 -4.605964e+000 6.642379e+001 -3.928464e+001 -5.624072e+001 -3.949034e+001 -5.238929e+001 -1.353539e+001 -1.782179e+002
20440687500 -4.615854e+000 6.570895e+001 -3.922435e+001 -5.787140e+001 -3.937915e+001 -5.449715e+001 -1.420198e+001 -1.789012e+002
20459431250 -4.634929e+000 6.496812e+001 -3.908692e+001 -5.952273e+001 -3.933407e+001 -5.597997e+001 -1.496227e+001 -1.790760e+002
20478175000 -4.651730e+000 6.418151e+001 -3.906270e+001 -6.092013e+001 -3.922982e+001 -5.763177e+001 -1.584307e+001 -1.789888e+002
20496918750 -4.671443e+000 6.339142e+001 -3.903149e+001 -6.319310e+001 -3.916837e+001 -5.857536e+001 -1.672573e+001 -1.776084e+002
20515662500 -4.686577e+000 6.255442e+001 -3.910213e+001 -6.477164e+001 -3.931217e+001 -6.030819e+001 -1.755944e+001 -1.749036e+002
20534406250 -4.697801e+000 6.173928e+001 -3.911042e+001 -6.660081e+001 -3.929559e+001 -6.140540e+001 -1.827652e+001 -1.714099e+002
20553150000 -4.702244e+000 6.094749e+001 -3.911359e+001 -6.819164e+001 -3.930575e+001 -6.306275e+001 -1.888676e+001 -1.670277e+002
20571893750 -4.720697e+000 6.016602e+001 -3.909745e+001 -6.962495e+001 -3.930286e+001 -6.479676e+001 -1.941214e+001 -1.623495e+002
20590637500 -4.737162e+000 5.939493e+001 -3.908842e+001 -7.130318e+001 -3.941256e+001 -6.644487e+001 -1.988131e+001 -1.574911e+002
20609381250 -4.751860e+000 5.859090e+001 -3.912962e+001 -7.290140e+001 -3.933213e+001 -6.823382e+001 -2.026226e+001 -1.526027e+002
20628125000 -4.773370e+000 5.774156e+001 -3.916401e+001 -7.393308e+001 -3.947562e+001 -7.037443e+001 -2.056524e+001 -1.477074e+002
20646868750 -4.779961e+000 5.688366e+001 -3.923955e+001 -7.531911e+001 -3.949179e+001 -7.277696e+001 -2.078411e+001 -1.426202e+002
20665612500 -4.792700e+000 5.612581e+001 -3.926676e+001 -7.664076e+001 -3.938297e+001 -7.465311e+001 -2.093806e+001 -1.374134e+002
20684356250 -4.811321e+000 5.535153e+001 -3.928778e+001 -7.875424e+001 -3.931205e+001 -7.608787e+001 -2.104778e+001 -1.321589e+002
20703100000 -4.833282e+000 5.458015e+001 -3.931820e+001 -8.029513e+001 -3.933218e+001 -7.731446e+001 -2.110527e+001 -1.268806e+002
20721843750 -4.856301e+000 5.373564e+001 -3.943356e+001 -8.157132e+001 -3.943327e+001 -7.843789e+001 -2.111385e+001 -1.216364e+002
20740587500 -4.872357e+000 5.288905e+001 -3.954428e+001 -8.342260e+001 -3.940910e+001 -7.904097e+001 -2.105277e+001 -1.164764e+002
20759331250 -4.881120e+000 5.205032e+001 -3.954850e+001 -8.480765e+001 -3.941583e+001 -8.071062e+001 -2.090902e+001 -1.112773e+002
20778075000 -4.892821e+000 5.126218e+001 -3.964067e+001 -8.603072e+001 -3.940945e+001 -8.201681e+001 -2.069668e+001 -1.059783e+002
20796818750 -4.907374e+000 5.046070e+001 -3.957960e+001 -8.690941e+001 -3.953862e+001 -8.366631e+001 -2.042171e+001 -1.006051e+002
20815562500 -4.923065e+000 4.967311e+001 -3.962458e+001 -8.891151e+001 -3.957536e+001 -8.495743e+001 -2.010191e+001 -9.527251e+001
20834306250 -4.945427e+000 4.883351e+001 -3.969491e+001 -9.073301e+001 -3.979784e+001 -8.660796e+001 -1.969498e+001 -9.020741e+001
20853050000 -4.958393e+000 4.798363e+001 -3.976920e+001 -9.189766e+001 -3.995848e+001 -8.821242e+001 -1.920542e+001 -8.530350e+001
20871793750 -4.965069e+000 4.713971e+001 -3.974200e+001 -9.320962e+001 -4.015479e+001 -8.930209e+001 -1.858836e+001 -8.055167e+001
20890537500 -4.979002e+000 4.633927e+001 -3.970427e+001 -9.465377e+001 -4.026483e+001 -9.080051e+001 -1.785983e+001 -7.630810e+001
20909281250 -4.999539e+000 4.552365e+001 -3.988720e+001 -9.544767e+001 -4.045080e+001 -9.187731e+001 -1.697532e+001 -7.229484e+001
20928025000 -5.010718e+000 4.474181e+001 -3.985299e+001 -9.632354e+001 -4.053629e+001 -9.372489e+001 -1.606718e+001 -6.953242e+001
20946768750 -5.034418e+000 4.390437e+001 -3.991199e+001 -9.782047e+001 -4.047692e+001 -9.558492e+001 -1.518866e+001 -6.817268e+001
20965512500 -5.050701e+000 4.303781e+001 -4.005216e+001 -9.964164e+001 -4.057215e+001 -9.789413e+001 -1.439105e+001 -6.767534e+001
20984256250 -5.066940e+000 4.222467e+001 -4.002708e+001 -1.010678e+002 -4.058405e+001 -9.936205e+001 -1.366295e+001 -6.794829e+001
21003000000 -5.078710e+000 4.142273e+001 -4.012928e+001 -1.026264e+002 -4.056973e+001 -1.007498e+002 -1.300751e+001 -6.858389e+001
21021743750 -5.096440e+000 4.061713e+001 -4.028561e+001 -1.036388e+002 -4.057249e+001 -1.033349e+002 -1.237270e+001 -6.937666e+001
21040487500 -5.114561e+000 3.982774e+001 -4.033621e+001 -1.049281e+002 -4.070107e+001 -1.046012e+002 -1.180333e+001 -7.020397e+001
21059231250 -5.130255e+000 3.897507e+001 -4.047723e+001 -1.062807e+002 -4.096188e+001 -1.057497e+002 -1.129080e+001 -7.112165e+001
21077975000 -5.145696e+000 3.811803e+001 -4.048619e+001 -1.079542e+002 -4.113488e+001 -1.070311e+002 -1.081884e+001 -7.219823e+001
21096718750 -5.151387e+000 3.726848e+001 -4.053888e+001 -1.096647e+002 -4.130112e+001 -1.081574e+002 -1.037665e+001 -7.331964e+001
21115462500 -5.165140e+000 3.645997e+001 -4.064069e+001 -1.107469e+002 -4.151861e+001 -1.105806e+002 -9.957558e+000 -7.450365e+001
21134206250 -5.180957e+000 3.564370e+001 -4.076686e+001 -1.123988e+002 -4.158365e+001 -1.128227e+002 -9.561346e+000 -7.570906e+001
21152950000 -5.193720e+000 3.482862e+001 -4.095098e+001 -1.134169e+002 -4.181719e+001 -1.146881e+002 -9.185045e+000 -7.691142e+001
21171693750 -5.212288e+000 3.396129e+001 -4.101138e+001 -1.135472e+002 -4.199922e+001 -1.158273e+002 -8.835538e+000 -7.816402e+001
21190437500 -5.223919e+000 3.308364e+001 -4.107182e+001 -1.146065e+002 -4.206205e+001 -1.178513e+002 -8.512755e+000 -7.949802e+001
21209181250 -5.234476e+000 3.222653e+001 -4.117535e+001 -1.155345e+002 -4.217205e+001 -1.189947e+002 -8.213634e+000 -8.080682e+001
21227925000 -5.244226e+000 3.141577e+001 -4.133310e+001 -1.171775e+002 -4.232454e+001 -1.201347e+002 -7.934964e+000 -8.220884e+001
21246668750 -5.262469e+000 3.056662e+001 -4.145847e+001 -1.181880e+002 -4.240131e+001 -1.218245e+002 -7.658294e+000 -8.358786e+001
21265412500 -5.274146e+000 2.973307e+001 -4.141937e+001 -1.193421e+002 -4.253889e+001 -1.221005e+002 -7.401997e+000 -8.490796e+001
21284156250 -5.296347e+000 2.884418e+001 -4.160901e+001 -1.208659e+002 -4.256003e+001 -1.229761e+002 -7.164705e+000 -8.624776e+001
21302900000 -5.308969e+000 2.795445e+001 -4.197714e+001 -1.221239e+002 -4.257931e+001 -1.245545e+002 -6.941599e+000 -8.759709e+001
21321643750 -5.316910e+000 2.708496e+001 -4.222653e+001 -1.220491e+002 -4.273660e+001 -1.248181e+002 -6.730919e+000 -8.890552e+001
21340387500 -5.331748e+000 2.624226e+001 -4.231383e+001 -1.235496e+002 -4.276382e+001 -1.252756e+002 -6.537130e+000 -9.026872e+001
21359131250 -5.347480e+000 2.539241e+001 -4.257995e+001 -1.251428e+002 -4.283863e+001 -1.264605e+002 -6.347010e+000 -9.159179e+001
21377875000 -5.365739e+000 2.454284e+001 -4.278180e+001 -1.260761e+002 -4.314162e+001 -1.249847e+002 -6.169300e+000 -9.287639e+001
21396618750 -5.382856e+000 2.364458e+001 -4.295926e+001 -1.264587e+002 -4.318783e+001 -1.250832e+002 -6.002510e+000 -9.418097e+001
21415362500 -5.389758e+000 2.274301e+001 -4.309474e+001 -1.267940e+002 -4.340219e+001 -1.248474e+002 -5.845191e+000 -9.543813e+001
21434106250 -5.401252e+000 2.192266e+001 -4.321063e+001 -1.266566e+002 -4.345082e+001 -1.251041e+002 -5.698704e+000 -9.664284e+001
21452850000 -5.413443e+000 2.105178e+001 -4.320583e+001 -1.275207e+002 -4.363345e+001 -1.263575e+002 -5.560022e+000 -9.787494e+001
21471593750 -5.430297e+000 2.016773e+001 -4.347945e+001 -1.281380e+002 -4.390549e+001 -1.273487e+002 -5.428519e+000 -9.904359e+001
21490337500 -5.453635e+000 1.930349e+001 -4.352483e+001 -1.280260e+002 -4.381004e+001 -1.286932e+002 -5.303742e+000 -1.001744e+002
21509081250 -5.470586e+000 1.837125e+001 -4.376104e+001 -1.285010e+002 -4.401513e+001 -1.280299e+002 -5.174666e+000 -1.013194e+002
21527825000 -5.480266e+000 1.746762e+001 -4.408753e+001 -1.273228e+002 -4.428037e+001 -1.270521e+002 -5.058406e+000 -1.024443e+002
21546568750 -5.494002e+000 1.660880e+001 -4.413691e+001 -1.273030e+002 -4.464656e+001 -1.261936e+002 -4.951910e+000 -1.035576e+002
21565312500 -5.503557e+000 1.573118e+001 -4.421676e+001 -1.271990e+002 -4.477937e+001 -1.266531e+002 -4.836595e+000 -1.046566e+002
21584056250 -5.523346e+000 1.487105e+001 -4.430340e+001 -1.272145e+002 -4.504610e+001 -1.273071e+002 -4.735365e+000 -1.056973e+002
21602800000 -5.546229e+000 1.400641e+001 -4.481826e+001 -1.266471e+002 -4.514455e+001 -1.271357e+002 -4.634992e+000 -1.067670e+002
21621543750 -5.558175e+000 1.306310e+001 -4.505710e+001 -1.272248e+002 -4.546620e+001 -1.257527e+002 -4.537159e+000 -1.078395e+002
21640287500 -5.564525e+000 1.212966e+001 -4.501837e+001 -1.277990e+002 -4.554303e+001 -1.257866e+002 -4.441068e+000 -1.088802e+002
21659031250 -5.581625e+000 1.123427e+001 -4.518818e+001 -1.276742e+002 -4.549890e+001 -1.254131e+002 -4.352068e+000 -1.099130e+002
21677775000 -5.595539e+000 1.035622e+001 -4.526272e+001 -1.268042e+002 -4.543688e+001 -1.253340e+002 -4.261582e+000 -1.109563e+002
21696518750 -5.613398e+000 9.469905e+000 -4.542021e+001 -1.258260e+002 -4.549501e+001 -1.263991e+002 -4.179153e+000 -1.119595e+002
21715262500 -5.634598e+000 8.567748e+000 -4.546074e+001 -1.253683e+002 -4.558849e+001 -1.271829e+002 -4.100903e+000 -1.129490e+002
21734006250 -5.648227e+000 7.601097e+000 -4.530519e+001 -1.238845e+002 -4.579498e+001 -1.281678e+002 -4.021183e+000 -1.139572e+002
21752750000 -5.655383e+000 6.685205e+000 -4.531017e+001 -1.247447e+002 -4.590428e+001 -1.280139e+002 -3.947408e+000 -1.149477e+002
21771493750 -5.662640e+000 5.819353e+000 -4.522844e+001 -1.241973e+002 -4.626411e+001 -1.300127e+002 -3.875401e+000 -1.159066e+002
21790237500 -5.676639e+000 4.909583e+000 -4.521497e+001 -1.225371e+002 -4.631045e+001 -1.298273e+002 -3.808278e+000 -1.168724e+002
21808981250 -5.689772e+000 4.029290e+000 -4.518538e+001 -1.225558e+002 -4.615110e+001 -1.316486e+002 -3.741415e+000 -1.178379e+002
21827725000 -5.709475e+000 3.073202e+000 -4.512362e+001 -1.216852e+002 -4.613072e+001 -1.322163e+002 -3.678433e+000 -1.187817e+002
21846468750 -5.721786e+000 2.108256e+000 -4.521898e+001 -1.228017e+002 -4.607306e+001 -1.327768e+002 -3.617404e+000 -1.197464e+002
21865212500 -5.727571e+000 1.148800e+000 -4.517157e+001 -1.238438e+002 -4.617823e+001 -1.334852e+002 -3.555539e+000 -1.206903e+002
21883956250 -5.739123e+000 2.746356e-001 -4.516429e+001 -1.240639e+002 -4.627940e+001 -1.320692e+002 -3.497518e+000 -1.216161e+002
21902700000 -5.743834e+000 -6.173210e-001 -4.495969e+001 -1.240193e+002 -4.605202e+001 -1.325314e+002 -3.433923e+000 -1.225603e+002
21921443750 -5.757409e+000 -1.508266e+000 -4.497898e+001 -1.259267e+002 -4.594483e+001 -1.322098e+002 -3.379728e+000 -1.234709e+002
21940187500 -5.778656e+000 -2.437435e+000 -4.486347e+001 -1.262217e+002 -4.579014e+001 -1.337649e+002 -3.332192e+000 -1.244023e+002
21958931250 -5.790446e+000 -3.438876e+000 -4.479906e+001 -1.280118e+002 -4.587369e+001 -1.361075e+002 -3.280695e+000 -1.253018e+002
21977675000 -5.791768e+000 -4.394013e+000 -4.485910e+001 -1.283269e+002 -4.552508e+001 -1.373231e+002 -3.228362e+000 -1.262210e+002
21996418750 -5.804064e+000 -5.304543e+000 -4.485574e+001 -1.284405e+002 -4.569474e+001 -1.380437e+002 -3.186202e+000 -1.271421e+002
22015162500 -5.807793e+000 -6.225667e+000 -4.481903e+001 -1.294288e+002 -4.546601e+001 -1.357345e+002 -3.136070e+000 -1.280483e+002
22033906250 -5.822887e+000 -7.163425e+000 -4.457480e+001 -1.323368e+002 -4.550096e+001 -1.376898e+002 -3.093948e+000 -1.288977e+002
22052650000 -5.845148e+000 -8.136070e+000 -4.447051e+001 -1.323441e+002 -4.525420e+001 -1.395493e+002 -3.054602e+000 -1.297563e+002
22071393750 -5.854605e+000 -9.092263e+000 -4.455173e+001 -1.335623e+002 -4.532454e+001 -1.401847e+002 -3.017274e+000 -1.306402e+002
22090137500 -5.857041e+000 -1.001663e+001 -4.453339e+001 -1.354017e+002 -4.537141e+001 -1.415864e+002 -2.979262e+000 -1.314756e+002
22108881250 -5.868498e+000 -1.095885e+001 -4.460284e+001 -1.366259e+002 -4.552935e+001 -1.426909e+002 -2.946806e+000 -1.323132e+002
22127625000 -5.879093e+000 -1.187381e+001 -4.467147e+001 -1.381617e+002 -4.547670e+001 -1.427350e+002 -2.912123e+000 -1.331531e+002
22146368750 -5.892933e+000 -1.283584e+001 -4.472557e+001 -1.395645e+002 -4.544207e+001 -1.428759e+002 -2.876058e+000 -1.339977e+002
22165112500 -5.909747e+000 -1.382277e+001 -4.482360e+001 -1.402618e+002 -4.525347e+001 -1.426841e+002 -2.844584e+000 -1.348399e+002
22183856250 -5.913745e+000 -1.483914e+001 -4.500918e+001 -1.414912e+002 -4.515415e+001 -1.436556e+002 -2.811308e+000 -1.356442e+002
22202600000 -5.919646e+000 -1.578855e+001 -4.522104e+001 -1.440719e+002 -4.484801e+001 -1.430974e+002 -2.780550e+000 -1.364716e+002
22221343750 -5.924209e+000 -1.675898e+001 -4.533680e+001 -1.459331e+002 -4.499757e+001 -1.434090e+002 -2.747339e+000 -1.373109e+002
22240087500 -5.929842e+000 -1.767277e+001 -4.560336e+001 -1.470330e+002 -4.499823e+001 -1.440634e+002 -2.711205e+000 -1.381243e+002
22258831250 -5.945314e+000 -1.854544e+001 -4.563794e+001 -1.489374e+002 -4.515180e+001 -1.438807e+002 -2.681884e+000 -1.389241e+002
22277575000 -5.959050e+000 -1.958515e+001 -4.572282e+001 -1.488332e+002 -4.518622e+001 -1.452466e+002 -2.650047e+000 -1.397230e+002
22296318750 -5.958884e+000 -2.057460e+001 -4.575177e+001 -1.502807e+002 -4.516099e+001 -1.462259e+002 -2.619723e+000 -1.405161e+002
22315062500 -5.964951e+000 -2.154485e+001 -4.581150e+001 -1.496617e+002 -4.511913e+001 -1.462494e+002 -2.592657e+000 -1.413135e+002
22333806250 -5.971295e+000 -2.252193e+001 -4.604336e+001 -1.524004e+002 -4.539149e+001 -1.463494e+002 -2.568375e+000 -1.421385e+002
22352550000 -5.971556e+000 -2.343928e+001 -4.616229e+001 -1.521370e+002 -4.546541e+001 -1.463504e+002 -2.535315e+000 -1.429267e+002
22371293750 -5.984241e+000 -2.437933e+001 -4.620949e+001 -1.533523e+002 -4.551414e+001 -1.467139e+002 -2.508502e+000 -1.437191e+002
22390037500 -5.993473e+000 -2.540100e+001 -4.612512e+001 -1.546708e+002 -4.524362e+001 -1.462997e+002 -2.484451e+000 -1.445237e+002
22408781250 -5.994860e+000 -2.636990e+001 -4.627122e+001 -1.564844e+002 -4.529967e+001 -1.470826e+002 -2.456977e+000 -1.452826e+002
22427525000 -5.999071e+000 -2.735200e+001 -4.643184e+001 -1.576760e+002 -4.530135e+001 -1.466745e+002 -2.432294e+000 -1.460632e+002
22446268750 -6.002409e+000 -2.830138e+001 -4.654970e+001 -1.579152e+002 -4.528361e+001 -1.508265e+002 -2.409893e+000 -1.468582e+002
22465012500 -6.001004e+000 -2.916940e+001 -4.639947e+001 -1.578845e+002 -4.517651e+001 -1.507342e+002 -2.386243e+000 -1.476525e+002
22483756250 -6.014848e+000 -3.010531e+001 -4.645807e+001 -1.596083e+002 -4.532962e+001 -1.512895e+002 -2.364305e+000 -1.484382e+002
22502500000 -6.014926e+000 -3.112415e+001 -4.645695e+001 -1.591538e+002 -4.526757e+001 -1.524714e+002 -2.337894e+000 -1.492218e+002
22521243750 -6.011088e+000 -3.212155e+001 -4.657581e+001 -1.582666e+002 -4.532233e+001 -1.526402e+002 -2.312669e+000 -1.499933e+002
22539987500 -6.010561e+000 -3.311090e+001 -4.649395e+001 -1.597888e+002 -4.534963e+001 -1.525423e+002 -2.289527e+000 -1.507783e+002
22558731250 -6.001336e+000 -3.406847e+001 -4.650867e+001 -1.611919e+002 -4.547857e+001 -1.540459e+002 -2.267664e+000 -1.515270e+002
22577475000 -5.998285e+000 -3.493579e+001 -4.653881e+001 -1.610176e+002 -4.578900e+001 -1.555735e+002 -2.245412e+000 -1.522638e+002
22596218750 -6.009287e+000 -3.584006e+001 -4.649646e+001 -1.622100e+002 -4.584078e+001 -1.568720e+002 -2.225003e+000 -1.529761e+002
22614962500 -6.019468e+000 -3.684271e+001 -4.648763e+001 -1.622461e+002 -4.580357e+001 -1.581656e+002 -2.207417e+000 -1.537462e+002
22633706250 -6.012561e+000 -3.787300e+001 -4.654992e+001 -1.622371e+002 -4.573687e+001 -1.596513e+002 -2.184614e+000 -1.544989e+002
22652450000 -6.013134e+000 -3.876959e+001 -4.643112e+001 -1.629366e+002 -4.570716e+001 -1.607238e+002 -2.169138e+000 -1.552165e+002
22671193750 -6.014727e+000 -3.976512e+001 -4.621933e+001 -1.626284e+002 -4.590599e+001 -1.628057e+002 -2.157240e+000 -1.559699e+002
22689937500 -6.003904e+000 -4.071502e+001 -4.661953e+001 -1.622517e+002 -4.595206e+001 -1.646114e+002 -2.133241e+000 -1.566927e+002
22708681250 -6.011385e+000 -4.156666e+001 -4.658440e+001 -1.630410e+002 -4.603389e+001 -1.653149e+002 -2.126671e+000 -1.573731e+002
22727425000 -6.021877e+000 -4.263363e+001 -4.679540e+001 -1.626709e+002 -4.630518e+001 -1.649307e+002 -2.114411e+000 -1.581422e+002
22746168750 -6.007976e+000 -4.363795e+001 -4.703747e+001 -1.632211e+002 -4.626384e+001 -1.658438e+002 -2.094282e+000 -1.588428e+002
22764912500 -6.006173e+000 -4.453750e+001 -4.695557e+001 -1.616469e+002 -4.619216e+001 -1.667609e+002 -2.087714e+000 -1.594907e+002
22783656250 -6.007170e+000 -4.555421e+001 -4.694281e+001 -1.631937e+002 -4.628642e+001 -1.688457e+002 -2.081182e+000 -1.602598e+002
22802400000 -5.997771e+000 -4.645855e+001 -4.711972e+001 -1.629267e+002 -4.656510e+001 -1.693110e+002 -2.063076e+000 -1.609234e+002
22821143750 -6.008882e+000 -4.733379e+001 -4.741568e+001 -1.614339e+002 -4.703529e+001 -1.719142e+002 -2.056034e+000 -1.616043e+002
22839887500 -6.013235e+000 -4.837484e+001 -4.739456e+001 -1.621494e+002 -4.724704e+001 -1.729564e+002 -2.047027e+000 -1.623450e+002
22858631250 -5.995236e+000 -4.932586e+001 -4.736044e+001 -1.630343e+002 -4.712256e+001 -1.742374e+002 -2.031710e+000 -1.629958e+002
22877375000 -5.993521e+000 -5.024868e+001 -4.728048e+001 -1.652330e+002 -4.722293e+001 -1.742325e+002 -2.030657e+000 -1.636506e+002
22896118750 -5.985416e+000 -5.125914e+001 -4.745073e+001 -1.662173e+002 -4.747489e+001 -1.745187e+002 -2.016853e+000 -1.643773e+002
22914862500 -5.975580e+000 -5.216140e+001 -4.758624e+001 -1.675308e+002 -4.775583e+001 -1.759989e+002 -2.003745e+000 -1.649955e+002
22933606250 -5.993145e+000 -5.311866e+001 -4.780683e+001 -1.698889e+002 -4.787268e+001 -1.764247e+002 -2.004640e+000 -1.656494e+002
22952350000 -5.993218e+000 -5.415780e+001 -4.772352e+001 -1.705968e+002 -4.827189e+001 -1.759459e+002 -1.994601e+000 -1.663631e+002
22971093750 -5.980176e+000 -5.508208e+001 -4.806465e+001 -1.694325e+002 -4.837989e+001 -1.763748e+002 -1.985867e+000 -1.669360e+002
22989837500 -5.984116e+000 -5.601786e+001 -4.803489e+001 -1.688657e+002 -4.857592e+001 -1.774745e+002 -1.987647e+000 -1.676282e+002
23008581250 -5.974343e+000 -5.698079e+001 -4.832433e+001 -1.703145e+002 -4.850201e+001 -1.779145e+002 -1.978080e+000 -1.683212e+002
23027325000 -5.962766e+000 -5.788388e+001 -4.842881e+001 -1.716824e+002 -4.862759e+001 -1.791451e+002 -1.970133e+000 -1.689314e+002
23046068750 -5.959882e+000 -5.880536e+001 -4.939211e+001 -1.715939e+002 -4.881704e+001 -1.796546e+002 -1.971579e+000 -1.695941e+002
23064812500 -5.955705e+000 -5.978066e+001 -4.937292e+001 -1.713523e+002 -4.917736e+001 1.796939e+002 -1.963220e+000 -1.702302e+002
23083556250 -5.945210e+000 -6.078051e+001 -4.972663e+001 -1.730194e+002 -4.916935e+001 1.794466e+002 -1.958146e+000 -1.708386e+002
23102300000 -5.934459e+000 -6.172063e+001 -4.993403e+001 -1.752621e+002 -4.949820e+001 1.795551e+002 -1.957540e+000 -1.714569e+002
23121043750 -5.928919e+000 -6.264980e+001 -4.966240e+001 -1.766193e+002 -4.971574e+001 -1.798517e+002 -1.952690e+000 -1.720974e+002
23139787500 -5.923233e+000 -6.356476e+001 -4.979482e+001 -1.767846e+002 -5.009415e+001 1.785360e+002 -1.947084e+000 -1.727069e+002
23158531250 -5.921071e+000 -6.445264e+001 -5.011180e+001 1.797238e+002 -5.068206e+001 1.745356e+002 -1.947158e+000 -1.733161e+002
23177275000 -5.920057e+000 -6.540826e+001 -5.023659e+001 1.776754e+002 -5.075698e+001 1.736796e+002 -1.942061e+000 -1.739288e+002
23196018750 -5.909045e+000 -6.638104e+001 -5.043025e+001 1.762009e+002 -5.080197e+001 1.723607e+002 -1.937529e+000 -1.745282e+002
23214762500 -5.893115e+000 -6.726321e+001 -5.071539e+001 1.771379e+002 -5.079995e+001 1.718831e+002 -1.932983e+000 -1.751273e+002
23233506250 -5.883645e+000 -6.816525e+001 -5.068437e+001 1.765027e+002 -5.075502e+001 1.695109e+002 -1.930628e+000 -1.757363e+002
23252250000 -5.871861e+000 -6.906377e+001 -5.054572e+001 1.732719e+002 -5.032685e+001 1.710677e+002 -1.928102e+000 -1.763189e+002
23270993750 -5.869399e+000 -6.999892e+001 -5.040855e+001 1.719040e+002 -5.048351e+001 1.718477e+002 -1.929200e+000 -1.769199e+002
23289737500 -5.865222e+000 -7.095154e+001 -5.088353e+001 1.702653e+002 -5.060352e+001 1.712357e+002 -1.923425e+000 -1.774949e+002
23308481250 -5.851758e+000 -7.192605e+001 -5.098029e+001 1.726972e+002 -5.069879e+001 1.721371e+002 -1.918433e+000 -1.780651e+002
23327225000 -5.839710e+000 -7.284534e+001 -5.109093e+001 1.760576e+002 -5.064902e+001 1.705454e+002 -1.919430e+000 -1.786282e+002
23345968750 -5.827906e+000 -7.370622e+001 -5.108765e+001 1.767892e+002 -5.051270e+001 1.694047e+002 -1.913419e+000 -1.792220e+002
23364712500 -5.817256e+000 -7.454387e+001 -5.199239e+001 1.758320e+002 -5.057103e+001 1.714659e+002 -1.910064e+000 -1.797699e+002
23383456250 -5.816703e+000 -7.545459e+001 -5.238518e+001 1.767070e+002 -5.093309e+001 1.660237e+002 -1.908421e+000 1.796684e+002
23402200000 -5.809664e+000 -7.639568e+001 -5.257452e+001 1.744097e+002 -5.121756e+001 1.642280e+002 -1.905393e+000 1.790796e+002
23420943750 -5.797028e+000 -7.734630e+001 -5.314966e+001 1.706409e+002 -5.109146e+001 1.632647e+002 -1.901238e+000 1.785621e+002
23439687500 -5.785101e+000 -7.823888e+001 -5.308765e+001 1.718922e+002 -5.102518e+001 1.637441e+002 -1.902864e+000 1.779980e+002
23458431250 -5.772755e+000 -7.914078e+001 -5.321865e+001 1.714627e+002 -5.109593e+001 1.661082e+002 -1.899559e+000 1.774311e+002
23477175000 -5.769139e+000 -8.001399e+001 -5.235847e+001 1.688651e+002 -5.126309e+001 1.635376e+002 -1.896446e+000 1.768968e+002
23495918750 -5.761466e+000 -8.089161e+001 -5.257068e+001 1.701171e+002 -5.128687e+001 1.626674e+002 -1.894846e+000 1.763286e+002
23514662500 -5.751822e+000 -8.182565e+001 -5.303715e+001 1.791490e+002 -5.125748e+001 1.608437e+002 -1.889883e+000 1.757776e+002
23533406250 -5.738281e+000 -8.273917e+001 -5.307387e+001 -1.792828e+002 -5.115583e+001 1.599339e+002 -1.888083e+000 1.752606e+002
23552150000 -5.725137e+000 -8.361961e+001 -5.312053e+001 -1.797728e+002 -5.113037e+001 1.624228e+002 -1.889889e+000 1.746883e+002
23570893750 -5.713645e+000 -8.450374e+001 -5.315768e+001 -1.783306e+002 -5.249533e+001 1.636303e+002 -1.883374e+000 1.741371e+002
23589637500 -5.703320e+000 -8.537362e+001 -5.267496e+001 -1.744636e+002 -5.199208e+001 1.671464e+002 -1.881262e+000 1.736203e+002
23608381250 -5.697511e+000 -8.626466e+001 -5.281709e+001 -1.737069e+002 -5.217396e+001 1.673474e+002 -1.879788e+000 1.730559e+002
23627125000 -5.685726e+000 -8.720294e+001 -5.307661e+001 -1.767934e+002 -5.239785e+001 1.711776e+002 -1.872080e+000 1.725138e+002
23645868750 -5.673249e+000 -8.811920e+001 -5.278022e+001 -1.772236e+002 -5.275498e+001 1.717816e+002 -1.876101e+000 1.720025e+002
23664612500 -5.661251e+000 -8.900124e+001 -5.300625e+001 -1.772650e+002 -5.275460e+001 1.735595e+002 -1.874341e+000 1.714412e+002
23683356250 -5.653119e+000 -8.986627e+001 -5.312585e+001 -1.745074e+002 -5.292172e+001 1.716690e+002 -1.868919e+000 1.709133e+002
23702100000 -5.640761e+000 -9.072065e+001 -5.334688e+001 -1.721957e+002 -5.258495e+001 1.716311e+002 -1.866049e+000 1.703969e+002
23720843750 -5.636213e+000 -9.160822e+001 -5.322462e+001 -1.709703e+002 -5.297749e+001 1.725148e+002 -1.864418e+000 1.698185e+002
23739587500 -5.623933e+000 -9.251387e+001 -5.331393e+001 -1.750515e+002 -5.298198e+001 1.707779e+002 -1.859283e+000 1.693106e+002
23758331250 -5.610372e+000 -9.338635e+001 -5.340611e+001 -1.778629e+002 -5.293029e+001 1.732986e+002 -1.860502e+000 1.687722e+002
23777075000 -5.600907e+000 -9.426610e+001 -5.397333e+001 1.777346e+002 -5.319391e+001 1.793023e+002 -1.860347e+000 1.682263e+002
23795818750 -5.584177e+000 -9.516489e+001 -5.320807e+001 1.793441e+002 -5.322755e+001 1.764736e+002 -1.855075e+000 1.677036e+002
23814562500 -5.570359e+000 -9.600235e+001 -5.296142e+001 1.761683e+002 -5.269012e+001 1.796517e+002 -1.858696e+000 1.671593e+002
23833306250 -5.560987e+000 -9.688148e+001 -5.328602e+001 1.748618e+002 -5.235070e+001 -1.797343e+002 -1.850467e+000 1.666243e+002
23852050000 -5.544596e+000 -9.777936e+001 -5.321931e+001 1.763770e+002 -5.226686e+001 -1.783458e+002 -1.846438e+000 1.661000e+002
23870793750 -5.528241e+000 -9.864326e+001 -5.307411e+001 1.753475e+002 -5.251373e+001 -1.720374e+002 -1.846783e+000 1.655779e+002
23889537500 -5.517779e+000 -9.949978e+001 -5.298711e+001 1.738907e+002 -5.269807e+001 -1.607722e+002 -1.840991e+000 1.650143e+002
23908281250 -5.505957e+000 -1.003658e+002 -5.368845e+001 1.704921e+002 -5.286358e+001 -1.432083e+002 -1.835728e+000 1.645194e+002
23927025000 -5.495860e+000 -1.012440e+002 -5.357947e+001 1.675792e+002 -5.287119e+001 -1.270181e+002 -1.840842e+000 1.639728e+002
23945768750 -5.487417e+000 -1.020914e+002 -5.299918e+001 1.575416e+002 -5.330640e+001 -1.054945e+002 -1.836519e+000 1.634254e+002
23964512500 -5.474713e+000 -1.029790e+002 -5.355746e+001 1.499367e+002 -5.404040e+001 -8.382491e+001 -1.830401e+000 1.629136e+002
23983256250 -5.456348e+000 -1.038393e+002 -5.358007e+001 1.479500e+002 -5.401362e+001 -7.129514e+001 -1.831922e+000 1.623875e+002
24002000000 -5.441660e+000 -1.047043e+002 -5.367292e+001 1.441913e+002 -5.274484e+001 -5.494911e+001 -1.829209e+000 1.618467e+002
24020743750 -5.427806e+000 -1.055668e+002 -5.421371e+001 1.407277e+002 -5.294168e+001 -4.179019e+001 -1.828988e+000 1.613454e+002
24039487500 -5.416129e+000 -1.064056e+002 -5.425187e+001 1.390668e+002 -5.309908e+001 -3.349399e+001 -1.837332e+000 1.607905e+002
24058231250 -5.410464e+000 -1.072618e+002 -5.436840e+001 1.429438e+002 -5.285752e+001 -2.148483e+001 -1.835274e+000 1.602435e+002
24076975000 -5.395070e+000 -1.081452e+002 -5.474284e+001 1.414135e+002 -5.266875e+001 -7.513725e+000 -1.835326e+000 1.597368e+002
24095718750 -5.376172e+000 -1.089694e+002 -5.451431e+001 1.367471e+002 -5.303421e+001 6.093583e+000 -1.838454e+000 1.591948e+002
24114462500 -5.363816e+000 -1.098322e+002 -5.431022e+001 1.349016e+002 -5.370244e+001 2.829641e+001 -1.838427e+000 1.586589e+002
24133206250 -5.348411e+000 -1.106439e+002 -5.474541e+001 1.260701e+002 -5.408549e+001 4.173000e+001 -1.838432e+000 1.581665e+002
24151950000 -5.338949e+000 -1.114867e+002 -5.499986e+001 1.219607e+002 -5.395005e+001 5.757426e+001 -1.843576e+000 1.576224e+002
24170693750 -5.328618e+000 -1.123475e+002 -5.501511e+001 1.237179e+002 -5.397092e+001 7.063354e+001 -1.844444e+000 1.570900e+002
24189437500 -5.310928e+000 -1.132108e+002 -5.495115e+001 1.246180e+002 -5.447307e+001 8.404034e+001 -1.848159e+000 1.566057e+002
24208181250 -5.291571e+000 -1.140381e+002 -5.490295e+001 1.283116e+002 -5.441431e+001 9.321407e+001 -1.853712e+000 1.560684e+002
24226925000 -5.276718e+000 -1.148718e+002 -5.478008e+001 1.253893e+002 -5.445104e+001 1.051855e+002 -1.854754e+000 1.555509e+002
24245668750 -5.259463e+000 -1.156768e+002 -5.539263e+001 1.217667e+002 -5.455455e+001 1.174747e+002 -1.858433e+000 1.550684e+002
24264412500 -5.252250e+000 -1.165124e+002 -5.501450e+001 1.239646e+002 -5.496330e+001 1.308795e+002 -1.867814e+000 1.545109e+002
24283156250 -5.240516e+000 -1.173628e+002 -5.508198e+001 1.215170e+002 -5.510669e+001 1.453509e+002 -1.865232e+000 1.539956e+002
24301900000 -5.222809e+000 -1.182126e+002 -5.504335e+001 1.187399e+002 -5.506536e+001 1.530441e+002 -1.870217e+000 1.535136e+002
24320643750 -5.201815e+000 -1.190349e+002 -5.509707e+001 1.169511e+002 -5.461263e+001 1.533605e+002 -1.876850e+000 1.529872e+002
24339387500 -5.181267e+000 -1.198186e+002 -5.470865e+001 1.186142e+002 -5.426034e+001 1.512095e+002 -1.879547e+000 1.524912e+002
24358131250 -5.168140e+000 -1.206203e+002 -5.459168e+001 1.171149e+002 -5.462727e+001 1.464351e+002 -1.885758e+000 1.520105e+002
24376875000 -5.159459e+000 -1.214404e+002 -5.477555e+001 1.154271e+002 -5.452926e+001 1.383497e+002 -1.890861e+000 1.514687e+002
24395618750 -5.142706e+000 -1.222908e+002 -5.409647e+001 1.200271e+002 -5.415390e+001 1.316810e+002 -1.889573e+000 1.509627e+002
24414362500 -5.128130e+000 -1.231081e+002 -5.430421e+001 1.267444e+002 -5.417506e+001 1.273680e+002 -1.893989e+000 1.504698e+002
24433106250 -5.114307e+000 -1.239083e+002 -5.467760e+001 1.383256e+002 -5.414444e+001 1.209556e+002 -1.895368e+000 1.499395e+002
24451850000 -5.095228e+000 -1.247023e+002 -5.429254e+001 1.508605e+002 -5.412050e+001 1.226269e+002 -1.894398e+000 1.494384e+002
24470593750 -5.080294e+000 -1.254872e+002 -5.400993e+001 1.628878e+002 -5.413795e+001 1.273763e+002 -1.898004e+000 1.489658e+002
24489337500 -5.069138e+000 -1.263059e+002 -5.374252e+001 1.752958e+002 -5.480153e+001 1.276816e+002 -1.897234e+000 1.484452e+002
24508081250 -5.052311e+000 -1.271223e+002 -5.371939e+001 -1.696378e+002 -5.506767e+001 1.277544e+002 -1.893409e+000 1.479694e+002
24526825000 -5.034819e+000 -1.279581e+002 -5.378843e+001 -1.519168e+002 -5.490539e+001 1.226807e+002 -1.897454e+000 1.474953e+002
24545568750 -5.014962e+000 -1.287485e+002 -5.384204e+001 -1.400488e+002 -5.455757e+001 1.132581e+002 -1.895534e+000 1.469734e+002
24564312500 -4.996410e+000 -1.295516e+002 -5.354909e+001 -1.223516e+002 -5.440975e+001 1.087094e+002 -1.895262e+000 1.465036e+002
24583056250 -4.983890e+000 -1.303308e+002 -5.327946e+001 -1.065979e+002 -5.458654e+001 9.814857e+001 -1.899520e+000 1.460270e+002
24601800000 -4.975410e+000 -1.311349e+002 -5.389436e+001 -8.821899e+001 -5.492241e+001 8.479266e+001 -1.894170e+000 1.454869e+002
24620543750 -4.960288e+000 -1.319611e+002 -5.391083e+001 -7.045647e+001 -5.449541e+001 6.355866e+001 -1.891574e+000 1.450066e+002
24639287500 -4.945570e+000 -1.327711e+002 -5.346445e+001 -4.669860e+001 -5.438567e+001 4.184419e+001 -1.895069e+000 1.445354e+002
24658031250 -4.932404e+000 -1.335597e+002 -5.365952e+001 -1.855134e+001 -5.456833e+001 2.758070e+001 -1.893997e+000 1.439969e+002
24676775000 -4.916095e+000 -1.343545e+002 -5.328888e+001 1.458344e+001 -5.465572e+001 8.491281e+000 -1.893886e+000 1.435199e+002
24695518750 -4.903654e+000 -1.351188e+002 -5.367056e+001 3.898689e+001 -5.466895e+001 -1.286272e+001 -1.898640e+000 1.430367e+002
24714262500 -4.892751e+000 -1.359360e+002 -5.382484e+001 6.098729e+001 -5.456170e+001 -3.477000e+001 -1.896640e+000 1.425252e+002
24733006250 -4.876004e+000 -1.367504e+002 -5.426729e+001 7.506210e+001 -5.444396e+001 -5.388271e+001 -1.891696e+000 1.420441e+002
24751750000 -4.866888e+000 -1.375313e+002 -5.442516e+001 9.752025e+001 -5.482484e+001 -7.039577e+001 -1.893457e+000 1.415572e+002
24770493750 -4.853505e+000 -1.383461e+002 -5.457984e+001 1.264799e+002 -5.500429e+001 -8.435164e+001 -1.889529e+000 1.410466e+002
24789237500 -4.836129e+000 -1.391082e+002 -5.497425e+001 1.473165e+002 -5.492036e+001 -9.290032e+001 -1.888070e+000 1.405990e+002
24807981250 -4.824538e+000 -1.398695e+002 -5.505419e+001 1.647836e+002 -5.505390e+001 -9.753743e+001 -1.894120e+000 1.401087e+002
24826725000 -4.814906e+000 -1.406645e+002 -5.531813e+001 1.748566e+002 -5.457704e+001 -1.073355e+002 -1.891335e+000 1.395981e+002
24845468750 -4.799284e+000 -1.414562e+002 -5.535093e+001 -1.768207e+002 -5.507473e+001 -1.152688e+002 -1.889523e+000 1.391431e+002
24864212500 -4.783005e+000 -1.422595e+002 -5.488043e+001 -1.789527e+002 -5.503939e+001 -1.187522e+002 -1.890199e+000 1.386451e+002
24882956250 -4.769062e+000 -1.430283e+002 -5.534691e+001 -1.783475e+002 -5.471041e+001 -1.204457e+002 -1.884190e+000 1.381672e+002
24901700000 -4.753328e+000 -1.437866e+002 -5.592479e+001 -1.743085e+002 -5.548360e+001 -1.247917e+002 -1.881557e+000 1.377230e+002
24920443750 -4.747498e+000 -1.445306e+002 -5.575941e+001 -1.668905e+002 -5.489556e+001 -1.361033e+002 -1.884105e+000 1.372249e+002
24939187500 -4.734154e+000 -1.453165e+002 -5.615099e+001 -1.546604e+002 -5.463310e+001 -1.459256e+002 -1.875691e+000 1.367094e+002
24957931250 -4.723168e+000 -1.461023e+002 -5.641261e+001 -1.463066e+002 -5.488684e+001 -1.541927e+002 -1.870063e+000 1.362126e+002
24976675000 -4.709630e+000 -1.468899e+002 -5.668210e+001 -1.364338e+002 -5.547997e+001 -1.588727e+002 -1.867682e+000 1.357116e+002
24995418750 -4.693428e+000 -1.476520e+002 -5.664577e+001 -1.256640e+002 -5.541026e+001 -1.653187e+002 -1.858078e+000 1.351917e+002
25014162500 -4.678033e+000 -1.483618e+002 -5.656094e+001 -1.158796e+002 -5.559249e+001 -1.683123e+002 -1.859538e+000 1.346668e+002
25032906250 -4.668751e+000 -1.491026e+002 -5.632126e+001 -1.126565e+002 -5.570354e+001 -1.713857e+002 -1.857253e+000 1.341087e+002
25051650000 -4.656877e+000 -1.498443e+002 -5.665891e+001 -1.137737e+002 -5.640857e+001 -1.645692e+002 -1.847282e+000 1.335428e+002
25070393750 -4.637765e+000 -1.506057e+002 -5.686178e+001 -1.160268e+002 -5.630094e+001 -1.492580e+002 -1.844189e+000 1.330198e+002
25089137500 -4.625910e+000 -1.513562e+002 -5.726332e+001 -1.215855e+002 -5.657491e+001 -1.467009e+002 -1.838328e+000 1.324980e+002
25107881250 -4.611080e+000 -1.520845e+002 -5.722658e+001 -1.326073e+002 -5.638536e+001 -1.384492e+002 -1.831270e+000 1.320033e+002
25126625000 -4.596608e+000 -1.527693e+002 -5.715218e+001 -1.367568e+002 -5.654575e+001 -1.241477e+002 -1.831346e+000 1.314880e+002
25145368750 -4.590287e+000 -1.534798e+002 -5.724154e+001 -1.394346e+002 -5.645766e+001 -1.133214e+002 -1.833005e+000 1.308975e+002
25164112500 -4.579979e+000 -1.542520e+002 -5.686172e+001 -1.329448e+002 -5.652250e+001 -1.056613e+002 -1.829895e+000 1.303819e+002
25182856250 -4.566889e+000 -1.550026e+002 -5.676319e+001 -1.325950e+002 -5.665053e+001 -9.872658e+001 -1.830696e+000 1.298492e+002
25201600000 -4.554653e+000 -1.557518e+002 -5.644683e+001 -1.315552e+002 -5.681829e+001 -9.889543e+001 -1.828561e+000 1.293085e+002
25220343750 -4.539058e+000 -1.564624e+002 -5.632296e+001 -1.166571e+002 -5.667243e+001 -1.062939e+002 -1.827358e+000 1.287704e+002
25239087500 -4.526862e+000 -1.571479e+002 -5.608496e+001 -9.669122e+001 -5.627488e+001 -1.157941e+002 -1.830375e+000 1.282641e+002
25257831250 -4.518961e+000 -1.578653e+002 -5.652872e+001 -7.144650e+001 -5.609406e+001 -1.189959e+002 -1.836536e+000 1.277095e+002
25276575000 -4.506085e+000 -1.586022e+002 -5.659648e+001 -4.644213e+001 -5.567616e+001 -1.209256e+002 -1.835796e+000 1.271765e+002
25295318750 -4.493004e+000 -1.593095e+002 -5.695304e+001 -2.368750e+001 -5.574287e+001 -1.327673e+002 -1.840007e+000 1.266447e+002
25314062500 -4.480299e+000 -1.600371e+002 -5.677682e+001 -5.875237e+000 -5.589935e+001 -1.442845e+002 -1.843112e+000 1.260987e+002
25332806250 -4.463757e+000 -1.607261e+002 -5.628746e+001 2.213520e+000 -5.497874e+001 -1.520101e+002 -1.842425e+000 1.255971e+002
25351550000 -4.450935e+000 -1.614042e+002 -5.630098e+001 1.244929e+001 -5.547598e+001 -1.484684e+002 -1.852910e+000 1.251079e+002
25370293750 -4.450883e+000 -1.621269e+002 -5.637442e+001 1.414435e+001 -5.558422e+001 -1.527071e+002 -1.861082e+000 1.245884e+002
25389037500 -4.442475e+000 -1.628559e+002 -5.634587e+001 1.796948e+001 -5.493711e+001 -1.595030e+002 -1.872687e+000 1.241006e+002
25407781250 -4.425679e+000 -1.635715e+002 -5.643824e+001 2.598940e+001 -5.452484e+001 -1.775750e+002 -1.881863e+000 1.236202e+002
25426525000 -4.417778e+000 -1.642313e+002 -5.702145e+001 3.488100e+001 -5.467132e+001 1.726494e+002 -1.896013e+000 1.231229e+002
25445268750 -4.403486e+000 -1.649565e+002 -5.718134e+001 4.317381e+001 -5.422464e+001 1.661107e+002 -1.896708e+000 1.226840e+002
25464012500 -4.388013e+000 -1.656149e+002 -5.679390e+001 4.947387e+001 -5.388272e+001 1.650441e+002 -1.915751e+000 1.222832e+002
25482756250 -4.380587e+000 -1.663021e+002 -5.665896e+001 5.347122e+001 -5.332371e+001 1.600012e+002 -1.936735e+000 1.218365e+002
25501500000 -4.379330e+000 -1.670024e+002 -5.668422e+001 5.623923e+001 -5.337696e+001 1.467449e+002 -1.941157e+000 1.213463e+002
25520243750 -4.361517e+000 -1.677158e+002 -5.621088e+001 6.217536e+001 -5.348077e+001 1.452583e+002 -1.951510e+000 1.209425e+002
25538987500 -4.347620e+000 -1.683813e+002 -5.635710e+001 6.748613e+001 -5.385800e+001 1.365860e+002 -1.963994e+000 1.204721e+002
25557731250 -4.337732e+000 -1.690819e+002 -5.604478e+001 7.098749e+001 -5.387074e+001 1.188707e+002 -1.968840e+000 1.200215e+002
25576475000 -4.321818e+000 -1.697731e+002 -5.580293e+001 7.963892e+001 -5.410616e+001 1.075274e+002 -1.983379e+000 1.196432e+002
25595218750 -4.313347e+000 -1.704028e+002 -5.590669e+001 8.337171e+001 -5.421909e+001 9.811331e+001 -1.999181e+000 1.191733e+002
25613962500 -4.308698e+000 -1.711089e+002 -5.586437e+001 8.852954e+001 -5.409858e+001 8.946645e+001 -2.005576e+000 1.187329e+002
25632706250 -4.290719e+000 -1.718075e+002 -5.605161e+001 8.680927e+001 -5.375427e+001 8.177510e+001 -2.018218e+000 1.183247e+002
25651450000 -4.275182e+000 -1.724526e+002 -5.614693e+001 8.011777e+001 -5.382836e+001 8.093825e+001 -2.028940e+000 1.178801e+002
25670193750 -4.266554e+000 -1.731292e+002 -5.660755e+001 6.554736e+001 -5.379416e+001 7.477689e+001 -2.034081e+000 1.174572e+002
25688937500 -4.252974e+000 -1.737872e+002 -5.608126e+001 5.700635e+001 -5.414888e+001 6.354144e+001 -2.048523e+000 1.170698e+002
25707681250 -4.247253e+000 -1.744339e+002 -5.620607e+001 4.217791e+001 -5.415360e+001 5.389999e+001 -2.061657e+000 1.166157e+002
25726425000 -4.241004e+000 -1.751200e+002 -5.598759e+001 3.170120e+001 -5.401095e+001 5.536841e+001 -2.073582e+000 1.161785e+002
25745168750 -4.227150e+000 -1.757999e+002 -5.591827e+001 1.818160e+001 -5.396575e+001 5.664846e+001 -2.087735e+000 1.157636e+002
25763912500 -4.216195e+000 -1.764348e+002 -5.590605e+001 1.315008e+001 -5.406910e+001 6.140236e+001 -2.099651e+000 1.152977e+002
25782656250 -4.203240e+000 -1.770905e+002 -5.637617e+001 1.138134e+000 -5.452649e+001 5.377049e+001 -2.108648e+000 1.148718e+002
25801400000 -4.188932e+000 -1.777188e+002 -5.577068e+001 -4.250316e+000 -5.429394e+001 6.139827e+001 -2.125537e+000 1.144437e+002
25820143750 -4.180855e+000 -1.783431e+002 -5.546236e+001 -9.824564e+000 -5.440024e+001 7.341463e+001 -2.134732e+000 1.139648e+002
25838887500 -4.177481e+000 -1.790402e+002 -5.504710e+001 -1.853379e+001 -5.399725e+001 8.951081e+001 -2.145407e+000 1.135319e+002
25857631250 -4.162782e+000 -1.797509e+002 -5.449622e+001 -2.616546e+001 -5.395523e+001 9.978201e+001 -2.152307e+000 1.130839e+002
25876375000 -4.155218e+000 1.796425e+002 -5.400579e+001 -3.495368e+001 -5.429653e+001 1.069300e+002 -2.167886e+000 1.126393e+002
25895118750 -4.149477e+000 1.789994e+002 -5.429186e+001 -3.783685e+001 -5.460775e+001 1.125409e+002 -2.175212e+000 1.121955e+002
25913862500 -4.140027e+000 1.783494e+002 -5.408202e+001 -3.922059e+001 -5.461928e+001 1.234575e+002 -2.182396e+000 1.117541e+002
25932606250 -4.129385e+000 1.777113e+002 -5.407975e+001 -4.225854e+001 -5.500055e+001 1.321452e+002 -2.199959e+000 1.113379e+002
25951350000 -4.125778e+000 1.770469e+002 -5.389964e+001 -4.763972e+001 -5.451039e+001 1.402741e+002 -2.216951e+000 1.108467e+002
25970093750 -4.114091e+000 1.763780e+002 -5.347216e+001 -4.649125e+001 -5.436191e+001 1.513962e+002 -2.229799e+000 1.104072e+002
25988837500 -4.100716e+000 1.757564e+002 -5.337752e+001 -4.931960e+001 -5.405687e+001 1.697745e+002 -2.244080e+000 1.099694e+002
26007581250 -4.093740e+000 1.751236e+002 -5.329697e+001 -5.502074e+001 -5.373937e+001 -1.781731e+002 -2.257324e+000 1.095112e+002
26026325000 -4.083783e+000 1.744662e+002 -5.324999e+001 -5.691636e+001 -5.372049e+001 -1.657523e+002 -2.265622e+000 1.090637e+002
26045068750 -4.069924e+000 1.738604e+002 -5.374943e+001 -6.511223e+001 -5.351871e+001 -1.589397e+002 -2.287351e+000 1.085972e+002
26063812500 -4.066313e+000 1.732281e+002 -5.389314e+001 -7.254594e+001 -5.361647e+001 -1.417135e+002 -2.300679e+000 1.081249e+002
26082556250 -4.060536e+000 1.725496e+002 -5.349731e+001 -7.925044e+001 -5.376175e+001 -1.307740e+002 -2.311435e+000 1.076970e+002
26101300000 -4.047528e+000 1.719332e+002 -5.327047e+001 -7.148898e+001 -5.422016e+001 -1.190274e+002 -2.327993e+000 1.072457e+002
26120043750 -4.040662e+000 1.713074e+002 -5.359684e+001 -7.466415e+001 -5.414219e+001 -1.052475e+002 -2.341247e+000 1.067884e+002
26138787500 -4.031446e+000 1.706665e+002 -5.310011e+001 -7.589162e+001 -5.406791e+001 -9.265819e+001 -2.356627e+000 1.063601e+002
26157531250 -4.022708e+000 1.700539e+002 -5.312278e+001 -7.766518e+001 -5.393206e+001 -8.365389e+001 -2.371108e+000 1.059438e+002
26176275000 -4.019721e+000 1.694429e+002 -5.291802e+001 -7.519573e+001 -5.395436e+001 -8.182132e+001 -2.384730e+000 1.054587e+002
26195018750 -4.007390e+000 1.687913e+002 -5.290135e+001 -7.393315e+001 -5.413902e+001 -7.728371e+001 -2.402132e+000 1.050165e+002
26213762500 -3.995512e+000 1.681873e+002 -5.244467e+001 -7.233976e+001 -5.443885e+001 -7.033665e+001 -2.423829e+000 1.045434e+002
26232506250 -3.988520e+000 1.675798e+002 -5.228034e+001 -7.697114e+001 -5.468258e+001 -7.663770e+001 -2.439956e+000 1.040577e+002
26251250000 -3.973407e+000 1.669489e+002 -5.250560e+001 -8.023205e+001 -5.470980e+001 -7.818605e+001 -2.457456e+000 1.036081e+002
26269993750 -3.967553e+000 1.663883e+002 -5.275466e+001 -8.014673e+001 -5.472407e+001 -7.859086e+001 -2.477041e+000 1.031301e+002
26288737500 -3.958758e+000 1.657561e+002 -5.269911e+001 -8.253998e+001 -5.465375e+001 -7.770526e+001 -2.493535e+000 1.026729e+002
26307481250 -3.943437e+000 1.651258e+002 -5.302589e+001 -8.718547e+001 -5.410397e+001 -7.813216e+001 -2.509962e+000 1.022213e+002
26326225000 -3.932872e+000 1.645527e+002 -5.261460e+001 -9.117310e+001 -5.436267e+001 -7.106342e+001 -2.531052e+000 1.017446e+002
26344968750 -3.929457e+000 1.639302e+002 -5.240487e+001 -9.258856e+001 -5.407284e+001 -7.435484e+001 -2.551684e+000 1.012629e+002
26363712500 -3.917058e+000 1.633205e+002 -5.221515e+001 -9.430721e+001 -5.367352e+001 -7.311739e+001 -2.569091e+000 1.007635e+002
26382456250 -3.909946e+000 1.627553e+002 -5.234060e+001 -9.751524e+001 -5.387817e+001 -7.904527e+001 -2.590504e+000 1.002586e+002
26401200000 -3.906667e+000 1.621384e+002 -5.268415e+001 -9.964322e+001 -5.366038e+001 -7.661047e+001 -2.605234e+000 9.975343e+001
26419943750 -3.894766e+000 1.615308e+002 -5.267883e+001 -1.008167e+002 -5.357692e+001 -8.077451e+001 -2.626538e+000 9.928470e+001
26438687500 -3.891313e+000 1.609853e+002 -5.234739e+001 -1.009749e+002 -5.366617e+001 -8.104563e+001 -2.652393e+000 9.879691e+001
26457431250 -3.887690e+000 1.603917e+002 -5.238145e+001 -1.039971e+002 -5.345769e+001 -8.532964e+001 -2.676428e+000 9.827760e+001
26476175000 -3.877894e+000 1.598001e+002 -5.216150e+001 -1.005886e+002 -5.341079e+001 -8.577483e+001 -2.697213e+000 9.778510e+001
26494918750 -3.873130e+000 1.592300e+002 -5.188519e+001 -9.727233e+001 -5.322228e+001 -9.100934e+001 -2.720201e+000 9.724459e+001
26513662500 -3.864084e+000 1.586326e+002 -5.245045e+001 -9.745763e+001 -5.275121e+001 -9.461582e+001 -2.744265e+000 9.669789e+001
26532406250 -3.851669e+000 1.580654e+002 -5.192579e+001 -1.059393e+002 -5.221743e+001 -9.635558e+001 -2.762877e+000 9.621837e+001
26551150000 -3.847620e+000 1.575104e+002 -5.147598e+001 -1.090118e+002 -5.232576e+001 -9.812463e+001 -2.786951e+000 9.569274e+001
26569893750 -3.838063e+000 1.569070e+002 -5.190820e+001 -1.123186e+002 -5.216142e+001 -1.010143e+002 -2.810052e+000 9.515891e+001
26588637500 -3.827507e+000 1.563319e+002 -5.184449e+001 -1.121739e+002 -5.232490e+001 -1.046392e+002 -2.835206e+000 9.462176e+001
26607381250 -3.819990e+000 1.557554e+002 -5.184713e+001 -1.110778e+002 -5.258433e+001 -1.112963e+002 -2.859785e+000 9.407851e+001
26626125000 -3.812576e+000 1.551493e+002 -5.180219e+001 -1.111497e+002 -5.249776e+001 -1.196141e+002 -2.881346e+000 9.353286e+001
26644868750 -3.806632e+000 1.545873e+002 -5.171886e+001 -1.137179e+002 -5.130372e+001 -1.228934e+002 -2.901868e+000 9.303059e+001
26663612500 -3.803964e+000 1.540248e+002 -5.219839e+001 -1.128320e+002 -5.137923e+001 -1.218662e+002 -2.925596e+000 9.251894e+001
26682356250 -3.799824e+000 1.534431e+002 -5.197447e+001 -1.113455e+002 -5.154092e+001 -1.251917e+002 -2.943696e+000 9.200829e+001
26701100000 -3.787222e+000 1.529002e+002 -5.207115e+001 -1.123694e+002 -5.177694e+001 -1.276723e+002 -2.969989e+000 9.150104e+001
26719843750 -3.785790e+000 1.523395e+002 -5.215716e+001 -1.152135e+002 -5.152360e+001 -1.304956e+002 -2.993664e+000 9.095765e+001
26738587500 -3.777220e+000 1.517539e+002 -5.271652e+001 -1.106870e+002 -5.146711e+001 -1.305815e+002 -3.014596e+000 9.041729e+001
26757331250 -3.770826e+000 1.512085e+002 -5.273522e+001 -1.133985e+002 -5.070946e+001 -1.355227e+002 -3.037158e+000 8.987214e+001
26776075000 -3.764729e+000 1.506688e+002 -5.298048e+001 -1.174997e+002 -5.078952e+001 -1.377010e+002 -3.060539e+000 8.935970e+001
26794818750 -3.757233e+000 1.500924e+002 -5.288848e+001 -1.194482e+002 -5.094039e+001 -1.384712e+002 -3.078811e+000 8.882298e+001
26813562500 -3.748255e+000 1.495485e+002 -5.290330e+001 -1.178984e+002 -5.057148e+001 -1.370459e+002 -3.099328e+000 8.833123e+001
26832306250 -3.741336e+000 1.489911e+002 -5.271240e+001 -1.209132e+002 -5.049831e+001 -1.414566e+002 -3.124186e+000 8.777451e+001
26851050000 -3.731246e+000 1.484385e+002 -5.308022e+001 -1.203029e+002 -5.067034e+001 -1.410992e+002 -3.142433e+000 8.724631e+001
26869793750 -3.722973e+000 1.479174e+002 -5.290298e+001 -1.218519e+002 -5.090727e+001 -1.428333e+002 -3.162107e+000 8.674180e+001
26888537500 -3.722735e+000 1.473534e+002 -5.338759e+001 -1.232461e+002 -5.094917e+001 -1.456307e+002 -3.185338e+000 8.620760e+001
26907281250 -3.715875e+000 1.467939e+002 -5.328296e+001 -1.285642e+002 -5.133459e+001 -1.435139e+002 -3.202095e+000 8.569908e+001
26926025000 -3.706782e+000 1.462703e+002 -5.310950e+001 -1.345470e+002 -5.126472e+001 -1.447386e+002 -3.225917e+000 8.517860e+001
26944768750 -3.702811e+000 1.457180e+002 -5.243571e+001 -1.371327e+002 -5.128728e+001 -1.451915e+002 -3.243664e+000 8.464754e+001
26963512500 -3.694803e+000 1.451740e+002 -5.270998e+001 -1.389245e+002 -5.154921e+001 -1.457700e+002 -3.261358e+000 8.409369e+001
26982256250 -3.691304e+000 1.446707e+002 -5.289597e+001 -1.390326e+002 -5.125578e+001 -1.461680e+002 -3.283003e+000 8.357182e+001
27001000000 -3.693175e+000 1.441266e+002 -5.234555e+001 -1.391569e+002 -5.160671e+001 -1.486321e+002 -3.304176e+000 8.303857e+001
27019743750 -3.683198e+000 1.435751e+002 -5.226486e+001 -1.402794e+002 -5.185087e+001 -1.498372e+002 -3.322216e+000 8.251144e+001
27038487500 -3.676794e+000 1.430489e+002 -5.225959e+001 -1.425931e+002 -5.142196e+001 -1.487973e+002 -3.344048e+000 8.201908e+001
27057231250 -3.673480e+000 1.424952e+002 -5.220915e+001 -1.439651e+002 -5.106740e+001 -1.524023e+002 -3.361175e+000 8.149534e+001
27075975000 -3.661432e+000 1.419807e+002 -5.235855e+001 -1.426656e+002 -5.096428e+001 -1.550166e+002 -3.376178e+000 8.098020e+001
27094718750 -3.657323e+000 1.414794e+002 -5.199424e+001 -1.454606e+002 -5.057147e+001 -1.541277e+002 -3.393935e+000 8.046449e+001
27113462500 -3.655331e+000 1.409492e+002 -5.214921e+001 -1.486747e+002 -5.042339e+001 -1.539507e+002 -3.415431e+000 7.991750e+001
27132206250 -3.649940e+000 1.403926e+002 -5.176987e+001 -1.529911e+002 -5.015600e+001 -1.552561e+002 -3.433145e+000 7.935271e+001
27150950000 -3.643382e+000 1.399010e+002 -5.138709e+001 -1.526230e+002 -5.062457e+001 -1.561056e+002 -3.458695e+000 7.880985e+001
27169693750 -3.637612e+000 1.393772e+002 -5.074800e+001 -1.581755e+002 -5.103275e+001 -1.577839e+002 -3.474875e+000 7.828136e+001
27188437500 -3.628026e+000 1.388699e+002 -5.093030e+001 -1.587977e+002 -5.093724e+001 -1.589439e+002 -3.489979e+000 7.778822e+001
27207181250 -3.629161e+000 1.383679e+002 -5.084931e+001 -1.576414e+002 -5.108995e+001 -1.594808e+002 -3.506592e+000 7.724879e+001
27225925000 -3.627292e+000 1.378230e+002 -5.068768e+001 -1.573634e+002 -5.079613e+001 -1.615815e+002 -3.526296e+000 7.672729e+001
27244668750 -3.620922e+000 1.372908e+002 -5.053271e+001 -1.583272e+002 -5.092708e+001 -1.634341e+002 -3.542691e+000 7.618623e+001
27263412500 -3.616485e+000 1.367652e+002 -5.022441e+001 -1.602396e+002 -5.080933e+001 -1.621136e+002 -3.560322e+000 7.568533e+001
27282156250 -3.606793e+000 1.362347e+002 -4.963436e+001 -1.652865e+002 -5.051576e+001 -1.636967e+002 -3.572969e+000 7.514547e+001
27300900000 -3.597078e+000 1.357362e+002 -5.006975e+001 -1.644707e+002 -5.033374e+001 -1.666015e+002 -3.584555e+000 7.463157e+001
27319643750 -3.592580e+000 1.352496e+002 -4.957492e+001 -1.647826e+002 -5.031431e+001 -1.633373e+002 -3.596869e+000 7.415240e+001
27338387500 -3.588418e+000 1.346971e+002 -4.940662e+001 -1.617882e+002 -5.024923e+001 -1.648183e+002 -3.607301e+000 7.365379e+001
27357131250 -3.583749e+000 1.341523e+002 -4.935863e+001 -1.611273e+002 -5.052469e+001 -1.676596e+002 -3.620021e+000 7.317537e+001
27375875000 -3.578402e+000 1.336238e+002 -4.945892e+001 -1.640745e+002 -5.032608e+001 -1.664474e+002 -3.634755e+000 7.269758e+001
27394618750 -3.570554e+000 1.330961e+002 -4.923320e+001 -1.661337e+002 -5.024577e+001 -1.686669e+002 -3.651037e+000 7.220083e+001
27413362500 -3.559786e+000 1.326013e+002 -4.903630e+001 -1.686841e+002 -5.037997e+001 -1.694618e+002 -3.665393e+000 7.174473e+001
27432106250 -3.559321e+000 1.321139e+002 -4.921030e+001 -1.712891e+002 -5.000363e+001 -1.713072e+002 -3.680694e+000 7.125748e+001
27450850000 -3.558960e+000 1.315954e+002 -4.910339e+001 -1.731319e+002 -5.008517e+001 -1.695153e+002 -3.692739e+000 7.075153e+001
27469593750 -3.553899e+000 1.310659e+002 -4.903751e+001 -1.750193e+002 -4.999002e+001 -1.698911e+002 -3.705945e+000 7.024712e+001
27488337500 -3.546207e+000 1.305170e+002 -4.901733e+001 -1.788040e+002 -4.998119e+001 -1.700527e+002 -3.723485e+000 6.972697e+001
27507081250 -3.535721e+000 1.299984e+002 -4.931359e+001 1.768125e+002 -5.004662e+001 -1.717562e+002 -3.735877e+000 6.925565e+001
27525825000 -3.525655e+000 1.295584e+002 -4.916227e+001 1.772534e+002 -5.068390e+001 -1.735466e+002 -3.747839e+000 6.880214e+001
27544568750 -3.527050e+000 1.290622e+002 -4.917908e+001 1.773405e+002 -5.065046e+001 -1.766345e+002 -3.763235e+000 6.832303e+001
27563312500 -3.523469e+000 1.285611e+002 -4.946552e+001 1.753520e+002 -5.070087e+001 -1.798922e+002 -3.768725e+000 6.788354e+001
27582056250 -3.516875e+000 1.280375e+002 -5.030033e+001 1.761839e+002 -5.044536e+001 1.767498e+002 -3.775417e+000 6.745767e+001
27600800000 -3.515116e+000 1.274971e+002 -5.015914e+001 1.737408e+002 -5.012338e+001 1.736760e+002 -3.788461e+000 6.697865e+001
27619543750 -3.501185e+000 1.269832e+002 -4.998813e+001 1.705177e+002 -5.032126e+001 1.692106e+002 -3.793179e+000 6.650152e+001
27638287500 -3.487613e+000 1.265528e+002 -4.988897e+001 1.671150e+002 -5.013832e+001 1.663388e+002 -3.803113e+000 6.606273e+001
27657031250 -3.490038e+000 1.260617e+002 -5.014317e+001 1.645112e+002 -5.020246e+001 1.622417e+002 -3.811368e+000 6.561396e+001
27675775000 -3.489200e+000 1.255394e+002 -5.052376e+001 1.617345e+002 -5.082213e+001 1.513426e+002 -3.812489e+000 6.517060e+001
27694518750 -3.486583e+000 1.250300e+002 -5.117662e+001 1.623612e+002 -5.080253e+001 1.450692e+002 -3.815633e+000 6.473524e+001
27713262500 -3.482955e+000 1.244748e+002 -5.126172e+001 1.581469e+002 -5.085707e+001 1.426680e+002 -3.828052e+000 6.429348e+001
27732006250 -3.471105e+000 1.239847e+002 -5.110946e+001 1.518782e+002 -5.125874e+001 1.376207e+002 -3.828321e+000 6.383931e+001
27750750000 -3.465471e+000 1.235143e+002 -5.107376e+001 1.486909e+002 -5.102010e+001 1.354552e+002 -3.836598e+000 6.339383e+001
27769493750 -3.469671e+000 1.230233e+002 -5.090916e+001 1.454285e+002 -5.104523e+001 1.307417e+002 -3.846557e+000 6.288534e+001
27788237500 -3.462877e+000 1.225386e+002 -5.099131e+001 1.411834e+002 -5.088278e+001 1.292194e+002 -3.846582e+000 6.242701e+001
27806981250 -3.463741e+000 1.220244e+002 -5.111353e+001 1.371216e+002 -5.138102e+001 1.243690e+002 -3.855340e+000 6.196500e+001
27825725000 -3.457513e+000 1.214828e+002 -5.178553e+001 1.364770e+002 -5.138857e+001 1.278070e+002 -3.863255e+000 6.149026e+001
27844468750 -3.446617e+000 1.210125e+002 -5.197013e+001 1.338832e+002 -5.155566e+001 1.236036e+002 -3.862610e+000 6.098046e+001
27863212500 -3.437975e+000 1.205647e+002 -5.190976e+001 1.287039e+002 -5.176661e+001 1.229231e+002 -3.865073e+000 6.053117e+001
27881956250 -3.433693e+000 1.200681e+002 -5.199195e+001 1.251547e+002 -5.123590e+001 1.184651e+002 -3.867141e+000 6.003877e+001
27900700000 -3.431742e+000 1.195518e+002 -5.250430e+001 1.234778e+002 -5.179683e+001 1.139946e+002 -3.863431e+000 5.961449e+001
27919443750 -3.434289e+000 1.190721e+002 -5.256881e+001 1.193371e+002 -5.236142e+001 1.165085e+002 -3.868567e+000 5.920606e+001
27938187500 -3.425652e+000 1.185409e+002 -5.223472e+001 1.110239e+002 -5.273711e+001 1.128204e+002 -3.870550e+000 5.866933e+001
27956931250 -3.416391e+000 1.180626e+002 -5.263123e+001 1.047982e+002 -5.262647e+001 1.113199e+002 -3.869876e+000 5.818438e+001
27975675000 -3.409043e+000 1.176166e+002 -5.247662e+001 1.022860e+002 -5.311870e+001 1.053860e+002 -3.877847e+000 5.772920e+001
27994418750 -3.408188e+000 1.171270e+002 -5.325404e+001 9.936030e+001 -5.328125e+001 1.021246e+002 -3.879784e+000 5.720340e+001
28013162500 -3.408234e+000 1.166331e+002 -5.313850e+001 9.285448e+001 -5.344748e+001 1.032466e+002 -3.881475e+000 5.673832e+001
28031906250 -3.405682e+000 1.161214e+002 -5.354817e+001 9.183418e+001 -5.369587e+001 1.039809e+002 -3.892034e+000 5.629481e+001
28050650000 -3.399827e+000 1.155691e+002 -5.420220e+001 9.231192e+001 -5.385066e+001 1.032751e+002 -3.903079e+000 5.577822e+001
28069393750 -3.395436e+000 1.150584e+002 -5.419952e+001 9.144067e+001 -5.400077e+001 9.935628e+001 -3.908401e+000 5.528437e+001
28088137500 -3.391462e+000 1.146286e+002 -5.485580e+001 8.944792e+001 -5.432421e+001 9.678320e+001 -3.924369e+000 5.476653e+001
28106881250 -3.389238e+000 1.141608e+002 -5.488955e+001 8.653144e+001 -5.370898e+001 1.038008e+002 -3.932774e+000 5.421186e+001
28125625000 -3.386440e+000 1.136605e+002 -5.456880e+001 7.840765e+001 -5.458160e+001 1.034330e+002 -3.943326e+000 5.372729e+001
28144368750 -3.390149e+000 1.131561e+002 -5.486946e+001 7.832191e+001 -5.462209e+001 9.956905e+001 -3.954455e+000 5.318682e+001
28163112500 -3.383534e+000 1.126430e+002 -5.477302e+001 7.750757e+001 -5.443307e+001 1.012463e+002 -3.971269e+000 5.264452e+001
28181856250 -3.372942e+000 1.121978e+002 -5.504196e+001 7.637788e+001 -5.514189e+001 9.723163e+001 -3.985155e+000 5.213459e+001
28200600000 -3.365689e+000 1.117977e+002 -5.527983e+001 7.353458e+001 -5.495159e+001 9.293756e+001 -4.004168e+000 5.163027e+001
28219343750 -3.368758e+000 1.113209e+002 -5.574674e+001 7.500237e+001 -5.515447e+001 8.618887e+001 -4.014240e+000 5.107547e+001
28238087500 -3.365559e+000 1.108417e+002 -5.587481e+001 7.490816e+001 -5.554886e+001 8.500040e+001 -4.022227e+000 5.056683e+001
28256831250 -3.362573e+000 1.103562e+002 -5.550856e+001 7.070769e+001 -5.586421e+001 7.577052e+001 -4.038837e+000 5.004449e+001
28275575000 -3.355395e+000 1.098622e+002 -5.527639e+001 6.877203e+001 -5.569508e+001 7.320302e+001 -4.054234e+000 4.948903e+001
28294318750 -3.348683e+000 1.094236e+002 -5.574064e+001 6.888403e+001 -5.619916e+001 6.511983e+001 -4.074321e+000 4.894494e+001
28313062500 -3.350238e+000 1.090086e+002 -5.615175e+001 6.595194e+001 -5.647327e+001 5.953643e+001 -4.095407e+000 4.837537e+001
28331806250 -3.355064e+000 1.085842e+002 -5.603741e+001 6.328345e+001 -5.645464e+001 5.235545e+001 -4.108089e+000 4.776231e+001
28350550000 -3.353383e+000 1.081210e+002 -5.612295e+001 6.217187e+001 -5.592842e+001 4.418387e+001 -4.125894e+000 4.720920e+001
28369293750 -3.360258e+000 1.076353e+002 -5.610592e+001 6.565938e+001 -5.547702e+001 4.220559e+001 -4.150411e+000 4.663338e+001
28388037500 -3.353281e+000 1.071168e+002 -5.590486e+001 6.470965e+001 -5.507898e+001 3.438926e+001 -4.175620e+000 4.604808e+001
28406781250 -3.345313e+000 1.066828e+002 -5.604548e+001 6.153296e+001 -5.532268e+001 3.129224e+001 -4.201505e+000 4.545823e+001
28425525000 -3.342161e+000 1.062878e+002 -5.523067e+001 5.721317e+001 -5.504192e+001 3.030870e+001 -4.227373e+000 4.481963e+001
28444268750 -3.343782e+000 1.058467e+002 -5.486278e+001 5.451633e+001 -5.489989e+001 2.626803e+001 -4.247909e+000 4.418644e+001
28463012500 -3.348624e+000 1.054049e+002 -5.463132e+001 5.148643e+001 -5.493365e+001 1.696195e+001 -4.270939e+000 4.359282e+001
28481756250 -3.349699e+000 1.049537e+002 -5.400198e+001 4.555895e+001 -5.457743e+001 1.439898e+001 -4.298162e+000 4.298643e+001
28500500000 -3.343592e+000 1.044996e+002 -5.401707e+001 4.264081e+001 -5.458754e+001 1.371448e+001 -4.323674e+000 4.239090e+001
28519243750 -3.337631e+000 1.040959e+002 -5.369564e+001 4.437220e+001 -5.483083e+001 8.459361e+000 -4.353326e+000 4.179414e+001
28537987500 -3.335956e+000 1.037139e+002 -5.315509e+001 4.146144e+001 -5.511667e+001 4.334771e+000 -4.387735e+000 4.114828e+001
28556731250 -3.339314e+000 1.032922e+002 -5.320326e+001 4.116521e+001 -5.426793e+001 6.955863e-001 -4.410399e+000 4.048273e+001
28575475000 -3.334677e+000 1.028649e+002 -5.294033e+001 3.729543e+001 -5.430905e+001 -1.483985e+000 -4.444275e+000 3.987290e+001
28594218750 -3.334075e+000 1.023938e+002 -5.309542e+001 3.217973e+001 -5.426335e+001 -1.935960e+000 -4.476038e+000 3.922602e+001
28612962500 -3.330674e+000 1.019333e+002 -5.293731e+001 2.719951e+001 -5.386488e+001 -3.846590e+000 -4.505500e+000 3.858123e+001
28631706250 -3.323793e+000 1.015235e+002 -5.297546e+001 2.367869e+001 -5.396419e+001 -2.219462e+000 -4.540546e+000 3.791388e+001
28650450000 -3.324405e+000 1.011398e+002 -5.302868e+001 1.620165e+001 -5.366634e+001 -2.365337e+000 -4.576711e+000 3.721535e+001
28669193750 -3.327207e+000 1.007308e+002 -5.314496e+001 1.266070e+001 -5.312103e+001 -6.270245e+000 -4.609390e+000 3.658138e+001
28687937500 -3.329597e+000 1.003057e+002 -5.302385e+001 1.006791e+001 -5.332665e+001 -9.178858e+000 -4.651187e+000 3.591074e+001
28706681250 -3.332830e+000 9.983875e+001 -5.303053e+001 6.588044e+000 -5.347501e+001 -1.222014e+001 -4.689902e+000 3.525091e+001
28725425000 -3.327312e+000 9.939138e+001 -5.277792e+001 3.449785e+000 -5.296423e+001 -9.700602e+000 -4.733054e+000 3.459384e+001
28744168750 -3.319820e+000 9.899248e+001 -5.252604e+001 2.227044e+000 -5.255038e+001 -8.560909e+000 -4.780057e+000 3.391679e+001
28762912500 -3.317262e+000 9.862007e+001 -5.227120e+001 -1.251454e+000 -5.222586e+001 -5.670223e+000 -4.821681e+000 3.320531e+001
28781656250 -3.320120e+000 9.821728e+001 -5.228775e+001 -4.619663e+000 -5.231562e+001 -6.767951e+000 -4.857312e+000 3.252370e+001
28800400000 -3.316476e+000 9.778747e+001 -5.242640e+001 -9.546931e+000 -5.261768e+001 -1.000724e+001 -4.902864e+000 3.186370e+001
28819143750 -3.317596e+000 9.734815e+001 -5.245131e+001 -1.255792e+001 -5.292161e+001 -1.097578e+001 -4.947211e+000 3.115369e+001
28837887500 -3.313322e+000 9.689790e+001 -5.241045e+001 -1.423036e+001 -5.215569e+001 -7.677912e+000 -4.987342e+000 3.046314e+001
28856631250 -3.307773e+000 9.647905e+001 -5.228098e+001 -1.330613e+001 -5.235592e+001 -8.170271e+000 -5.041646e+000 2.973491e+001
28875375000 -3.307262e+000 9.610025e+001 -5.213887e+001 -1.666044e+001 -5.232400e+001 -1.228289e+001 -5.088391e+000 2.897754e+001
28894118750 -3.305309e+000 9.567999e+001 -5.214992e+001 -1.764254e+001 -5.238208e+001 -1.217535e+001 -5.134211e+000 2.825081e+001
28912862500 -3.305808e+000 9.524769e+001 -5.213017e+001 -1.813409e+001 -5.272631e+001 -1.541155e+001 -5.187437e+000 2.751451e+001
28931606250 -3.300981e+000 9.478711e+001 -5.222223e+001 -2.226941e+001 -5.277838e+001 -1.749506e+001 -5.238458e+000 2.675546e+001
28950350000 -3.291115e+000 9.433591e+001 -5.229800e+001 -2.848823e+001 -5.226256e+001 -1.523808e+001 -5.292829e+000 2.603650e+001
28969093750 -3.281673e+000 9.394781e+001 -5.263855e+001 -3.066971e+001 -5.167954e+001 -1.787507e+001 -5.349308e+000 2.526455e+001
28987837500 -3.277525e+000 9.358573e+001 -5.253736e+001 -3.119952e+001 -5.189424e+001 -2.026087e+001 -5.403715e+000 2.449174e+001
29006581250 -3.281543e+000 9.318693e+001 -5.252973e+001 -3.226285e+001 -5.178078e+001 -2.316429e+001 -5.459265e+000 2.372884e+001
29025325000 -3.283018e+000 9.275317e+001 -5.230029e+001 -3.126168e+001 -5.158297e+001 -2.814598e+001 -5.519225e+000 2.290907e+001
29044068750 -3.278389e+000 9.228141e+001 -5.207072e+001 -3.100539e+001 -5.176841e+001 -3.045093e+001 -5.575239e+000 2.209987e+001
29062812500 -3.269783e+000 9.181417e+001 -5.187021e+001 -3.379012e+001 -5.182446e+001 -3.399113e+001 -5.637362e+000 2.132765e+001
29081556250 -3.257330e+000 9.141370e+001 -5.128430e+001 -3.425136e+001 -5.206598e+001 -3.294769e+001 -5.699547e+000 2.048606e+001
29100300000 -3.256447e+000 9.102840e+001 -5.104932e+001 -3.489070e+001 -5.179649e+001 -3.444566e+001 -5.758691e+000 1.962908e+001
29119043750 -3.262312e+000 9.061954e+001 -5.129964e+001 -3.692070e+001 -5.121954e+001 -3.415871e+001 -5.818334e+000 1.882423e+001
29137787500 -3.261879e+000 9.016251e+001 -5.152935e+001 -4.085417e+001 -5.087952e+001 -3.583469e+001 -5.884383e+000 1.797679e+001
29156531250 -3.259974e+000 8.967441e+001 -5.197790e+001 -4.494131e+001 -5.080646e+001 -3.786351e+001 -5.943526e+000 1.714461e+001
29175275000 -3.250267e+000 8.919065e+001 -5.191889e+001 -4.750666e+001 -5.081235e+001 -4.137615e+001 -6.013115e+000 1.629853e+001
29194018750 -3.238802e+000 8.877316e+001 -5.192174e+001 -5.026400e+001 -5.079295e+001 -3.977604e+001 -6.087939e+000 1.540554e+001
29212762500 -3.237233e+000 8.836154e+001 -5.195238e+001 -5.113823e+001 -5.092229e+001 -4.390587e+001 -6.151049e+000 1.450531e+001
29231506250 -3.236610e+000 8.790993e+001 -5.167842e+001 -5.001814e+001 -5.080476e+001 -4.371740e+001 -6.225612e+000 1.365129e+001
29250250000 -3.240488e+000 8.743298e+001 -5.144592e+001 -5.062328e+001 -5.054108e+001 -4.502729e+001 -6.296647e+000 1.274668e+001
29268993750 -3.239202e+000 8.693292e+001 -5.111627e+001 -5.371348e+001 -5.050479e+001 -4.825372e+001 -6.371037e+000 1.188823e+001
29287737500 -3.230939e+000 8.645403e+001 -5.120145e+001 -5.689300e+001 -5.020062e+001 -5.162733e+001 -6.453588e+000 1.106318e+001
29306481250 -3.225271e+000 8.604057e+001 -5.101637e+001 -5.658795e+001 -5.059122e+001 -5.089131e+001 -6.533961e+000 1.015337e+001
29325225000 -3.226669e+000 8.562453e+001 -5.074700e+001 -5.862077e+001 -5.008583e+001 -5.072974e+001 -6.608932e+000 9.268128e+000
29343968750 -3.236840e+000 8.517377e+001 -5.064405e+001 -6.129379e+001 -4.978821e+001 -5.214186e+001 -6.690768e+000 8.385693e+000
29362712500 -3.245020e+000 8.469811e+001 -5.041940e+001 -6.124413e+001 -4.962545e+001 -5.437230e+001 -6.769143e+000 7.475999e+000
29381456250 -3.245685e+000 8.417709e+001 -4.993112e+001 -6.415121e+001 -4.945959e+001 -5.661061e+001 -6.849724e+000 6.600033e+000
29400200000 -3.243376e+000 8.369302e+001 -4.981618e+001 -6.555792e+001 -4.954582e+001 -5.732645e+001 -6.943251e+000 5.725250e+000
29418943750 -3.246132e+000 8.324781e+001 -4.960170e+001 -6.853631e+001 -4.920638e+001 -5.781599e+001 -7.036789e+000 4.832587e+000
29437687500 -3.251790e+000 8.280908e+001 -4.942860e+001 -7.004662e+001 -4.912050e+001 -5.909532e+001 -7.126923e+000 3.971508e+000
29456431250 -3.262222e+000 8.236567e+001 -4.934555e+001 -7.201021e+001 -4.893703e+001 -6.058621e+001 -7.227316e+000 3.103234e+000
29475175000 -3.274301e+000 8.190607e+001 -4.924716e+001 -7.444033e+001 -4.837056e+001 -6.305147e+001 -7.331718e+000 2.212415e+000
29493918750 -3.281432e+000 8.140069e+001 -4.897406e+001 -7.478101e+001 -4.791492e+001 -6.468208e+001 -7.434790e+000 1.341344e+000
29512662500 -3.285745e+000 8.094503e+001 -4.881859e+001 -7.506570e+001 -4.780729e+001 -6.891378e+001 -7.551464e+000 4.539229e-001
29531406250 -3.291730e+000 8.053664e+001 -4.844007e+001 -7.626363e+001 -4.763817e+001 -7.001601e+001 -7.659996e+000 -4.122749e-001
29550150000 -3.300047e+000 8.013653e+001 -4.787727e+001 -7.723633e+001 -4.744533e+001 -7.241890e+001 -7.772725e+000 -1.241478e+000
29568893750 -3.316822e+000 7.972130e+001 -4.729002e+001 -7.671705e+001 -4.737786e+001 -7.332402e+001 -7.894769e+000 -2.065116e+000
29587637500 -3.331615e+000 7.926893e+001 -4.666513e+001 -7.651073e+001 -4.710918e+001 -7.331905e+001 -8.013807e+000 -2.874177e+000
29606381250 -3.338086e+000 7.883015e+001 -4.639503e+001 -7.781811e+001 -4.685857e+001 -7.575220e+001 -8.144588e+000 -3.607827e+000
29625125000 -3.347475e+000 7.842420e+001 -4.613829e+001 -7.809405e+001 -4.645837e+001 -8.048833e+001 -8.281736e+000 -4.364164e+000
29643868750 -3.356827e+000 7.806921e+001 -4.573091e+001 -7.883195e+001 -4.588208e+001 -8.064869e+001 -8.418180e+000 -5.102408e+000
29662612500 -3.377555e+000 7.772705e+001 -4.545803e+001 -8.263277e+001 -4.547240e+001 -8.350209e+001 -8.555974e+000 -5.800906e+000
29681356250 -3.396249e+000 7.734427e+001 -4.533813e+001 -8.517048e+001 -4.531230e+001 -8.631010e+001 -8.701382e+000 -6.463362e+000
29700100000 -3.416399e+000 7.691708e+001 -4.533051e+001 -8.707828e+001 -4.502661e+001 -8.786092e+001 -8.845219e+000 -7.102208e+000
29718843750 -3.430609e+000 7.652903e+001 -4.508020e+001 -8.791557e+001 -4.501358e+001 -9.101594e+001 -8.995709e+000 -7.662330e+000
29737587500 -3.438333e+000 7.617636e+001 -4.498475e+001 -9.042803e+001 -4.435158e+001 -9.598013e+001 -9.151631e+000 -8.192653e+000
29756331250 -3.452169e+000 7.588021e+001 -4.480412e+001 -9.364072e+001 -4.425231e+001 -9.909021e+001 -9.311143e+000 -8.637929e+000
29775075000 -3.466419e+000 7.559863e+001 -4.459848e+001 -9.649752e+001 -4.400938e+001 -1.012103e+002 -9.478184e+000 -9.040723e+000
29793818750 -3.487020e+000 7.525367e+001 -4.451172e+001 -1.007821e+002 -4.386834e+001 -1.042567e+002 -9.652634e+000 -9.383752e+000
29812562500 -3.515367e+000 7.493233e+001 -4.430999e+001 -1.048629e+002 -4.382524e+001 -1.076698e+002 -9.812890e+000 -9.716048e+000
29831306250 -3.543763e+000 7.455411e+001 -4.405488e+001 -1.094014e+002 -4.372216e+001 -1.108475e+002 -9.968050e+000 -9.935150e+000
29850050000 -3.561328e+000 7.419241e+001 -4.391155e+001 -1.135789e+002 -4.373253e+001 -1.147958e+002 -1.012834e+001 -1.017548e+001
29868793750 -3.576331e+000 7.389345e+001 -4.385062e+001 -1.174187e+002 -4.364246e+001 -1.175530e+002 -1.027548e+001 -1.042451e+001
29887537500 -3.591154e+000 7.362706e+001 -4.377061e+001 -1.210754e+002 -4.370459e+001 -1.203157e+002 -1.041153e+001 -1.056381e+001
29906281250 -3.609237e+000 7.340211e+001 -4.372934e+001 -1.237197e+002 -4.381341e+001 -1.238143e+002 -1.054265e+001 -1.069523e+001
29925025000 -3.634592e+000 7.318932e+001 -4.382841e+001 -1.274493e+002 -4.387039e+001 -1.271936e+002 -1.066443e+001 -1.078047e+001
29943768750 -3.657498e+000 7.291444e+001 -4.373763e+001 -1.313521e+002 -4.370811e+001 -1.293594e+002 -1.078389e+001 -1.074738e+001
29962512500 -3.669112e+000 7.265279e+001 -4.385310e+001 -1.349930e+002 -4.374916e+001 -1.327313e+002 -1.091000e+001 -1.080428e+001
29981256250 -3.678312e+000 7.242045e+001 -4.390375e+001 -1.384494e+002 -4.378036e+001 -1.350394e+002 -1.101642e+001 -1.085563e+001
30000000000 -3.685709e+000 7.225584e+001 -4.402369e+001 -1.414922e+002 -4.372553e+001 -1.372932e+002 -1.111264e+001 -1.083722e+001
