!Agilent Technologies,E8364B,MY43040894,A.07.50.67
!Agilent E8364B: A.07.50.67
!Date: Wednesday, May 13, 2020 06:23:24
!Correction: S11(Full 2 Port(1,2)) 
!S21(Full 2 Port(1,2)) 
!S12(Full 2 Port(1,2)) 
!S22(Full 2 Port(1,2)) 
!S2P File: Measurements: S11, S21, S12, S22:
# Hz S  dB   R 50
10000000 -8.626407e-002 -2.047248e+000 -4.937196e+001 1.430279e+002 -4.869608e+001 -2.220253e+001 -1.140991e-001 -4.400143e+000
28743750 -8.745883e-002 -2.323407e+000 -4.971567e+001 1.556984e+002 -4.898563e+001 -1.727746e+001 -1.242842e-001 -5.107445e+000
47487500 -8.719108e-002 -2.612312e+000 -5.025910e+001 1.711309e+002 -4.951711e+001 -1.668095e+001 -1.334604e-001 -5.887785e+000
66231250 -8.481939e-002 -2.928120e+000 -5.124929e+001 -1.789496e+002 -5.028835e+001 -1.621218e+001 -1.435689e-001 -6.696445e+000
84975000 -8.429236e-002 -3.285089e+000 -5.177194e+001 -1.665180e+002 -5.073065e+001 -1.476776e+001 -1.553755e-001 -7.567018e+000
103718750 -8.411676e-002 -3.657194e+000 -5.245615e+001 -1.542158e+002 -5.131414e+001 -1.436698e+001 -1.651626e-001 -8.498281e+000
122462500 -8.569025e-002 -4.033512e+000 -5.305723e+001 -1.484050e+002 -5.185997e+001 -1.264733e+001 -1.747525e-001 -9.464355e+000
141206250 -8.604167e-002 -4.442528e+000 -5.363195e+001 -1.389449e+002 -5.349600e+001 -1.017946e+001 -1.858519e-001 -1.048221e+001
159950000 -8.724599e-002 -4.878379e+000 -5.426780e+001 -1.262362e+002 -5.396416e+001 -1.048113e+001 -1.970820e-001 -1.156289e+001
178693750 -8.748648e-002 -5.347547e+000 -5.537754e+001 -1.192460e+002 -5.437922e+001 -7.846294e+000 -2.095787e-001 -1.269439e+001
197437500 -8.685485e-002 -5.838718e+000 -5.640876e+001 -1.178010e+002 -5.543036e+001 -1.569270e+000 -2.219899e-001 -1.388709e+001
216181250 -8.989838e-002 -6.347772e+000 -5.688943e+001 -1.191949e+002 -5.627604e+001 -2.286921e+000 -2.339736e-001 -1.511605e+001
234925000 -9.010667e-002 -6.889477e+000 -5.763323e+001 -1.251694e+002 -5.720644e+001 -2.604905e+000 -2.462849e-001 -1.641573e+001
253668750 -9.301766e-002 -7.422264e+000 -5.795688e+001 -1.291783e+002 -5.743130e+001 7.896658e-001 -2.556399e-001 -1.765683e+001
272412500 -9.542211e-002 -7.963046e+000 -5.859793e+001 -1.275921e+002 -5.814055e+001 -2.322607e+000 -2.658402e-001 -1.889297e+001
291156250 -9.879651e-002 -8.507638e+000 -5.922778e+001 -1.301642e+002 -5.806589e+001 -3.372219e+000 -2.760120e-001 -2.012081e+001
309900000 -1.011225e-001 -9.035310e+000 -5.924500e+001 -1.336266e+002 -5.836380e+001 -4.333405e+000 -2.843724e-001 -2.135740e+001
328643750 -1.037870e-001 -9.553901e+000 -5.947072e+001 -1.356677e+002 -5.883924e+001 -4.738343e+000 -2.938769e-001 -2.257296e+001
347387500 -1.053311e-001 -1.008937e+001 -5.976235e+001 -1.403813e+002 -5.891729e+001 -2.064640e+000 -3.021457e-001 -2.379515e+001
366131250 -1.060568e-001 -1.061112e+001 -5.991996e+001 -1.522470e+002 -5.942012e+001 -3.752794e+000 -3.122497e-001 -2.500687e+001
384875000 -1.105941e-001 -1.113277e+001 -6.024411e+001 -1.720661e+002 -5.970605e+001 -3.718893e+000 -3.245075e-001 -2.621870e+001
403618750 -1.133588e-001 -1.167547e+001 -6.035102e+001 1.698916e+002 -6.007093e+001 -3.227262e+000 -3.362716e-001 -2.742082e+001
422362500 -1.130280e-001 -1.220352e+001 -6.029205e+001 1.481175e+002 -6.047361e+001 -7.257417e+000 -3.456143e-001 -2.862086e+001
441106250 -1.170140e-001 -1.273193e+001 -6.052792e+001 1.338951e+002 -6.160630e+001 -6.808304e+000 -3.566769e-001 -2.981861e+001
459850000 -1.176401e-001 -1.326633e+001 -6.094222e+001 1.182526e+002 -6.240114e+001 -5.657760e+000 -3.671709e-001 -3.101291e+001
478593750 -1.206505e-001 -1.381288e+001 -6.123265e+001 9.612708e+001 -6.258889e+001 -3.783684e+000 -3.796889e-001 -3.218913e+001
497337500 -1.257449e-001 -1.435697e+001 -6.116916e+001 8.524778e+001 -6.285104e+001 -2.291754e+000 -3.911538e-001 -3.338564e+001
516081250 -1.284254e-001 -1.486889e+001 -6.150789e+001 6.920563e+001 -6.297493e+001 -4.655849e+000 -4.033153e-001 -3.457101e+001
534825000 -1.308581e-001 -1.540366e+001 -6.171115e+001 5.283140e+001 -6.324037e+001 -1.784564e+000 -4.161571e-001 -3.575832e+001
553568750 -1.322094e-001 -1.595106e+001 -6.163943e+001 4.346228e+001 -6.354617e+001 -4.196086e+000 -4.316567e-001 -3.695197e+001
572312500 -1.329408e-001 -1.647728e+001 -6.162118e+001 2.911782e+001 -6.282203e+001 -5.459969e+000 -4.461460e-001 -3.814676e+001
591056250 -1.335749e-001 -1.701159e+001 -6.142947e+001 1.168812e+001 -6.348279e+001 -5.573119e+000 -4.609731e-001 -3.931770e+001
609800000 -1.359113e-001 -1.753901e+001 -6.106263e+001 2.838461e+000 -6.468212e+001 -1.495164e+001 -4.772350e-001 -4.050687e+001
628543750 -1.387110e-001 -1.805902e+001 -6.095385e+001 -2.927762e+000 -6.447476e+001 -2.028969e+001 -4.928422e-001 -4.169136e+001
647287500 -1.371382e-001 -1.859274e+001 -6.111030e+001 -5.602485e+000 -6.453313e+001 -1.763799e+001 -5.112931e-001 -4.288006e+001
666031250 -1.374671e-001 -1.911707e+001 -6.140815e+001 -4.443473e+000 -6.425148e+001 -1.704740e+001 -5.295272e-001 -4.404879e+001
684775000 -1.399776e-001 -1.963652e+001 -6.139622e+001 -5.302486e+000 -6.439171e+001 -2.052377e+001 -5.490831e-001 -4.522412e+001
703518750 -1.399083e-001 -2.017023e+001 -6.185072e+001 -8.401575e+000 -6.520036e+001 -2.082802e+001 -5.666591e-001 -4.640697e+001
722262500 -1.420289e-001 -2.068245e+001 -6.198541e+001 -8.272341e+000 -6.520068e+001 -1.981522e+001 -5.856662e-001 -4.758204e+001
741006250 -1.439660e-001 -2.121154e+001 -6.234396e+001 -4.975932e+000 -6.510171e+001 -1.989308e+001 -6.054797e-001 -4.875052e+001
759750000 -1.448460e-001 -2.175179e+001 -6.246958e+001 -3.464017e+000 -6.518156e+001 -1.563485e+001 -6.250111e-001 -4.992273e+001
778493750 -1.462567e-001 -2.227975e+001 -6.246819e+001 -6.001035e+000 -6.553848e+001 -1.625442e+001 -6.469461e-001 -5.110146e+001
797237500 -1.482746e-001 -2.280322e+001 -6.249958e+001 -3.674718e+000 -6.536420e+001 -1.772458e+001 -6.678216e-001 -5.226634e+001
815981250 -1.497225e-001 -2.332252e+001 -6.267305e+001 -1.968810e+000 -6.532701e+001 -1.650602e+001 -6.885018e-001 -5.342744e+001
834725000 -1.502413e-001 -2.385131e+001 -6.297601e+001 -6.571685e+000 -6.534225e+001 -1.648584e+001 -7.061425e-001 -5.458820e+001
853468750 -1.534637e-001 -2.438139e+001 -6.326697e+001 -4.600986e+000 -6.530519e+001 -1.411972e+001 -7.266879e-001 -5.574032e+001
872212500 -1.542452e-001 -2.490706e+001 -6.331200e+001 -8.731862e+000 -6.485708e+001 -1.044267e+001 -7.484031e-001 -5.690754e+001
890956250 -1.557736e-001 -2.542835e+001 -6.342749e+001 -9.349219e+000 -6.503498e+001 -1.242160e+001 -7.694950e-001 -5.808171e+001
909700000 -1.563390e-001 -2.594983e+001 -6.336826e+001 -7.956751e+000 -6.543990e+001 -1.407841e+001 -7.906712e-001 -5.924839e+001
928443750 -1.579430e-001 -2.647566e+001 -6.338071e+001 -1.454934e+001 -6.501204e+001 -1.466000e+001 -8.121651e-001 -6.039520e+001
947187500 -1.598722e-001 -2.701479e+001 -6.359261e+001 -1.573632e+001 -6.546902e+001 -1.451421e+001 -8.315299e-001 -6.153543e+001
965931250 -1.626322e-001 -2.753705e+001 -6.351193e+001 -1.767699e+001 -6.545017e+001 -1.661034e+001 -8.532910e-001 -6.267072e+001
984675000 -1.640163e-001 -2.806536e+001 -6.405397e+001 -1.763234e+001 -6.559336e+001 -1.633075e+001 -8.744839e-001 -6.381899e+001
1003418750 -1.665563e-001 -2.859637e+001 -6.427861e+001 -1.644223e+001 -6.547761e+001 -1.434564e+001 -8.950043e-001 -6.496944e+001
1022162500 -1.680193e-001 -2.911276e+001 -6.493877e+001 -1.749558e+001 -6.502639e+001 -1.495938e+001 -9.148346e-001 -6.612292e+001
1040906250 -1.691130e-001 -2.963059e+001 -6.494810e+001 -2.083456e+001 -6.385897e+001 -7.732505e+000 -9.336641e-001 -6.724463e+001
1059650000 -1.704125e-001 -3.015518e+001 -6.463138e+001 -2.144064e+001 -6.436240e+001 -7.557877e+000 -9.538796e-001 -6.835705e+001
1078393750 -1.729747e-001 -3.067493e+001 -6.495369e+001 -2.151649e+001 -6.483781e+001 -1.198879e+001 -9.736866e-001 -6.947709e+001
1097137500 -1.774141e-001 -3.119768e+001 -6.465406e+001 -2.199771e+001 -6.485158e+001 -1.345556e+001 -9.930680e-001 -7.059522e+001
1115881250 -1.807745e-001 -3.172822e+001 -6.503067e+001 -2.296683e+001 -6.493575e+001 -1.132853e+001 -1.011262e+000 -7.172039e+001
1134625000 -1.825998e-001 -3.225076e+001 -6.480874e+001 -2.243089e+001 -6.415159e+001 -8.836093e+000 -1.028914e+000 -7.283755e+001
1153368750 -1.830821e-001 -3.278444e+001 -6.514939e+001 -2.462699e+001 -6.427116e+001 -1.131611e+001 -1.048177e+000 -7.394770e+001
1172112500 -1.866589e-001 -3.330313e+001 -6.535770e+001 -2.689548e+001 -6.471342e+001 -1.150506e+001 -1.067197e+000 -7.505600e+001
1190856250 -1.894429e-001 -3.382062e+001 -6.541147e+001 -2.587372e+001 -6.500552e+001 -1.649327e+001 -1.085843e+000 -7.615914e+001
1209600000 -1.905556e-001 -3.433677e+001 -6.549487e+001 -2.597540e+001 -6.537222e+001 -1.414230e+001 -1.102408e+000 -7.725784e+001
1228343750 -1.915809e-001 -3.487590e+001 -6.566602e+001 -2.837077e+001 -6.578971e+001 -1.466187e+001 -1.117807e+000 -7.835568e+001
1247087500 -1.926707e-001 -3.541045e+001 -6.573410e+001 -2.790245e+001 -6.598859e+001 -1.673546e+001 -1.131683e+000 -7.945644e+001
1265831250 -1.931494e-001 -3.591856e+001 -6.578066e+001 -3.170213e+001 -6.650583e+001 -2.322023e+001 -1.147545e+000 -8.054765e+001
1284575000 -1.933588e-001 -3.643398e+001 -6.571404e+001 -3.309058e+001 -6.676411e+001 -2.097987e+001 -1.164160e+000 -8.164832e+001
1303318750 -1.946527e-001 -3.695625e+001 -6.595016e+001 -3.321394e+001 -6.651620e+001 -2.309761e+001 -1.176967e+000 -8.272987e+001
1322062500 -1.970030e-001 -3.747692e+001 -6.633737e+001 -3.169486e+001 -6.594759e+001 -2.557293e+001 -1.190364e+000 -8.379566e+001
1340806250 -1.986073e-001 -3.799153e+001 -6.640869e+001 -3.340940e+001 -6.546909e+001 -2.662045e+001 -1.203618e+000 -8.484698e+001
1359550000 -2.002644e-001 -3.850092e+001 -6.610333e+001 -3.119873e+001 -6.582249e+001 -2.735291e+001 -1.216142e+000 -8.591197e+001
1378293750 -2.021885e-001 -3.901595e+001 -6.572121e+001 -3.271812e+001 -6.585001e+001 -2.341982e+001 -1.228626e+000 -8.699821e+001
1397037500 -2.022184e-001 -3.951513e+001 -6.571049e+001 -3.249701e+001 -6.596037e+001 -2.151316e+001 -1.241370e+000 -8.807893e+001
1415781250 -2.016089e-001 -4.002306e+001 -6.536215e+001 -3.475114e+001 -6.602995e+001 -2.225903e+001 -1.253731e+000 -8.914561e+001
1434525000 -2.015809e-001 -4.054247e+001 -6.544440e+001 -3.585641e+001 -6.590960e+001 -2.598435e+001 -1.266741e+000 -9.020580e+001
1453268750 -2.031253e-001 -4.105783e+001 -6.514796e+001 -3.622911e+001 -6.579362e+001 -2.675839e+001 -1.281068e+000 -9.123647e+001
1472012500 -2.036706e-001 -4.157146e+001 -6.529556e+001 -3.555280e+001 -6.593573e+001 -2.824116e+001 -1.291667e+000 -9.227799e+001
1490756250 -2.062213e-001 -4.208849e+001 -6.561917e+001 -3.559468e+001 -6.529523e+001 -2.762952e+001 -1.302920e+000 -9.332731e+001
1509500000 -2.064571e-001 -4.260249e+001 -6.549362e+001 -3.779458e+001 -6.543655e+001 -1.686834e+001 -1.313842e+000 -9.438811e+001
1528243750 -2.063161e-001 -4.311512e+001 -6.528413e+001 -3.834451e+001 -6.535011e+001 -1.427133e+001 -1.324215e+000 -9.546033e+001
1546987500 -2.050963e-001 -4.362365e+001 -6.508433e+001 -3.755751e+001 -6.496108e+001 -1.717660e+001 -1.336508e+000 -9.650977e+001
1565731250 -2.057314e-001 -4.413243e+001 -6.467074e+001 -3.886544e+001 -6.519775e+001 -1.703557e+001 -1.350428e+000 -9.753213e+001
1584475000 -2.067934e-001 -4.465504e+001 -6.411409e+001 -3.885268e+001 -6.503367e+001 -1.781113e+001 -1.358676e+000 -9.854768e+001
1603218750 -2.076289e-001 -4.518149e+001 -6.422363e+001 -3.541332e+001 -6.456791e+001 -1.686414e+001 -1.367522e+000 -9.956378e+001
1621962500 -2.088616e-001 -4.571028e+001 -6.454329e+001 -3.758430e+001 -6.442848e+001 -1.706801e+001 -1.377735e+000 -1.006036e+002
1640706250 -2.100468e-001 -4.623703e+001 -6.452386e+001 -3.701553e+001 -6.382719e+001 -1.985202e+001 -1.389372e+000 -1.016285e+002
1659450000 -2.110920e-001 -4.674498e+001 -6.415974e+001 -3.936359e+001 -6.326226e+001 -2.122023e+001 -1.402382e+000 -1.026613e+002
1678193750 -2.107320e-001 -4.726374e+001 -6.392514e+001 -3.996037e+001 -6.321825e+001 -2.674329e+001 -1.416724e+000 -1.036889e+002
1696937500 -2.130782e-001 -4.778626e+001 -6.377750e+001 -3.048623e+001 -6.247538e+001 -2.362390e+001 -1.428668e+000 -1.046983e+002
1715681250 -2.143896e-001 -4.831434e+001 -6.371346e+001 -2.745726e+001 -6.175136e+001 -2.699156e+001 -1.438761e+000 -1.056872e+002
1734425000 -2.167235e-001 -4.882798e+001 -6.380626e+001 -2.951003e+001 -6.186341e+001 -2.969195e+001 -1.452839e+000 -1.066869e+002
1753168750 -2.192027e-001 -4.933874e+001 -6.321234e+001 -2.959558e+001 -6.161431e+001 -3.244198e+001 -1.466457e+000 -1.076937e+002
1771912500 -2.214133e-001 -4.985780e+001 -6.313594e+001 -2.974125e+001 -6.158167e+001 -3.496799e+001 -1.480742e+000 -1.087185e+002
1790656250 -2.204627e-001 -5.036450e+001 -6.304453e+001 -2.849053e+001 -6.141158e+001 -3.598970e+001 -1.496110e+000 -1.097412e+002
1809400000 -2.194902e-001 -5.087885e+001 -6.373745e+001 -2.911466e+001 -6.096110e+001 -3.613258e+001 -1.513095e+000 -1.107293e+002
1828143750 -2.202087e-001 -5.141630e+001 -6.358396e+001 -3.111086e+001 -6.077320e+001 -4.256438e+001 -1.527576e+000 -1.117069e+002
1846887500 -2.254245e-001 -5.192704e+001 -6.345081e+001 -3.363685e+001 -6.024604e+001 -3.824197e+001 -1.540905e+000 -1.126898e+002
1865631250 -2.285269e-001 -5.244232e+001 -6.347673e+001 -3.215020e+001 -6.019846e+001 -3.840311e+001 -1.554485e+000 -1.136785e+002
1884375000 -2.294113e-001 -5.295755e+001 -6.352559e+001 -2.912229e+001 -6.046958e+001 -3.628132e+001 -1.566598e+000 -1.146952e+002
1903118750 -2.299046e-001 -5.346629e+001 -6.349474e+001 -3.144616e+001 -6.047874e+001 -3.642624e+001 -1.583778e+000 -1.156965e+002
1921862500 -2.302101e-001 -5.396349e+001 -6.329319e+001 -2.844070e+001 -6.053867e+001 -4.111334e+001 -1.601738e+000 -1.166857e+002
1940606250 -2.320173e-001 -5.447684e+001 -6.300146e+001 -2.816982e+001 -5.955587e+001 -5.060487e+001 -1.616263e+000 -1.176626e+002
1959350000 -2.347891e-001 -5.499638e+001 -6.323048e+001 -2.880898e+001 -5.963750e+001 -5.421708e+001 -1.632949e+000 -1.186129e+002
1978093750 -2.390722e-001 -5.550156e+001 -6.286850e+001 -2.828160e+001 -5.980450e+001 -5.284482e+001 -1.648748e+000 -1.195821e+002
1996837500 -2.411586e-001 -5.599887e+001 -6.277848e+001 -2.910346e+001 -5.994506e+001 -5.872888e+001 -1.664685e+000 -1.205855e+002
2015581250 -2.424286e-001 -5.649363e+001 -6.279844e+001 -3.193089e+001 -6.004062e+001 -6.024986e+001 -1.684543e+000 -1.215774e+002
2034325000 -2.420108e-001 -5.697102e+001 -6.236588e+001 -3.942479e+001 -6.018381e+001 -6.176587e+001 -1.704525e+000 -1.225558e+002
2053068750 -2.416716e-001 -5.745825e+001 -6.192842e+001 -3.847985e+001 -6.007671e+001 -5.843278e+001 -1.722740e+000 -1.235136e+002
2071812500 -2.452865e-001 -5.795714e+001 -6.196922e+001 -4.103825e+001 -6.030794e+001 -6.012355e+001 -1.741553e+000 -1.244739e+002
2090556250 -2.498304e-001 -5.846263e+001 -6.212674e+001 -4.086931e+001 -6.079875e+001 -6.075113e+001 -1.757192e+000 -1.254350e+002
2109300000 -2.558488e-001 -5.895390e+001 -6.227993e+001 -4.619894e+001 -6.043651e+001 -5.817767e+001 -1.774704e+000 -1.263874e+002
2128043750 -2.578506e-001 -5.944413e+001 -6.214748e+001 -5.125706e+001 -6.058149e+001 -5.747054e+001 -1.792335e+000 -1.273689e+002
2146787500 -2.584668e-001 -5.992458e+001 -6.240084e+001 -4.788185e+001 -6.079534e+001 -5.799107e+001 -1.811270e+000 -1.283524e+002
2165531250 -2.577294e-001 -6.042720e+001 -6.203469e+001 -4.630534e+001 -6.056190e+001 -5.594333e+001 -1.829351e+000 -1.292996e+002
2184275000 -2.578996e-001 -6.094496e+001 -6.217685e+001 -4.748581e+001 -6.089496e+001 -5.751553e+001 -1.847209e+000 -1.302578e+002
2203018750 -2.598311e-001 -6.144428e+001 -6.210293e+001 -4.808316e+001 -6.131582e+001 -5.707506e+001 -1.862847e+000 -1.311960e+002
2221762500 -2.642476e-001 -6.196001e+001 -6.220398e+001 -4.921740e+001 -6.135819e+001 -6.169219e+001 -1.878659e+000 -1.321366e+002
2240506250 -2.672361e-001 -6.244637e+001 -6.145466e+001 -4.653982e+001 -6.144751e+001 -6.658609e+001 -1.892531e+000 -1.330954e+002
2259250000 -2.677810e-001 -6.294493e+001 -6.152708e+001 -4.591057e+001 -6.149688e+001 -6.253622e+001 -1.910299e+000 -1.340520e+002
2277993750 -2.640218e-001 -6.346357e+001 -6.145076e+001 -4.292678e+001 -6.155682e+001 -6.634840e+001 -1.929253e+000 -1.349962e+002
2296737500 -2.670316e-001 -6.396024e+001 -6.101606e+001 -4.531759e+001 -6.157322e+001 -6.375818e+001 -1.945970e+000 -1.359368e+002
2315481250 -2.725968e-001 -6.448111e+001 -6.090478e+001 -4.892435e+001 -6.173450e+001 -6.468779e+001 -1.963061e+000 -1.368647e+002
2334225000 -2.766637e-001 -6.499619e+001 -6.085515e+001 -4.766116e+001 -6.171034e+001 -6.181245e+001 -1.979568e+000 -1.377988e+002
2352968750 -2.815585e-001 -6.550732e+001 -6.074745e+001 -5.161709e+001 -6.171335e+001 -5.947671e+001 -1.993247e+000 -1.387304e+002
2371712500 -2.826349e-001 -6.601213e+001 -6.111908e+001 -4.572626e+001 -6.234650e+001 -6.281063e+001 -2.010571e+000 -1.396568e+002
2390456250 -2.807486e-001 -6.650212e+001 -6.105150e+001 -4.442744e+001 -6.247765e+001 -5.844713e+001 -2.027015e+000 -1.405920e+002
2409200000 -2.820372e-001 -6.700845e+001 -6.126774e+001 -4.767715e+001 -6.217529e+001 -5.893676e+001 -2.042831e+000 -1.415245e+002
2427943750 -2.846803e-001 -6.753826e+001 -6.184180e+001 -4.785395e+001 -6.215632e+001 -5.707525e+001 -2.058564e+000 -1.424401e+002
2446687500 -2.892649e-001 -6.804260e+001 -6.171376e+001 -4.557251e+001 -6.216504e+001 -5.569656e+001 -2.073271e+000 -1.433673e+002
2465431250 -2.930387e-001 -6.854626e+001 -6.187421e+001 -4.066328e+001 -6.217379e+001 -5.954793e+001 -2.084274e+000 -1.442935e+002
2484175000 -2.962216e-001 -6.904021e+001 -6.201934e+001 -4.587694e+001 -6.209407e+001 -6.301448e+001 -2.099172e+000 -1.452195e+002
2502918750 -2.946496e-001 -6.954655e+001 -6.201991e+001 -4.629033e+001 -6.245038e+001 -6.453928e+001 -2.111477e+000 -1.461384e+002
2521662500 -2.930152e-001 -7.005360e+001 -6.166587e+001 -4.745641e+001 -6.208099e+001 -6.286954e+001 -2.128305e+000 -1.470660e+002
2540406250 -2.937220e-001 -7.058385e+001 -6.131204e+001 -4.515192e+001 -6.256652e+001 -5.781862e+001 -2.143131e+000 -1.479978e+002
2559150000 -2.981030e-001 -7.110365e+001 -6.142912e+001 -4.473305e+001 -6.264159e+001 -5.801424e+001 -2.158147e+000 -1.489032e+002
2577893750 -3.045548e-001 -7.160085e+001 -6.108120e+001 -5.140949e+001 -6.298753e+001 -5.582465e+001 -2.173354e+000 -1.497999e+002
2596637500 -3.099728e-001 -7.208211e+001 -6.135626e+001 -5.367330e+001 -6.342467e+001 -6.303703e+001 -2.185061e+000 -1.507192e+002
2615381250 -3.116902e-001 -7.255533e+001 -6.145247e+001 -5.473980e+001 -6.318241e+001 -6.234552e+001 -2.198045e+000 -1.516120e+002
2634125000 -3.101601e-001 -7.305530e+001 -6.124980e+001 -5.342708e+001 -6.265893e+001 -6.218918e+001 -2.213933e+000 -1.525225e+002
2652868750 -3.110912e-001 -7.355532e+001 -6.151817e+001 -5.146242e+001 -6.260806e+001 -5.852612e+001 -2.228483e+000 -1.534399e+002
2671612500 -3.157806e-001 -7.406182e+001 -6.158904e+001 -5.262781e+001 -6.244525e+001 -5.778994e+001 -2.245186e+000 -1.543425e+002
2690356250 -3.212925e-001 -7.454345e+001 -6.156439e+001 -4.902070e+001 -6.236971e+001 -6.025002e+001 -2.258309e+000 -1.552433e+002
2709100000 -3.313458e-001 -7.500909e+001 -6.208871e+001 -5.104506e+001 -6.286110e+001 -6.004654e+001 -2.268703e+000 -1.561489e+002
2727843750 -3.323386e-001 -7.549877e+001 -6.252929e+001 -5.258392e+001 -6.289461e+001 -6.312181e+001 -2.281951e+000 -1.570242e+002
2746587500 -3.313302e-001 -7.597240e+001 -6.237760e+001 -5.120084e+001 -6.256135e+001 -6.366568e+001 -2.296105e+000 -1.579283e+002
2765331250 -3.325292e-001 -7.645712e+001 -6.222229e+001 -5.185722e+001 -6.293408e+001 -6.441147e+001 -2.308661e+000 -1.588320e+002
2784075000 -3.321534e-001 -7.696636e+001 -6.223555e+001 -5.246955e+001 -6.269447e+001 -6.472853e+001 -2.324129e+000 -1.597392e+002
2802818750 -3.384698e-001 -7.744482e+001 -6.191655e+001 -5.844688e+001 -6.236741e+001 -6.209447e+001 -2.335927e+000 -1.606192e+002
2821562500 -3.442564e-001 -7.793040e+001 -6.180908e+001 -5.930577e+001 -6.213351e+001 -6.536198e+001 -2.347958e+000 -1.615039e+002
2840306250 -3.469960e-001 -7.842731e+001 -6.190342e+001 -5.707550e+001 -6.218784e+001 -6.668034e+001 -2.358487e+000 -1.623858e+002
2859050000 -3.480692e-001 -7.890321e+001 -6.152980e+001 -5.852314e+001 -6.187210e+001 -6.572744e+001 -2.369409e+000 -1.632709e+002
2877793750 -3.415412e-001 -7.943002e+001 -6.159733e+001 -6.240168e+001 -6.183919e+001 -6.780773e+001 -2.380164e+000 -1.641608e+002
2896537500 -3.458520e-001 -7.989280e+001 -6.145362e+001 -6.568691e+001 -6.174261e+001 -6.470361e+001 -2.396228e+000 -1.650262e+002
2915281250 -3.521492e-001 -8.043638e+001 -6.147770e+001 -6.081395e+001 -6.224228e+001 -6.444762e+001 -2.411675e+000 -1.659217e+002
2934025000 -3.508242e-001 -8.093509e+001 -6.132587e+001 -6.047406e+001 -6.162001e+001 -6.414308e+001 -2.420935e+000 -1.668156e+002
2952768750 -3.575199e-001 -8.136178e+001 -6.140993e+001 -5.919690e+001 -6.214212e+001 -6.780956e+001 -2.432636e+000 -1.676598e+002
2971512500 -3.631569e-001 -8.187914e+001 -6.156206e+001 -5.606206e+001 -6.183973e+001 -7.097879e+001 -2.448821e+000 -1.685490e+002
2990256250 -3.565854e-001 -8.238309e+001 -6.143560e+001 -5.487497e+001 -6.153082e+001 -7.176931e+001 -2.456040e+000 -1.694338e+002
3009000000 -3.605889e-001 -8.282787e+001 -6.148476e+001 -5.736915e+001 -6.142529e+001 -7.113129e+001 -2.469492e+000 -1.703035e+002
3027743750 -3.668996e-001 -8.336431e+001 -6.127271e+001 -5.610160e+001 -6.103233e+001 -6.499474e+001 -2.487214e+000 -1.711986e+002
3046487500 -3.640276e-001 -8.386517e+001 -6.098867e+001 -5.750594e+001 -6.098474e+001 -6.334970e+001 -2.495298e+000 -1.720788e+002
3065231250 -3.713241e-001 -8.431115e+001 -6.110747e+001 -5.614283e+001 -6.097352e+001 -6.148075e+001 -2.508500e+000 -1.729424e+002
3083975000 -3.788081e-001 -8.482064e+001 -6.116277e+001 -5.957254e+001 -6.073934e+001 -6.260053e+001 -2.524522e+000 -1.738311e+002
3102718750 -3.745008e-001 -8.531009e+001 -6.121680e+001 -6.082909e+001 -6.095662e+001 -6.474010e+001 -2.531542e+000 -1.746809e+002
3121462500 -3.800320e-001 -8.578630e+001 -6.122455e+001 -6.317300e+001 -6.124208e+001 -6.365026e+001 -2.548314e+000 -1.755340e+002
3140206250 -3.805299e-001 -8.629819e+001 -6.106028e+001 -6.144209e+001 -6.099978e+001 -6.623899e+001 -2.564938e+000 -1.764314e+002
3158950000 -3.811539e-001 -8.679713e+001 -6.097878e+001 -6.225369e+001 -6.072387e+001 -6.671606e+001 -2.573216e+000 -1.773017e+002
3177693750 -3.884697e-001 -8.727906e+001 -6.108818e+001 -6.397109e+001 -6.073363e+001 -6.666679e+001 -2.590459e+000 -1.781637e+002
3196437500 -3.912837e-001 -8.777349e+001 -6.112075e+001 -6.549459e+001 -6.044644e+001 -6.936201e+001 -2.604144e+000 -1.790623e+002
3215181250 -3.934780e-001 -8.824137e+001 -6.128630e+001 -6.502327e+001 -6.070768e+001 -7.227238e+001 -2.611970e+000 -1.798882e+002
3233925000 -3.959977e-001 -8.873699e+001 -6.129350e+001 -6.690080e+001 -6.059803e+001 -7.169434e+001 -2.630455e+000 1.792312e+002
3252668750 -3.952603e-001 -8.922529e+001 -6.140102e+001 -6.648025e+001 -6.074080e+001 -6.834129e+001 -2.643916e+000 1.783256e+002
3271412500 -3.998958e-001 -8.968697e+001 -6.134211e+001 -6.731593e+001 -6.065781e+001 -6.850700e+001 -2.654122e+000 1.774955e+002
3290156250 -4.059691e-001 -9.019581e+001 -6.114754e+001 -6.627316e+001 -6.045993e+001 -7.330296e+001 -2.672564e+000 1.766229e+002
3308900000 -4.096229e-001 -9.064446e+001 -6.138626e+001 -6.771061e+001 -6.027804e+001 -7.171886e+001 -2.685081e+000 1.757426e+002
3327643750 -4.130507e-001 -9.112952e+001 -6.148116e+001 -6.765816e+001 -6.073144e+001 -6.996082e+001 -2.691610e+000 1.748777e+002
3346387500 -4.179687e-001 -9.157224e+001 -6.163504e+001 -7.102554e+001 -6.023289e+001 -6.893446e+001 -2.705334e+000 1.740349e+002
3365131250 -4.210015e-001 -9.204827e+001 -6.155324e+001 -7.312428e+001 -6.019162e+001 -7.021001e+001 -2.718328e+000 1.731660e+002
3383875000 -4.246638e-001 -9.253573e+001 -6.146875e+001 -7.377341e+001 -6.011718e+001 -6.190953e+001 -2.727854e+000 1.723284e+002
3402618750 -4.258808e-001 -9.299262e+001 -6.127974e+001 -7.650108e+001 -6.062600e+001 -5.153176e+001 -2.740171e+000 1.714795e+002
3421362500 -4.308441e-001 -9.344791e+001 -6.130828e+001 -8.067410e+001 -6.062539e+001 -3.731247e+001 -2.753676e+000 1.706278e+002
3440106250 -4.342310e-001 -9.392879e+001 -6.139545e+001 -8.410296e+001 -6.046789e+001 -2.412002e+001 -2.760385e+000 1.697800e+002
3458850000 -4.363541e-001 -9.439236e+001 -6.117688e+001 -8.524771e+001 -6.047479e+001 -9.752279e+000 -2.773171e+000 1.689212e+002
3477593750 -4.408572e-001 -9.488696e+001 -6.130198e+001 -8.665785e+001 -6.079109e+001 3.897280e+000 -2.783028e+000 1.680464e+002
3496337500 -4.460739e-001 -9.536105e+001 -6.135981e+001 -8.876663e+001 -6.100769e+001 1.765042e+001 -2.791835e+000 1.672083e+002
3515081250 -4.483242e-001 -9.585707e+001 -6.105613e+001 -8.916685e+001 -6.128392e+001 3.204890e+001 -2.800715e+000 1.663566e+002
3533825000 -4.514950e-001 -9.633669e+001 -6.099011e+001 -8.957543e+001 -6.127240e+001 5.158582e+001 -2.808464e+000 1.655019e+002
3552568750 -4.515493e-001 -9.678629e+001 -6.123648e+001 -9.494115e+001 -6.086148e+001 6.548561e+001 -2.816542e+000 1.646555e+002
3571312500 -4.582791e-001 -9.729726e+001 -6.087473e+001 -9.758525e+001 -6.086935e+001 8.096358e+001 -2.828638e+000 1.638062e+002
3590056250 -4.633528e-001 -9.776506e+001 -6.052956e+001 -9.699864e+001 -6.104423e+001 9.690520e+001 -2.843958e+000 1.629398e+002
3608800000 -4.634441e-001 -9.824226e+001 -6.086404e+001 -9.938456e+001 -6.138800e+001 1.083922e+002 -2.848971e+000 1.620904e+002
3627543750 -4.679344e-001 -9.869697e+001 -6.064592e+001 -1.004928e+002 -6.136634e+001 1.242620e+002 -2.857489e+000 1.612770e+002
3646287500 -4.730789e-001 -9.916076e+001 -6.066376e+001 -1.042778e+002 -6.126901e+001 1.405034e+002 -2.871078e+000 1.604059e+002
3665031250 -4.748843e-001 -9.963021e+001 -6.086729e+001 -1.053670e+002 -6.113690e+001 1.532818e+002 -2.875864e+000 1.595610e+002
3683775000 -4.798209e-001 -1.000392e+002 -6.106570e+001 -1.087073e+002 -6.110776e+001 1.660004e+002 -2.878958e+000 1.587338e+002
3702518750 -4.879268e-001 -1.005627e+002 -6.082971e+001 -1.103335e+002 -6.122834e+001 1.789600e+002 -2.892851e+000 1.578987e+002
3721262500 -4.817176e-001 -1.010461e+002 -6.077449e+001 -1.118934e+002 -6.129799e+001 -1.646857e+002 -2.899629e+000 1.570394e+002
3740006250 -4.906158e-001 -1.014528e+002 -6.112268e+001 -1.112964e+002 -6.125001e+001 -1.513339e+002 -2.907166e+000 1.562140e+002
3758750000 -4.971736e-001 -1.019929e+002 -6.113421e+001 -1.120598e+002 -6.055947e+001 -1.376939e+002 -2.921460e+000 1.553858e+002
3777493750 -4.863420e-001 -1.024736e+002 -6.093827e+001 -1.119735e+002 -6.052314e+001 -1.258508e+002 -2.932598e+000 1.545126e+002
3796237500 -4.955903e-001 -1.028699e+002 -6.127104e+001 -1.099065e+002 -6.043895e+001 -1.101212e+002 -2.940781e+000 1.536615e+002
3814981250 -5.033838e-001 -1.034061e+002 -6.156672e+001 -1.133656e+002 -6.024394e+001 -9.981319e+001 -2.952358e+000 1.527988e+002
3833725000 -4.952848e-001 -1.038481e+002 -6.165745e+001 -1.125562e+002 -5.959063e+001 -9.548979e+001 -2.958974e+000 1.519380e+002
3852468750 -5.068951e-001 -1.042674e+002 -6.150468e+001 -1.113165e+002 -5.998027e+001 -9.471304e+001 -2.968208e+000 1.510864e+002
3871212500 -5.106760e-001 -1.048099e+002 -6.130426e+001 -1.084200e+002 -6.015854e+001 -9.295864e+001 -2.981418e+000 1.502467e+002
3889956250 -5.047750e-001 -1.052469e+002 -6.149928e+001 -1.108231e+002 -6.016128e+001 -9.693393e+001 -2.990569e+000 1.493874e+002
3908700000 -5.128606e-001 -1.056474e+002 -6.144182e+001 -1.101095e+002 -6.010899e+001 -9.743056e+001 -3.003461e+000 1.485470e+002
3927443750 -5.161369e-001 -1.061662e+002 -6.165820e+001 -1.119735e+002 -5.994275e+001 -9.811965e+001 -3.013828e+000 1.476991e+002
3946187500 -5.116375e-001 -1.065739e+002 -6.161540e+001 -1.128787e+002 -6.017175e+001 -9.617018e+001 -3.022677e+000 1.468402e+002
3964931250 -5.213548e-001 -1.069967e+002 -6.153420e+001 -1.145646e+002 -6.052986e+001 -9.559571e+001 -3.035242e+000 1.459926e+002
3983675000 -5.263342e-001 -1.075109e+002 -6.146923e+001 -1.127478e+002 -6.068242e+001 -9.654115e+001 -3.045987e+000 1.451383e+002
4002418750 -5.213556e-001 -1.079176e+002 -6.198605e+001 -1.134756e+002 -6.023889e+001 -9.614320e+001 -3.051115e+000 1.442798e+002
4021162500 -5.281268e-001 -1.083688e+002 -6.216991e+001 -1.144741e+002 -6.035355e+001 -9.761900e+001 -3.058475e+000 1.434529e+002
4039906250 -5.311559e-001 -1.088537e+002 -6.163401e+001 -1.132333e+002 -6.003016e+001 -9.705912e+001 -3.072686e+000 1.425920e+002
4058650000 -5.292503e-001 -1.093033e+002 -6.184309e+001 -1.125454e+002 -6.002567e+001 -9.932899e+001 -3.082582e+000 1.416989e+002
4077393750 -5.377039e-001 -1.097606e+002 -6.182639e+001 -1.112046e+002 -6.016105e+001 -1.004591e+002 -3.090564e+000 1.408786e+002
4096137500 -5.400348e-001 -1.102408e+002 -6.189232e+001 -1.106481e+002 -6.028984e+001 -9.978561e+001 -3.105378e+000 1.400270e+002
4114881250 -5.419405e-001 -1.107479e+002 -6.159556e+001 -1.138274e+002 -6.033496e+001 -1.026228e+002 -3.122622e+000 1.391504e+002
4133625000 -5.445476e-001 -1.111708e+002 -6.171011e+001 -1.133466e+002 -6.070720e+001 -1.007595e+002 -3.130873e+000 1.382916e+002
4152368750 -5.508940e-001 -1.116283e+002 -6.190828e+001 -1.123825e+002 -6.100044e+001 -9.934355e+001 -3.143780e+000 1.374424e+002
4171112500 -5.499429e-001 -1.121188e+002 -6.134949e+001 -1.112081e+002 -6.181318e+001 -9.629085e+001 -3.157745e+000 1.365462e+002
4189856250 -5.529388e-001 -1.125418e+002 -6.115184e+001 -1.125102e+002 -6.185429e+001 -9.852763e+001 -3.165279e+000 1.356906e+002
4208600000 -5.610113e-001 -1.130247e+002 -6.133092e+001 -1.166477e+002 -6.180819e+001 -9.535705e+001 -3.174200e+000 1.348428e+002
4227343750 -5.624316e-001 -1.134962e+002 -6.101880e+001 -1.191274e+002 -6.200093e+001 -9.770305e+001 -3.187038e+000 1.339686e+002
4246087500 -5.662454e-001 -1.139395e+002 -6.098739e+001 -1.168185e+002 -6.184872e+001 -1.018526e+002 -3.195375e+000 1.331101e+002
4264831250 -5.733935e-001 -1.144211e+002 -6.117154e+001 -1.192846e+002 -6.210411e+001 -1.008228e+002 -3.207948e+000 1.322631e+002
4283575000 -5.721674e-001 -1.148792e+002 -6.131622e+001 -1.197789e+002 -6.176482e+001 -1.030236e+002 -3.217937e+000 1.313841e+002
4302318750 -5.720041e-001 -1.153169e+002 -6.127060e+001 -1.221333e+002 -6.142558e+001 -1.066812e+002 -3.227182e+000 1.304959e+002
4321062500 -5.811324e-001 -1.157793e+002 -6.122022e+001 -1.212209e+002 -6.152090e+001 -1.053624e+002 -3.233351e+000 1.296574e+002
4339806250 -5.849143e-001 -1.162745e+002 -6.109869e+001 -1.233255e+002 -6.145844e+001 -1.054983e+002 -3.247123e+000 1.287891e+002
4358550000 -5.867785e-001 -1.167254e+002 -6.082339e+001 -1.214611e+002 -6.167564e+001 -1.057668e+002 -3.257203e+000 1.278836e+002
4377293750 -5.934449e-001 -1.172335e+002 -6.094226e+001 -1.222197e+002 -6.138631e+001 -1.075038e+002 -3.269675e+000 1.270352e+002
4396037500 -5.901117e-001 -1.176815e+002 -6.093918e+001 -1.211030e+002 -6.099856e+001 -1.119186e+002 -3.280881e+000 1.261391e+002
4414781250 -5.963011e-001 -1.181218e+002 -6.103087e+001 -1.208448e+002 -6.109810e+001 -1.088132e+002 -3.286322e+000 1.252650e+002
4433525000 -6.002277e-001 -1.186205e+002 -6.104527e+001 -1.207456e+002 -6.137007e+001 -1.108257e+002 -3.299309e+000 1.244052e+002
4452268750 -5.979336e-001 -1.190442e+002 -6.107564e+001 -1.222282e+002 -6.149660e+001 -1.105304e+002 -3.308946e+000 1.235026e+002
4471012500 -6.073356e-001 -1.194704e+002 -6.121279e+001 -1.219423e+002 -6.129000e+001 -1.096058e+002 -3.314039e+000 1.226543e+002
4489756250 -6.136314e-001 -1.199882e+002 -6.114737e+001 -1.227035e+002 -6.117160e+001 -1.085794e+002 -3.322235e+000 1.217912e+002
4508500000 -6.114626e-001 -1.204214e+002 -6.095359e+001 -1.244055e+002 -6.193500e+001 -1.071144e+002 -3.329964e+000 1.208945e+002
4527243750 -6.194220e-001 -1.208516e+002 -6.066698e+001 -1.247452e+002 -6.177397e+001 -1.091438e+002 -3.333548e+000 1.200299e+002
4545987500 -6.252295e-001 -1.213626e+002 -6.058996e+001 -1.216527e+002 -6.180478e+001 -1.091441e+002 -3.342384e+000 1.191605e+002
4564731250 -6.215494e-001 -1.217855e+002 -6.072218e+001 -1.237505e+002 -6.137001e+001 -1.117647e+002 -3.350661e+000 1.182581e+002
4583475000 -6.340033e-001 -1.222248e+002 -6.056882e+001 -1.254379e+002 -6.104996e+001 -1.128173e+002 -3.357472e+000 1.174034e+002
4602218750 -6.419324e-001 -1.227012e+002 -6.064037e+001 -1.286817e+002 -6.043855e+001 -1.167148e+002 -3.366149e+000 1.165629e+002
4620962500 -6.401435e-001 -1.231594e+002 -6.068442e+001 -1.275639e+002 -6.063707e+001 -1.165434e+002 -3.375645e+000 1.156352e+002
4639706250 -6.492081e-001 -1.235548e+002 -6.035161e+001 -1.251435e+002 -6.074368e+001 -1.197218e+002 -3.377981e+000 1.147629e+002
4658450000 -6.555952e-001 -1.240421e+002 -6.068958e+001 -1.259301e+002 -6.115137e+001 -1.168279e+002 -3.387096e+000 1.139199e+002
4677193750 -6.529561e-001 -1.244431e+002 -6.046101e+001 -1.285678e+002 -6.104839e+001 -1.172563e+002 -3.393262e+000 1.130171e+002
4695937500 -6.651248e-001 -1.248972e+002 -6.045780e+001 -1.289584e+002 -6.076594e+001 -1.204143e+002 -3.398029e+000 1.121457e+002
4714681250 -6.685682e-001 -1.253844e+002 -6.028345e+001 -1.311394e+002 -6.084343e+001 -1.206076e+002 -3.407812e+000 1.112615e+002
4733425000 -6.756770e-001 -1.257897e+002 -6.121805e+001 -1.283797e+002 -6.090826e+001 -1.215717e+002 -3.413311e+000 1.103734e+002
4752168750 -6.819478e-001 -1.262893e+002 -6.123669e+001 -1.290167e+002 -6.071638e+001 -1.225875e+002 -3.423767e+000 1.094907e+002
4770912500 -6.837355e-001 -1.267289e+002 -6.142627e+001 -1.306483e+002 -6.112728e+001 -1.257148e+002 -3.429810e+000 1.085872e+002
4789656250 -6.890863e-001 -1.271528e+002 -6.158037e+001 -1.345996e+002 -6.111520e+001 -1.298715e+002 -3.431276e+000 1.076953e+002
4808400000 -6.995916e-001 -1.275928e+002 -6.167551e+001 -1.346892e+002 -6.118808e+001 -1.273557e+002 -3.437124e+000 1.068131e+002
4827143750 -7.044187e-001 -1.280698e+002 -6.163745e+001 -1.382175e+002 -6.113586e+001 -1.280129e+002 -3.446613e+000 1.059032e+002
4845887500 -7.089568e-001 -1.285011e+002 -6.140394e+001 -1.389560e+002 -6.104101e+001 -1.341908e+002 -3.450732e+000 1.049953e+002
4864631250 -7.186436e-001 -1.289553e+002 -6.119395e+001 -1.403870e+002 -6.089953e+001 -1.308694e+002 -3.457712e+000 1.041389e+002
4883375000 -7.211738e-001 -1.294405e+002 -6.128917e+001 -1.390122e+002 -6.049677e+001 -1.338886e+002 -3.468229e+000 1.032288e+002
4902118750 -7.243717e-001 -1.298787e+002 -6.136361e+001 -1.391800e+002 -6.067727e+001 -1.345986e+002 -3.474713e+000 1.023016e+002
4920862500 -7.336550e-001 -1.303255e+002 -6.167451e+001 -1.402777e+002 -6.085295e+001 -1.380808e+002 -3.483041e+000 1.014195e+002
4939606250 -7.354971e-001 -1.307858e+002 -6.183239e+001 -1.397356e+002 -5.994897e+001 -1.403531e+002 -3.493487e+000 1.004786e+002
4958350000 -7.403888e-001 -1.312106e+002 -6.205723e+001 -1.384270e+002 -6.015656e+001 -1.394471e+002 -3.499183e+000 9.954304e+001
4977093750 -7.478788e-001 -1.316558e+002 -6.222052e+001 -1.406342e+002 -6.020576e+001 -1.389573e+002 -3.505130e+000 9.865733e+001
4995837500 -7.494203e-001 -1.321199e+002 -6.251537e+001 -1.417918e+002 -6.031605e+001 -1.368993e+002 -3.514157e+000 9.771963e+001
5014581250 -7.520087e-001 -1.325300e+002 -6.286871e+001 -1.450896e+002 -6.048920e+001 -1.384258e+002 -3.518553e+000 9.679264e+001
5033325000 -7.584789e-001 -1.330172e+002 -6.304972e+001 -1.432972e+002 -6.052646e+001 -1.410311e+002 -3.523044e+000 9.586855e+001
5052068750 -7.591386e-001 -1.334414e+002 -6.299545e+001 -1.460873e+002 -6.032251e+001 -1.425148e+002 -3.531355e+000 9.496243e+001
5070812500 -7.679150e-001 -1.338802e+002 -6.352975e+001 -1.468553e+002 -6.019280e+001 -1.437651e+002 -3.539979e+000 9.403097e+001
5089556250 -7.730592e-001 -1.343682e+002 -6.316790e+001 -1.477952e+002 -5.974340e+001 -1.494321e+002 -3.546575e+000 9.308765e+001
5108300000 -7.753718e-001 -1.348317e+002 -6.322589e+001 -1.483765e+002 -5.979778e+001 -1.483155e+002 -3.557090e+000 9.215559e+001
5127043750 -7.801331e-001 -1.352431e+002 -6.336005e+001 -1.532847e+002 -5.992342e+001 -1.488971e+002 -3.563033e+000 9.121201e+001
5145787500 -7.867856e-001 -1.357176e+002 -6.346475e+001 -1.519790e+002 -6.067829e+001 -1.492688e+002 -3.565806e+000 9.028451e+001
5164531250 -7.866960e-001 -1.361697e+002 -6.286469e+001 -1.574925e+002 -6.064028e+001 -1.509836e+002 -3.573330e+000 8.934233e+001
5183275000 -7.897091e-001 -1.365725e+002 -6.279319e+001 -1.584688e+002 -6.064503e+001 -1.494753e+002 -3.578703e+000 8.838860e+001
5202018750 -7.971254e-001 -1.370375e+002 -6.258555e+001 -1.576606e+002 -6.048128e+001 -1.502602e+002 -3.584744e+000 8.744356e+001
5220762500 -7.982934e-001 -1.374724e+002 -6.263478e+001 -1.576008e+002 -6.090475e+001 -1.492427e+002 -3.594615e+000 8.650272e+001
5239506250 -8.025126e-001 -1.379019e+002 -6.255201e+001 -1.589255e+002 -6.089028e+001 -1.511376e+002 -3.599428e+000 8.554868e+001
5258250000 -8.101606e-001 -1.383489e+002 -6.270570e+001 -1.584645e+002 -6.105018e+001 -1.535477e+002 -3.603493e+000 8.460600e+001
5276993750 -8.106754e-001 -1.387869e+002 -6.251674e+001 -1.592471e+002 -6.091532e+001 -1.521197e+002 -3.613891e+000 8.365123e+001
5295737500 -8.160035e-001 -1.392198e+002 -6.244323e+001 -1.593438e+002 -6.115017e+001 -1.554220e+002 -3.617531e+000 8.267146e+001
5314481250 -8.242091e-001 -1.396657e+002 -6.257369e+001 -1.589954e+002 -6.146938e+001 -1.567436e+002 -3.621071e+000 8.171140e+001
5333225000 -8.249390e-001 -1.401038e+002 -6.259321e+001 -1.619502e+002 -6.156190e+001 -1.569143e+002 -3.627612e+000 8.073626e+001
5351968750 -8.314005e-001 -1.405337e+002 -6.238386e+001 -1.641394e+002 -6.182645e+001 -1.536066e+002 -3.632491e+000 7.975924e+001
5370712500 -8.359957e-001 -1.409840e+002 -6.220035e+001 -1.648551e+002 -6.194320e+001 -1.536220e+002 -3.635087e+000 7.879210e+001
5389456250 -8.381914e-001 -1.414302e+002 -6.198401e+001 -1.686774e+002 -6.184412e+001 -1.556076e+002 -3.642954e+000 7.782274e+001
5408200000 -8.454856e-001 -1.418641e+002 -6.199866e+001 -1.681137e+002 -6.153383e+001 -1.596300e+002 -3.646552e+000 7.684621e+001
5426943750 -8.501468e-001 -1.423186e+002 -6.175172e+001 -1.691394e+002 -6.152043e+001 -1.632792e+002 -3.652450e+000 7.586757e+001
5445687500 -8.550812e-001 -1.427537e+002 -6.167041e+001 -1.677032e+002 -6.152600e+001 -1.619126e+002 -3.659625e+000 7.485583e+001
5464431250 -8.630342e-001 -1.431800e+002 -6.137163e+001 -1.673862e+002 -6.159525e+001 -1.606144e+002 -3.663153e+000 7.385599e+001
5483175000 -8.660469e-001 -1.436435e+002 -6.169511e+001 -1.663226e+002 -6.160777e+001 -1.616904e+002 -3.667623e+000 7.285851e+001
5501918750 -8.698442e-001 -1.440861e+002 -6.198353e+001 -1.700228e+002 -6.171573e+001 -1.619367e+002 -3.673184e+000 7.185191e+001
5520662500 -8.770738e-001 -1.445258e+002 -6.215285e+001 -1.715784e+002 -6.164165e+001 -1.607511e+002 -3.674480e+000 7.085600e+001
5539406250 -8.799087e-001 -1.449844e+002 -6.265256e+001 -1.742039e+002 -6.177900e+001 -1.644845e+002 -3.681453e+000 6.985479e+001
5558150000 -8.831006e-001 -1.454172e+002 -6.271794e+001 -1.719604e+002 -6.254923e+001 -1.734545e+002 -3.688084e+000 6.883071e+001
5576893750 -8.904618e-001 -1.458604e+002 -6.297107e+001 -1.754845e+002 -6.206798e+001 -1.755506e+002 -3.690753e+000 6.781094e+001
5595637500 -8.943135e-001 -1.463209e+002 -6.284466e+001 -1.728131e+002 -6.223518e+001 -1.780175e+002 -3.697592e+000 6.680389e+001
5614381250 -8.995690e-001 -1.467572e+002 -6.297972e+001 -1.735394e+002 -6.246494e+001 1.793266e+002 -3.702628e+000 6.576790e+001
5633125000 -9.071208e-001 -1.472055e+002 -6.340688e+001 -1.773978e+002 -6.238937e+001 1.787463e+002 -3.700217e+000 6.473571e+001
5651868750 -9.089419e-001 -1.476641e+002 -6.311218e+001 -1.780839e+002 -6.200261e+001 -1.783385e+002 -3.709457e+000 6.373158e+001
5670612500 -9.137438e-001 -1.480824e+002 -6.321037e+001 -1.792392e+002 -6.234805e+001 1.798112e+002 -3.715850e+000 6.265975e+001
5689356250 -9.216286e-001 -1.485306e+002 -6.299072e+001 -1.791983e+002 -6.255202e+001 -1.774378e+002 -3.715552e+000 6.160019e+001
5708100000 -9.249792e-001 -1.489787e+002 -6.300184e+001 1.791836e+002 -6.271202e+001 -1.787168e+002 -3.719160e+000 6.055982e+001
5726843750 -9.288707e-001 -1.493959e+002 -6.289610e+001 1.781873e+002 -6.246540e+001 1.791405e+002 -3.723429e+000 5.948563e+001
5745587500 -9.356402e-001 -1.498314e+002 -6.273211e+001 1.772609e+002 -6.251664e+001 -1.796387e+002 -3.722022e+000 5.843439e+001
5764331250 -9.399043e-001 -1.502695e+002 -6.283821e+001 1.769248e+002 -6.223119e+001 1.798996e+002 -3.729036e+000 5.740516e+001
5783075000 -9.463856e-001 -1.506787e+002 -6.295564e+001 1.790184e+002 -6.190572e+001 1.779742e+002 -3.734066e+000 5.632281e+001
5801818750 -9.559124e-001 -1.511308e+002 -6.327414e+001 1.721864e+002 -6.167355e+001 1.763325e+002 -3.739756e+000 5.524055e+001
5820562500 -9.608186e-001 -1.515731e+002 -6.325473e+001 1.696308e+002 -6.169093e+001 1.759137e+002 -3.740447e+000 5.415718e+001
5839306250 -9.630682e-001 -1.519668e+002 -6.344656e+001 1.685194e+002 -6.208132e+001 1.774766e+002 -3.744517e+000 5.306701e+001
5858050000 -9.733167e-001 -1.523948e+002 -6.355944e+001 1.675986e+002 -6.195969e+001 1.766830e+002 -3.744804e+000 5.197098e+001
5876793750 -9.794043e-001 -1.528472e+002 -6.326693e+001 1.676449e+002 -6.178691e+001 1.730492e+002 -3.739149e+000 5.087867e+001
5895537500 -9.771655e-001 -1.532593e+002 -6.321364e+001 1.648332e+002 -6.155745e+001 1.734910e+002 -3.745084e+000 4.982764e+001
5914281250 -9.915896e-001 -1.536885e+002 -6.323188e+001 1.646098e+002 -6.170013e+001 1.714955e+002 -3.750976e+000 4.869944e+001
5933025000 -9.943588e-001 -1.541430e+002 -6.238404e+001 1.674270e+002 -6.169696e+001 1.701185e+002 -3.746465e+000 4.757178e+001
5951768750 -9.952143e-001 -1.545524e+002 -6.242813e+001 1.652505e+002 -6.180263e+001 1.707183e+002 -3.752118e+000 4.649213e+001
5970512500 -1.006907e+000 -1.549754e+002 -6.222462e+001 1.669475e+002 -6.179330e+001 1.710967e+002 -3.753318e+000 4.534160e+001
5989256250 -1.011128e+000 -1.554251e+002 -6.229670e+001 1.679449e+002 -6.091046e+001 1.791595e+002 -3.746306e+000 4.420929e+001
6008000000 -1.011485e+000 -1.558470e+002 -6.192861e+001 1.700180e+002 -6.056487e+001 1.797367e+002 -3.754323e+000 4.312949e+001
6026743750 -1.024801e+000 -1.562873e+002 -6.180178e+001 1.689912e+002 -6.034505e+001 -1.755934e+002 -3.755878e+000 4.196309e+001
6045487500 -1.028627e+000 -1.567259e+002 -6.184982e+001 1.661192e+002 -6.027776e+001 -1.747018e+002 -3.748843e+000 4.080207e+001
6064231250 -1.029520e+000 -1.571499e+002 -6.159100e+001 1.677674e+002 -6.018440e+001 -1.733720e+002 -3.758360e+000 3.970861e+001
6082975000 -1.042785e+000 -1.575822e+002 -6.168245e+001 1.689089e+002 -6.022913e+001 -1.789890e+002 -3.753594e+000 3.850483e+001
6101718750 -1.042987e+000 -1.580316e+002 -6.161413e+001 1.686190e+002 -5.988279e+001 1.778171e+002 -3.746718e+000 3.736819e+001
6120462500 -1.047163e+000 -1.584698e+002 -6.181952e+001 1.675950e+002 -5.987201e+001 1.728106e+002 -3.755206e+000 3.626593e+001
6139206250 -1.057294e+000 -1.589071e+002 -6.205092e+001 1.669697e+002 -5.997256e+001 1.700758e+002 -3.754842e+000 3.503624e+001
6157950000 -1.059629e+000 -1.593575e+002 -6.206646e+001 1.694976e+002 -6.011393e+001 1.718121e+002 -3.747216e+000 3.386954e+001
6176693750 -1.063434e+000 -1.597950e+002 -6.221332e+001 1.663101e+002 -6.008457e+001 1.700501e+002 -3.756793e+000 3.273788e+001
6195437500 -1.070340e+000 -1.602564e+002 -6.237268e+001 1.669843e+002 -6.045871e+001 1.662305e+002 -3.750585e+000 3.153068e+001
6214181250 -1.070896e+000 -1.606928e+002 -6.214409e+001 1.649536e+002 -6.055004e+001 1.648532e+002 -3.746431e+000 3.036781e+001
6232925000 -1.075181e+000 -1.611255e+002 -6.207190e+001 1.698295e+002 -6.064516e+001 1.646105e+002 -3.742890e+000 2.918545e+001
6251668750 -1.081195e+000 -1.615707e+002 -6.256224e+001 1.707681e+002 -6.076957e+001 1.624931e+002 -3.740302e+000 2.799010e+001
6270412500 -1.085105e+000 -1.620352e+002 -6.261939e+001 1.711547e+002 -6.063720e+001 1.627337e+002 -3.732316e+000 2.680669e+001
6289156250 -1.090263e+000 -1.624784e+002 -6.260699e+001 1.721796e+002 -6.097977e+001 1.614545e+002 -3.732611e+000 2.563434e+001
6307900000 -1.095052e+000 -1.629133e+002 -6.266620e+001 1.704641e+002 -6.089317e+001 1.628705e+002 -3.735601e+000 2.439020e+001
6326643750 -1.102633e+000 -1.633713e+002 -6.272146e+001 1.694999e+002 -6.105091e+001 1.616013e+002 -3.727150e+000 2.316590e+001
6345387500 -1.106542e+000 -1.638055e+002 -6.250073e+001 1.682088e+002 -6.112902e+001 1.660148e+002 -3.722498e+000 2.197248e+001
6364131250 -1.113771e+000 -1.642249e+002 -6.267963e+001 1.668656e+002 -6.153991e+001 1.659314e+002 -3.724756e+000 2.072871e+001
6382875000 -1.120447e+000 -1.646691e+002 -6.304744e+001 1.695246e+002 -6.169516e+001 1.645506e+002 -3.715362e+000 1.949839e+001
6401618750 -1.126542e+000 -1.651107e+002 -6.301929e+001 1.690019e+002 -6.156034e+001 1.668006e+002 -3.711605e+000 1.829041e+001
6420362500 -1.134121e+000 -1.655388e+002 -6.305463e+001 1.707457e+002 -6.213628e+001 1.632791e+002 -3.711140e+000 1.703073e+001
6439106250 -1.142955e+000 -1.659723e+002 -6.359503e+001 1.649265e+002 -6.227070e+001 1.617565e+002 -3.700717e+000 1.578042e+001
6457850000 -1.145469e+000 -1.663934e+002 -6.339988e+001 1.644812e+002 -6.235801e+001 1.587831e+002 -3.696636e+000 1.454539e+001
6476593750 -1.153545e+000 -1.668210e+002 -6.333295e+001 1.642379e+002 -6.238823e+001 1.542547e+002 -3.694024e+000 1.329411e+001
6495337500 -1.160370e+000 -1.672558e+002 -6.336856e+001 1.638038e+002 -6.239627e+001 1.546301e+002 -3.679705e+000 1.204018e+001
6514081250 -1.163776e+000 -1.676841e+002 -6.366279e+001 1.623452e+002 -6.230983e+001 1.578783e+002 -3.678425e+000 1.080217e+001
6532825000 -1.171913e+000 -1.681127e+002 -6.345858e+001 1.610599e+002 -6.211550e+001 1.572332e+002 -3.671925e+000 9.521025e+000
6551568750 -1.178798e+000 -1.685378e+002 -6.338919e+001 1.595825e+002 -6.184139e+001 1.565580e+002 -3.660197e+000 8.263699e+000
6570312500 -1.182922e+000 -1.689761e+002 -6.347758e+001 1.613247e+002 -6.156150e+001 1.570782e+002 -3.656434e+000 7.026181e+000
6589056250 -1.190378e+000 -1.693949e+002 -6.361294e+001 1.586400e+002 -6.156251e+001 1.531721e+002 -3.650436e+000 5.730954e+000
6607800000 -1.197992e+000 -1.698328e+002 -6.350335e+001 1.584746e+002 -6.167187e+001 1.516070e+002 -3.636287e+000 4.457710e+000
6626543750 -1.206154e+000 -1.702577e+002 -6.333229e+001 1.536702e+002 -6.147987e+001 1.537589e+002 -3.631933e+000 3.149143e+000
6645287500 -1.213601e+000 -1.706977e+002 -6.348264e+001 1.502036e+002 -6.149422e+001 1.533054e+002 -3.618854e+000 1.835075e+000
6664031250 -1.218804e+000 -1.711320e+002 -6.339533e+001 1.472770e+002 -6.170374e+001 1.502819e+002 -3.612075e+000 5.896139e-001
6682775000 -1.226021e+000 -1.715618e+002 -6.302549e+001 1.500027e+002 -6.185616e+001 1.501829e+002 -3.607901e+000 -7.288037e-001
6701518750 -1.234411e+000 -1.719836e+002 -6.318829e+001 1.481828e+002 -6.165465e+001 1.475687e+002 -3.599244e+000 -2.063605e+000
6720262500 -1.240607e+000 -1.724248e+002 -6.285308e+001 1.460532e+002 -6.161195e+001 1.461419e+002 -3.588096e+000 -3.357856e+000
6739006250 -1.246843e+000 -1.728558e+002 -6.308477e+001 1.473997e+002 -6.174680e+001 1.437679e+002 -3.579535e+000 -4.649322e+000
6757750000 -1.255341e+000 -1.732778e+002 -6.391202e+001 1.463083e+002 -6.170718e+001 1.406015e+002 -3.569847e+000 -5.995869e+000
6776493750 -1.259577e+000 -1.737030e+002 -6.396523e+001 1.452240e+002 -6.148583e+001 1.364619e+002 -3.558891e+000 -7.289809e+000
6795237500 -1.265706e+000 -1.741410e+002 -6.391679e+001 1.442594e+002 -6.134261e+001 1.341374e+002 -3.548896e+000 -8.596888e+000
6813981250 -1.273195e+000 -1.745746e+002 -6.337944e+001 1.435413e+002 -6.116993e+001 1.316246e+002 -3.538740e+000 -9.949505e+000
6832725000 -1.276768e+000 -1.750127e+002 -6.318586e+001 1.398822e+002 -6.098326e+001 1.278875e+002 -3.526689e+000 -1.126806e+001
6851468750 -1.282643e+000 -1.754486e+002 -6.276492e+001 1.345070e+002 -6.051788e+001 1.285278e+002 -3.515822e+000 -1.258509e+001
6870212500 -1.289660e+000 -1.758807e+002 -6.261434e+001 1.372761e+002 -6.042688e+001 1.265504e+002 -3.503450e+000 -1.393183e+001
6888956250 -1.295883e+000 -1.763275e+002 -6.301452e+001 1.347628e+002 -6.067455e+001 1.233493e+002 -3.489278e+000 -1.525922e+001
6907700000 -1.301213e+000 -1.767491e+002 -6.427986e+001 1.380417e+002 -6.058471e+001 1.226265e+002 -3.480254e+000 -1.659160e+001
6926443750 -1.308319e+000 -1.771891e+002 -6.444765e+001 1.368303e+002 -6.050172e+001 1.198637e+002 -3.471829e+000 -1.795583e+001
6945187500 -1.314967e+000 -1.776360e+002 -6.425879e+001 1.355746e+002 -6.127415e+001 1.191715e+002 -3.457494e+000 -1.930533e+001
6963931250 -1.321488e+000 -1.780727e+002 -6.452933e+001 1.315652e+002 -6.128711e+001 1.194872e+002 -3.447840e+000 -2.064720e+001
6982675000 -1.328434e+000 -1.785186e+002 -6.466280e+001 1.302781e+002 -6.133202e+001 1.204146e+002 -3.436993e+000 -2.202398e+001
7001418750 -1.334875e+000 -1.789531e+002 -6.446567e+001 1.253798e+002 -6.129758e+001 1.207890e+002 -3.421900e+000 -2.338154e+001
7020162500 -1.342539e+000 -1.793781e+002 -6.451209e+001 1.234977e+002 -6.129657e+001 1.206069e+002 -3.412092e+000 -2.472750e+001
7038906250 -1.349909e+000 -1.798050e+002 -6.438493e+001 1.225464e+002 -6.134354e+001 1.173376e+002 -3.400784e+000 -2.610899e+001
7057650000 -1.355883e+000 1.797663e+002 -6.431158e+001 1.246303e+002 -6.126909e+001 1.117376e+002 -3.386111e+000 -2.747668e+001
7076393750 -1.361889e+000 1.793353e+002 -6.447118e+001 1.255420e+002 -6.134438e+001 1.070081e+002 -3.377327e+000 -2.883780e+001
7095137500 -1.370168e+000 1.788923e+002 -6.454400e+001 1.275469e+002 -6.132501e+001 1.077018e+002 -3.364675e+000 -3.022441e+001
7113881250 -1.376245e+000 1.784581e+002 -6.448524e+001 1.253220e+002 -6.139827e+001 1.082560e+002 -3.349751e+000 -3.161918e+001
7132625000 -1.382985e+000 1.780357e+002 -6.408507e+001 1.245173e+002 -6.144877e+001 1.069828e+002 -3.337632e+000 -3.299931e+001
7151368750 -1.390126e+000 1.776099e+002 -6.453568e+001 1.240020e+002 -6.159603e+001 1.101441e+002 -3.324136e+000 -3.439915e+001
7170112500 -1.397213e+000 1.771792e+002 -6.426680e+001 1.203730e+002 -6.189371e+001 1.078527e+002 -3.309372e+000 -3.577838e+001
7188856250 -1.405031e+000 1.767506e+002 -6.387780e+001 1.182197e+002 -6.218009e+001 1.084832e+002 -3.295597e+000 -3.716040e+001
7207600000 -1.412048e+000 1.763098e+002 -6.374875e+001 1.157479e+002 -6.231867e+001 1.070008e+002 -3.281873e+000 -3.856607e+001
7226343750 -1.418541e+000 1.758810e+002 -6.382910e+001 1.131997e+002 -6.203667e+001 1.047982e+002 -3.266912e+000 -3.994722e+001
7245087500 -1.426012e+000 1.754750e+002 -6.396368e+001 1.111094e+002 -6.199445e+001 1.030374e+002 -3.254521e+000 -4.134748e+001
7263831250 -1.434647e+000 1.750386e+002 -6.408036e+001 1.136447e+002 -6.303805e+001 1.075010e+002 -3.240001e+000 -4.277246e+001
7282575000 -1.443059e+000 1.746008e+002 -6.400716e+001 1.145129e+002 -6.304876e+001 1.066199e+002 -3.225221e+000 -4.416830e+001
7301318750 -1.450706e+000 1.741690e+002 -6.379106e+001 1.125880e+002 -6.362672e+001 1.050782e+002 -3.214298e+000 -4.558855e+001
7320062500 -1.457328e+000 1.737283e+002 -6.367308e+001 1.156058e+002 -6.334718e+001 1.050674e+002 -3.200472e+000 -4.702167e+001
7338806250 -1.465359e+000 1.732906e+002 -6.267695e+001 1.149913e+002 -6.357190e+001 1.063935e+002 -3.183881e+000 -4.841702e+001
7357550000 -1.474233e+000 1.728705e+002 -6.273149e+001 1.115840e+002 -6.393847e+001 1.050098e+002 -3.170595e+000 -4.983929e+001
7376293750 -1.481146e+000 1.724338e+002 -6.255266e+001 1.056340e+002 -6.324613e+001 9.992210e+001 -3.157022e+000 -5.127073e+001
7395037500 -1.488206e+000 1.720067e+002 -6.243730e+001 1.068811e+002 -6.398332e+001 9.100517e+001 -3.142371e+000 -5.266680e+001
7413781250 -1.495519e+000 1.715651e+002 -6.284188e+001 1.062151e+002 -6.378331e+001 7.464360e+001 -3.127424e+000 -5.410865e+001
7432525000 -1.501700e+000 1.711171e+002 -6.281115e+001 1.062266e+002 -6.384700e+001 5.432229e+001 -3.110091e+000 -5.552267e+001
7451268750 -1.508759e+000 1.706836e+002 -6.299202e+001 1.028059e+002 -6.408255e+001 3.623063e+001 -3.095539e+000 -5.693738e+001
7470012500 -1.517171e+000 1.702290e+002 -6.320727e+001 1.020683e+002 -6.447720e+001 1.566139e+001 -3.082129e+000 -5.838706e+001
7488756250 -1.522080e+000 1.697911e+002 -6.318858e+001 1.003663e+002 -6.518905e+001 -1.240900e+001 -3.066447e+000 -5.981698e+001
7507500000 -1.530558e+000 1.693578e+002 -6.289418e+001 9.925134e+001 -6.512737e+001 -4.144452e+001 -3.050164e+000 -6.123622e+001
7526243750 -1.538593e+000 1.689034e+002 -6.284195e+001 9.867843e+001 -6.526454e+001 -8.025092e+001 -3.035829e+000 -6.268114e+001
7544987500 -1.542995e+000 1.684771e+002 -6.296946e+001 9.727882e+001 -6.522953e+001 -1.275552e+002 -3.020990e+000 -6.410211e+001
7563731250 -1.550742e+000 1.680447e+002 -6.319426e+001 9.389294e+001 -6.548637e+001 -1.766011e+002 -3.007874e+000 -6.551717e+001
7582475000 -1.558606e+000 1.675980e+002 -6.297942e+001 9.440140e+001 -6.522390e+001 1.349799e+002 -2.994111e+000 -6.696855e+001
7601218750 -1.562846e+000 1.671570e+002 -6.377234e+001 9.456207e+001 -6.528165e+001 9.441529e+001 -2.979518e+000 -6.840535e+001
7619962500 -1.572507e+000 1.667219e+002 -6.380257e+001 9.847049e+001 -6.504007e+001 5.918433e+001 -2.966842e+000 -6.983857e+001
7638706250 -1.581211e+000 1.662713e+002 -6.405969e+001 9.765866e+001 -6.526711e+001 3.090902e+001 -2.952234e+000 -7.128638e+001
7657450000 -1.583708e+000 1.658284e+002 -6.436610e+001 9.321196e+001 -6.621427e+001 1.741746e-001 -2.938265e+000 -7.272929e+001
7676193750 -1.592096e+000 1.653960e+002 -6.463741e+001 9.321750e+001 -6.636948e+001 -3.025136e+001 -2.924382e+000 -7.415949e+001
7694937500 -1.598945e+000 1.649521e+002 -6.468616e+001 9.525879e+001 -6.565243e+001 -6.172088e+001 -2.910265e+000 -7.560869e+001
7713681250 -1.602882e+000 1.645064e+002 -6.562262e+001 9.246468e+001 -6.564896e+001 -9.021392e+001 -2.898697e+000 -7.704081e+001
7732425000 -1.614234e+000 1.640787e+002 -6.566789e+001 9.413854e+001 -6.569875e+001 -1.145366e+002 -2.882867e+000 -7.847583e+001
7751168750 -1.620613e+000 1.636300e+002 -6.574689e+001 8.773155e+001 -6.602688e+001 -1.425030e+002 -2.869735e+000 -7.992635e+001
7769912500 -1.626770e+000 1.631881e+002 -6.572895e+001 8.350550e+001 -6.637651e+001 -1.759807e+002 -2.858154e+000 -8.137172e+001
7788656250 -1.636200e+000 1.627634e+002 -6.564012e+001 8.888376e+001 -6.608933e+001 1.526163e+002 -2.843153e+000 -8.281231e+001
7807400000 -1.642766e+000 1.623300e+002 -6.617184e+001 8.952827e+001 -6.598607e+001 1.246905e+002 -2.829399e+000 -8.426511e+001
7826143750 -1.648523e+000 1.618858e+002 -6.641561e+001 9.028494e+001 -6.551447e+001 1.032188e+002 -2.815012e+000 -8.570289e+001
7844887500 -1.659580e+000 1.614697e+002 -6.616158e+001 9.253423e+001 -6.583087e+001 9.332476e+001 -2.801661e+000 -8.712653e+001
7863631250 -1.665869e+000 1.610178e+002 -6.637878e+001 9.347996e+001 -6.588931e+001 8.464659e+001 -2.793006e+000 -8.859248e+001
7882375000 -1.671368e+000 1.605759e+002 -6.601706e+001 9.893365e+001 -6.575627e+001 7.318141e+001 -2.778354e+000 -9.001015e+001
7901118750 -1.680295e+000 1.601697e+002 -6.593830e+001 9.965250e+001 -6.529498e+001 6.321521e+001 -2.764100e+000 -9.143916e+001
7919862500 -1.687264e+000 1.597224e+002 -6.587234e+001 1.046955e+002 -6.464274e+001 6.461967e+001 -2.752363e+000 -9.288763e+001
7938606250 -1.694445e+000 1.592836e+002 -6.620739e+001 1.057927e+002 -6.513831e+001 7.125163e+001 -2.739645e+000 -9.430564e+001
7957350000 -1.703754e+000 1.588665e+002 -6.649458e+001 1.042628e+002 -6.481356e+001 8.055269e+001 -2.726190e+000 -9.573369e+001
7976093750 -1.711208e+000 1.583989e+002 -6.636669e+001 1.074193e+002 -6.501598e+001 9.694731e+001 -2.714775e+000 -9.717515e+001
7994837500 -1.720242e+000 1.579646e+002 -6.638235e+001 1.121619e+002 -6.551933e+001 1.160400e+002 -2.700680e+000 -9.857941e+001
8013581250 -1.729223e+000 1.575397e+002 -6.630980e+001 1.155531e+002 -6.540939e+001 1.317297e+002 -2.689210e+000 -1.000091e+002
8032325000 -1.737049e+000 1.570872e+002 -6.557848e+001 1.150309e+002 -6.502483e+001 1.438272e+002 -2.680008e+000 -1.014230e+002
8051068750 -1.745119e+000 1.566566e+002 -6.507642e+001 1.148893e+002 -6.482427e+001 1.489264e+002 -2.666077e+000 -1.028334e+002
8069812500 -1.754136e+000 1.562070e+002 -6.509670e+001 1.166835e+002 -6.453135e+001 1.475930e+002 -2.657055e+000 -1.042534e+002
8088556250 -1.763313e+000 1.557377e+002 -6.472806e+001 1.214640e+002 -6.357112e+001 1.502263e+002 -2.644942e+000 -1.056708e+002
8107300000 -1.771615e+000 1.552945e+002 -6.459765e+001 1.246161e+002 -6.359029e+001 1.515611e+002 -2.630641e+000 -1.070833e+002
8126043750 -1.780443e+000 1.548561e+002 -6.484803e+001 1.190286e+002 -6.368962e+001 1.455939e+002 -2.621302e+000 -1.084752e+002
8144787500 -1.785919e+000 1.544220e+002 -6.410444e+001 1.179609e+002 -6.392952e+001 1.427015e+002 -2.609831e+000 -1.098870e+002
8163531250 -1.793714e+000 1.539859e+002 -6.404041e+001 1.185194e+002 -6.368929e+001 1.356795e+002 -2.598751e+000 -1.112848e+002
8182275000 -1.805485e+000 1.535347e+002 -6.389238e+001 1.224722e+002 -6.357516e+001 1.332061e+002 -2.588817e+000 -1.126556e+002
8201018750 -1.809956e+000 1.530651e+002 -6.377742e+001 1.247401e+002 -6.311723e+001 1.334658e+002 -2.577564e+000 -1.140545e+002
8219762500 -1.817695e+000 1.526300e+002 -6.359988e+001 1.209344e+002 -6.352579e+001 1.320270e+002 -2.567040e+000 -1.154396e+002
8238506250 -1.828177e+000 1.521722e+002 -6.335812e+001 1.226571e+002 -6.339766e+001 1.333337e+002 -2.557696e+000 -1.168111e+002
8257250000 -1.835424e+000 1.517373e+002 -6.306303e+001 1.218194e+002 -6.313941e+001 1.305413e+002 -2.548549e+000 -1.182034e+002
8275993750 -1.844256e+000 1.513084e+002 -6.292311e+001 1.178459e+002 -6.302919e+001 1.238674e+002 -2.538079e+000 -1.195837e+002
8294737500 -1.855019e+000 1.508404e+002 -6.316020e+001 1.164754e+002 -6.300438e+001 1.201185e+002 -2.528544e+000 -1.209522e+002
8313481250 -1.862401e+000 1.503821e+002 -6.341241e+001 1.141791e+002 -6.300916e+001 1.162112e+002 -2.521422e+000 -1.223428e+002
8332225000 -1.871215e+000 1.499503e+002 -6.333594e+001 1.107779e+002 -6.312392e+001 1.195146e+002 -2.511729e+000 -1.237131e+002
8350968750 -1.881377e+000 1.494879e+002 -6.378254e+001 1.043931e+002 -6.326820e+001 1.187300e+002 -2.505241e+000 -1.250576e+002
8369712500 -1.888345e+000 1.490498e+002 -6.348021e+001 1.042691e+002 -6.305321e+001 1.103312e+002 -2.497519e+000 -1.264176e+002
8388456250 -1.897433e+000 1.486210e+002 -6.298210e+001 1.041411e+002 -6.305316e+001 1.068964e+002 -2.488875e+000 -1.277800e+002
8407200000 -1.908354e+000 1.481497e+002 -6.309135e+001 9.923671e+001 -6.260211e+001 1.057934e+002 -2.480468e+000 -1.291145e+002
8425943750 -1.913169e+000 1.476982e+002 -6.302660e+001 9.156388e+001 -6.220083e+001 1.061143e+002 -2.474176e+000 -1.304803e+002
8444687500 -1.920633e+000 1.472583e+002 -6.324081e+001 8.571829e+001 -6.228423e+001 1.039716e+002 -2.466755e+000 -1.318255e+002
8463431250 -1.928701e+000 1.467987e+002 -6.325739e+001 8.704324e+001 -6.234554e+001 1.012211e+002 -2.457021e+000 -1.331615e+002
8482175000 -1.934240e+000 1.463457e+002 -6.328664e+001 8.539090e+001 -6.280872e+001 9.899213e+001 -2.452687e+000 -1.344879e+002
8500918750 -1.944765e+000 1.459102e+002 -6.306144e+001 8.425673e+001 -6.318642e+001 9.730815e+001 -2.444926e+000 -1.358161e+002
8519662500 -1.951715e+000 1.454473e+002 -6.343250e+001 8.394206e+001 -6.318315e+001 9.526228e+001 -2.439260e+000 -1.371246e+002
8538406250 -1.960093e+000 1.449887e+002 -6.335880e+001 8.188018e+001 -6.315548e+001 9.105481e+001 -2.437676e+000 -1.384422e+002
8557150000 -1.969217e+000 1.445391e+002 -6.287263e+001 8.242786e+001 -6.340847e+001 8.916282e+001 -2.430398e+000 -1.397632e+002
8575893750 -1.979099e+000 1.440713e+002 -6.286386e+001 8.356895e+001 -6.314186e+001 8.765858e+001 -2.424311e+000 -1.410567e+002
8594637500 -1.987881e+000 1.436352e+002 -6.315199e+001 7.972292e+001 -6.304942e+001 8.846370e+001 -2.421707e+000 -1.423679e+002
8613381250 -1.997335e+000 1.431796e+002 -6.341744e+001 7.443076e+001 -6.288931e+001 8.648377e+001 -2.416581e+000 -1.436679e+002
8632125000 -2.008631e+000 1.427092e+002 -6.340514e+001 7.394254e+001 -6.295225e+001 8.658135e+001 -2.412522e+000 -1.449484e+002
8650868750 -2.016398e+000 1.422595e+002 -6.344827e+001 7.054257e+001 -6.263237e+001 9.053879e+001 -2.411776e+000 -1.462467e+002
8669612500 -2.025737e+000 1.417937e+002 -6.334656e+001 7.267160e+001 -6.272026e+001 8.698804e+001 -2.405906e+000 -1.475226e+002
8688356250 -2.035069e+000 1.413284e+002 -6.326176e+001 7.145705e+001 -6.279079e+001 8.555137e+001 -2.404209e+000 -1.487905e+002
8707100000 -2.042607e+000 1.408873e+002 -6.384785e+001 7.074043e+001 -6.274503e+001 8.531544e+001 -2.403507e+000 -1.500700e+002
8725843750 -2.053969e+000 1.404331e+002 -6.355573e+001 7.332552e+001 -6.283097e+001 8.382763e+001 -2.400449e+000 -1.513230e+002
8744587500 -2.061519e+000 1.399574e+002 -6.360025e+001 7.219553e+001 -6.258065e+001 8.349266e+001 -2.401773e+000 -1.525722e+002
8763331250 -2.068193e+000 1.394984e+002 -6.361873e+001 7.486282e+001 -6.223601e+001 8.056429e+001 -2.403392e+000 -1.538483e+002
8782075000 -2.078085e+000 1.390386e+002 -6.369982e+001 8.307233e+001 -6.228643e+001 7.973866e+001 -2.399402e+000 -1.550829e+002
8800818750 -2.085093e+000 1.385650e+002 -6.438459e+001 9.653127e+001 -6.244489e+001 8.118376e+001 -2.402204e+000 -1.563226e+002
8819562500 -2.094930e+000 1.381282e+002 -6.442345e+001 1.103853e+002 -6.327267e+001 7.911138e+001 -2.404181e+000 -1.575792e+002
8838306250 -2.107049e+000 1.376657e+002 -6.440848e+001 1.267513e+002 -6.340278e+001 7.796036e+001 -2.403391e+000 -1.587999e+002
8857050000 -2.113352e+000 1.371891e+002 -6.412171e+001 1.468032e+002 -6.329610e+001 7.638257e+001 -2.409345e+000 -1.600196e+002
8875793750 -2.123546e+000 1.367370e+002 -6.412072e+001 1.590582e+002 -6.379489e+001 8.171139e+001 -2.412159e+000 -1.612603e+002
8894537500 -2.133782e+000 1.362722e+002 -6.407939e+001 1.701279e+002 -6.406461e+001 9.337976e+001 -2.412153e+000 -1.624641e+002
8913281250 -2.139698e+000 1.358092e+002 -6.459570e+001 -1.788550e+002 -6.396960e+001 1.066293e+002 -2.420098e+000 -1.636883e+002
8932025000 -2.147832e+000 1.353682e+002 -6.487616e+001 -1.650730e+002 -6.365654e+001 1.225260e+002 -2.421846e+000 -1.649210e+002
8950768750 -2.158603e+000 1.348905e+002 -6.461317e+001 -1.516503e+002 -6.370724e+001 1.375025e+002 -2.421599e+000 -1.661153e+002
8969512500 -2.163328e+000 1.344274e+002 -6.530793e+001 -1.357285e+002 -6.380477e+001 1.523389e+002 -2.429013e+000 -1.673192e+002
8988256250 -2.171878e+000 1.339636e+002 -6.526888e+001 -1.228846e+002 -6.355618e+001 1.672871e+002 -2.432381e+000 -1.685387e+002
9007000000 -2.182383e+000 1.334984e+002 -6.642594e+001 -1.144595e+002 -6.405704e+001 -1.773596e+002 -2.434213e+000 -1.697160e+002
9025743750 -2.187724e+000 1.330362e+002 -6.616099e+001 -1.000552e+002 -6.399509e+001 -1.639758e+002 -2.443440e+000 -1.709010e+002
9044487500 -2.197322e+000 1.325998e+002 -6.647910e+001 -8.251847e+001 -6.471683e+001 -1.495529e+002 -2.447086e+000 -1.721049e+002
9063231250 -2.204978e+000 1.321340e+002 -6.646695e+001 -6.808496e+001 -6.504610e+001 -1.281307e+002 -2.451828e+000 -1.732691e+002
9081975000 -2.212367e+000 1.316651e+002 -6.687611e+001 -4.155585e+001 -6.509429e+001 -1.140891e+002 -2.462062e+000 -1.744586e+002
9100718750 -2.222646e+000 1.312144e+002 -6.733374e+001 -1.514633e+001 -6.515429e+001 -9.711150e+001 -2.466142e+000 -1.756496e+002
9119462500 -2.229842e+000 1.307314e+002 -6.784580e+001 1.845439e+001 -6.554052e+001 -8.143748e+001 -2.470218e+000 -1.767965e+002
9138206250 -2.237320e+000 1.302717e+002 -6.778402e+001 4.721883e+001 -6.556298e+001 -6.472383e+001 -2.481816e+000 -1.779741e+002
9156950000 -2.247736e+000 1.298255e+002 -6.763730e+001 7.827711e+001 -6.583109e+001 -4.714764e+001 -2.485569e+000 -1.791330e+002
9175693750 -2.256803e+000 1.293478e+002 -6.742309e+001 1.044580e+002 -6.610298e+001 -2.543311e+001 -2.489517e+000 1.797283e+002
9194437500 -2.266156e+000 1.288850e+002 -6.749304e+001 1.269970e+002 -6.670092e+001 -8.973929e+000 -2.498226e+000 1.785619e+002
9213181250 -2.277092e+000 1.284127e+002 -6.762576e+001 1.374713e+002 -6.736481e+001 2.444477e+000 -2.502698e+000 1.774039e+002
9231925000 -2.287995e+000 1.279360e+002 -6.723212e+001 1.369064e+002 -6.715282e+001 7.111279e+000 -2.508794e+000 1.762669e+002
9250668750 -2.291624e+000 1.274893e+002 -6.756430e+001 1.378928e+002 -6.669985e+001 9.890588e+000 -2.520103e+000 1.751160e+002
9269412500 -2.304140e+000 1.270216e+002 -6.776105e+001 1.318716e+002 -6.710326e+001 1.024647e+001 -2.523752e+000 1.739849e+002
9288156250 -2.313805e+000 1.265275e+002 -6.852351e+001 1.229760e+002 -6.723778e+001 1.013708e+001 -2.531441e+000 1.728500e+002
9306900000 -2.321148e+000 1.260628e+002 -6.850098e+001 1.117185e+002 -6.676180e+001 1.317353e+000 -2.540504e+000 1.717023e+002
9325643750 -2.332879e+000 1.255808e+002 -6.863481e+001 9.683598e+001 -6.655324e+001 -1.343895e+001 -2.546693e+000 1.705766e+002
9344387500 -2.340712e+000 1.250984e+002 -6.869901e+001 7.987502e+001 -6.655588e+001 -2.533959e+001 -2.553654e+000 1.694631e+002
9363131250 -2.347232e+000 1.246446e+002 -6.874186e+001 6.521489e+001 -6.717893e+001 -4.178802e+001 -2.564317e+000 1.683248e+002
9381875000 -2.361541e+000 1.241920e+002 -6.923978e+001 5.567372e+001 -6.737230e+001 -5.857428e+001 -2.572095e+000 1.672250e+002
9400618750 -2.369313e+000 1.236925e+002 -6.888354e+001 4.782774e+001 -6.715630e+001 -7.722100e+001 -2.582538e+000 1.661116e+002
9419362500 -2.378410e+000 1.232399e+002 -6.906329e+001 4.030003e+001 -6.714861e+001 -9.116096e+001 -2.593575e+000 1.649829e+002
9438106250 -2.389448e+000 1.227458e+002 -6.839725e+001 4.366133e+001 -6.687691e+001 -1.087265e+002 -2.598458e+000 1.638779e+002
9456850000 -2.395218e+000 1.222477e+002 -6.870449e+001 3.999743e+001 -6.737283e+001 -1.325788e+002 -2.610046e+000 1.627703e+002
9475593750 -2.402423e+000 1.218030e+002 -6.840142e+001 3.180057e+001 -6.712724e+001 -1.509533e+002 -2.620059e+000 1.616421e+002
9494337500 -2.416320e+000 1.213260e+002 -6.850089e+001 2.700293e+001 -6.696925e+001 -1.706748e+002 -2.626019e+000 1.605576e+002
9513081250 -2.422673e+000 1.208248e+002 -6.802130e+001 1.028259e+001 -6.704568e+001 1.681666e+002 -2.637085e+000 1.594773e+002
9531825000 -2.430608e+000 1.203507e+002 -6.801105e+001 -1.702091e+001 -6.714269e+001 1.540854e+002 -2.648572e+000 1.583700e+002
9550568750 -2.442717e+000 1.198600e+002 -6.781121e+001 -5.228675e+001 -6.754067e+001 1.425874e+002 -2.655902e+000 1.572856e+002
9569312500 -2.447850e+000 1.193749e+002 -6.738388e+001 -7.765936e+001 -6.754986e+001 1.273522e+002 -2.668701e+000 1.562168e+002
9588056250 -2.454873e+000 1.189332e+002 -6.760736e+001 -1.061483e+002 -6.719405e+001 1.102591e+002 -2.680072e+000 1.551080e+002
9606800000 -2.469248e+000 1.184558e+002 -6.786016e+001 -1.240176e+002 -6.759571e+001 9.694681e+001 -2.687410e+000 1.540276e+002
9625543750 -2.476519e+000 1.179642e+002 -6.902312e+001 -1.328397e+002 -6.716677e+001 9.434418e+001 -2.701544e+000 1.529656e+002
9644287500 -2.486181e+000 1.174985e+002 -6.832132e+001 -1.338674e+002 -6.658360e+001 9.817028e+001 -2.713900e+000 1.518696e+002
9663031250 -2.495128e+000 1.170030e+002 -6.811097e+001 -1.296595e+002 -6.658355e+001 1.092680e+002 -2.721615e+000 1.507997e+002
9681775000 -2.500711e+000 1.165068e+002 -6.881628e+001 -1.325632e+002 -6.668441e+001 1.299677e+002 -2.732505e+000 1.497496e+002
9700518750 -2.510538e+000 1.160661e+002 -6.896200e+001 -1.382156e+002 -6.628347e+001 1.482777e+002 -2.743910e+000 1.486580e+002
9719262500 -2.521147e+000 1.155756e+002 -6.840933e+001 -1.402885e+002 -6.657061e+001 1.704375e+002 -2.752977e+000 1.476186e+002
9738006250 -2.527185e+000 1.150916e+002 -6.849346e+001 -1.360383e+002 -6.701211e+001 -1.675980e+002 -2.769133e+000 1.465680e+002
9756750000 -2.539314e+000 1.146148e+002 -6.827036e+001 -1.317675e+002 -6.743671e+001 -1.533468e+002 -2.781650e+000 1.455009e+002
9775493750 -2.550058e+000 1.141010e+002 -6.809620e+001 -1.272703e+002 -6.770567e+001 -1.415551e+002 -2.790847e+000 1.444609e+002
9794237500 -2.558066e+000 1.135844e+002 -6.812885e+001 -1.231059e+002 -6.729559e+001 -1.229610e+002 -2.800186e+000 1.434469e+002
9812981250 -2.564013e+000 1.131362e+002 -6.753991e+001 -1.258386e+002 -6.711870e+001 -1.063339e+002 -2.815822e+000 1.423880e+002
9831725000 -2.578232e+000 1.126692e+002 -6.737797e+001 -1.416748e+002 -6.730805e+001 -8.805613e+001 -2.825070e+000 1.413380e+002
9850468750 -2.585955e+000 1.121485e+002 -6.733860e+001 -1.463845e+002 -6.736145e+001 -6.869625e+001 -2.835073e+000 1.403387e+002
9869212500 -2.588276e+000 1.116919e+002 -6.710361e+001 -1.543766e+002 -6.765471e+001 -4.694827e+001 -2.851979e+000 1.393336e+002
9887956250 -2.599209e+000 1.112358e+002 -6.661629e+001 -1.637355e+002 -6.706708e+001 -2.122149e+001 -2.866657e+000 1.382968e+002
9906700000 -2.610923e+000 1.106950e+002 -6.673421e+001 -1.706410e+002 -6.690944e+001 -5.861506e+000 -2.877182e+000 1.372711e+002
9925443750 -2.612458e+000 1.102401e+002 -6.651619e+001 -1.797773e+002 -6.656334e+001 8.918480e+000 -2.892321e+000 1.362770e+002
9944187500 -2.627996e+000 1.097894e+002 -6.682847e+001 1.733939e+002 -6.652708e+001 2.628297e+001 -2.908143e+000 1.352434e+002
9962931250 -2.639713e+000 1.092570e+002 -6.651689e+001 1.739255e+002 -6.614387e+001 3.783222e+001 -2.918880e+000 1.342195e+002
9981675000 -2.641046e+000 1.087979e+002 -6.639922e+001 1.765972e+002 -6.592355e+001 5.448743e+001 -2.934438e+000 1.332162e+002
10000418750 -2.654011e+000 1.083145e+002 -6.636420e+001 1.764450e+002 -6.596317e+001 7.851400e+001 -2.948004e+000 1.321839e+002
10019162500 -2.664315e+000 1.077903e+002 -6.646604e+001 1.670060e+002 -6.623827e+001 1.098817e+002 -2.959785e+000 1.311667e+002
10037906250 -2.665914e+000 1.073385e+002 -6.644131e+001 1.576498e+002 -6.598259e+001 1.330023e+002 -2.976683e+000 1.301838e+002
10056650000 -2.679571e+000 1.068585e+002 -6.554347e+001 1.398400e+002 -6.626493e+001 1.471940e+002 -2.989429e+000 1.291609e+002
10075393750 -2.690801e+000 1.063300e+002 -6.599865e+001 1.241347e+002 -6.619643e+001 1.506954e+002 -3.002049e+000 1.281529e+002
10094137500 -2.694855e+000 1.058488e+002 -6.615198e+001 1.080534e+002 -6.606332e+001 1.493508e+002 -3.018167e+000 1.271598e+002
10112881250 -2.712522e+000 1.053592e+002 -6.591132e+001 1.011100e+002 -6.587156e+001 1.476027e+002 -3.032609e+000 1.261330e+002
10131625000 -2.716640e+000 1.048221e+002 -6.592519e+001 9.393066e+001 -6.586857e+001 1.433774e+002 -3.047180e+000 1.251516e+002
10150368750 -2.722816e+000 1.043668e+002 -6.598968e+001 8.089713e+001 -6.588902e+001 1.355646e+002 -3.065054e+000 1.241510e+002
10169112500 -2.740147e+000 1.038589e+002 -6.595949e+001 6.087679e+001 -6.576878e+001 1.378377e+002 -3.073860e+000 1.231322e+002
10187856250 -2.746933e+000 1.033283e+002 -6.623556e+001 4.312122e+001 -6.604037e+001 1.401456e+002 -3.087372e+000 1.221560e+002
10206600000 -2.751301e+000 1.028701e+002 -6.590858e+001 2.767544e+001 -6.583797e+001 1.399397e+002 -3.105018e+000 1.211597e+002
10225343750 -2.765485e+000 1.023864e+002 -6.582545e+001 1.041301e+001 -6.564804e+001 1.354095e+002 -3.120001e+000 1.201261e+002
10244087500 -2.774846e+000 1.018469e+002 -6.616328e+001 3.182274e+000 -6.580511e+001 1.385064e+002 -3.130412e+000 1.191614e+002
10262831250 -2.779576e+000 1.013701e+002 -6.595407e+001 9.048742e+000 -6.589776e+001 1.429946e+002 -3.150100e+000 1.182004e+002
10281575000 -2.793788e+000 1.008901e+002 -6.603227e+001 9.351686e+000 -6.627930e+001 1.432298e+002 -3.164523e+000 1.171583e+002
10300318750 -2.808181e+000 1.003514e+002 -6.568414e+001 6.228484e+000 -6.594038e+001 1.392081e+002 -3.175380e+000 1.161585e+002
10319062500 -2.813597e+000 9.984019e+001 -6.566983e+001 5.352045e+000 -6.615732e+001 1.406426e+002 -3.188602e+000 1.151854e+002
10337806250 -2.820948e+000 9.935854e+001 -6.557382e+001 6.556427e+000 -6.622513e+001 1.457444e+002 -3.205501e+000 1.141961e+002
10356550000 -2.833950e+000 9.884786e+001 -6.544276e+001 2.590100e+000 -6.641461e+001 1.501028e+002 -3.219329e+000 1.131861e+002
10375293750 -2.839875e+000 9.834436e+001 -6.550873e+001 6.587061e-002 -6.612753e+001 1.533217e+002 -3.234370e+000 1.122214e+002
10394037500 -2.852502e+000 9.785831e+001 -6.541007e+001 5.670791e-001 -6.705252e+001 1.620570e+002 -3.250923e+000 1.112226e+002
10412781250 -2.865595e+000 9.732255e+001 -6.560774e+001 2.822827e+000 -6.655376e+001 1.589392e+002 -3.266866e+000 1.102365e+002
10431525000 -2.872883e+000 9.680331e+001 -6.556487e+001 -1.183404e+000 -6.651348e+001 1.483709e+002 -3.281358e+000 1.092807e+002
10450268750 -2.881787e+000 9.629466e+001 -6.550303e+001 6.823255e+000 -6.649757e+001 1.315811e+002 -3.296627e+000 1.082970e+002
10469012500 -2.891777e+000 9.577963e+001 -6.543180e+001 4.317870e+000 -6.635422e+001 1.153393e+002 -3.310582e+000 1.073141e+002
10487756250 -2.899616e+000 9.528329e+001 -6.575893e+001 1.051387e+001 -6.606788e+001 1.046841e+002 -3.326854e+000 1.063554e+002
10506500000 -2.910397e+000 9.479160e+001 -6.552103e+001 1.074261e+001 -6.649781e+001 1.027910e+002 -3.344446e+000 1.053775e+002
10525243750 -2.918127e+000 9.427422e+001 -6.582977e+001 1.021561e+001 -6.680138e+001 1.004121e+002 -3.358613e+000 1.044099e+002
10543987500 -2.924431e+000 9.374969e+001 -6.502637e+001 4.167802e+000 -6.674468e+001 9.683919e+001 -3.373709e+000 1.034689e+002
10562731250 -2.935293e+000 9.325325e+001 -6.528629e+001 3.697490e+000 -6.664864e+001 9.792265e+001 -3.391792e+000 1.024920e+002
10581475000 -2.943258e+000 9.275082e+001 -6.542224e+001 9.192251e+000 -6.638638e+001 9.644801e+001 -3.406094e+000 1.015232e+002
10600218750 -2.951879e+000 9.225500e+001 -6.514799e+001 2.454291e+001 -6.610262e+001 9.389590e+001 -3.422279e+000 1.005898e+002
10618962500 -2.962956e+000 9.174948e+001 -6.541507e+001 3.900942e+001 -6.551640e+001 1.008519e+002 -3.440323e+000 9.960558e+001
10637706250 -2.972583e+000 9.122496e+001 -6.661098e+001 5.594963e+001 -6.529029e+001 1.033709e+002 -3.454998e+000 9.864311e+001
10656450000 -2.979395e+000 9.070906e+001 -6.650239e+001 6.839133e+001 -6.567282e+001 1.085285e+002 -3.472547e+000 9.770850e+001
10675193750 -2.990388e+000 9.019118e+001 -6.654469e+001 7.325306e+001 -6.578951e+001 1.105691e+002 -3.489961e+000 9.672660e+001
10693937500 -2.997718e+000 8.966991e+001 -6.676145e+001 7.215831e+001 -6.575853e+001 1.209821e+002 -3.502808e+000 9.577010e+001
10712681250 -3.004200e+000 8.916579e+001 -6.697495e+001 7.197852e+001 -6.509909e+001 1.313220e+002 -3.519226e+000 9.484432e+001
10731425000 -3.017082e+000 8.864661e+001 -6.804378e+001 6.669292e+001 -6.493768e+001 1.511593e+002 -3.540121e+000 9.386737e+001
10750168750 -3.024173e+000 8.810131e+001 -6.814963e+001 6.597118e+001 -6.510648e+001 1.616132e+002 -3.554725e+000 9.293252e+001
10768912500 -3.032622e+000 8.758142e+001 -6.784293e+001 6.710213e+001 -6.491565e+001 1.732063e+002 -3.572416e+000 9.199497e+001
10787656250 -3.042154e+000 8.704990e+001 -6.813956e+001 6.810268e+001 -6.502956e+001 -1.769458e+002 -3.589937e+000 9.103766e+001
10806400000 -3.048217e+000 8.651865e+001 -6.786238e+001 7.421909e+001 -6.530341e+001 -1.590221e+002 -3.603392e+000 9.009513e+001
10825143750 -3.052871e+000 8.600824e+001 -6.791505e+001 7.117908e+001 -6.502570e+001 -1.428316e+002 -3.619428e+000 8.917565e+001
10843887500 -3.065985e+000 8.547947e+001 -6.793751e+001 6.801727e+001 -6.516749e+001 -1.263703e+002 -3.633956e+000 8.821981e+001
10862631250 -3.071060e+000 8.493484e+001 -6.847722e+001 6.310792e+001 -6.584876e+001 -1.054381e+002 -3.648349e+000 8.729092e+001
10881375000 -3.080189e+000 8.440620e+001 -6.866698e+001 6.007755e+001 -6.622178e+001 -7.728296e+001 -3.666675e+000 8.636176e+001
10900118750 -3.090811e+000 8.386864e+001 -6.908878e+001 6.381005e+001 -6.620998e+001 -5.342058e+001 -3.684477e+000 8.539997e+001
10918862500 -3.095814e+000 8.332946e+001 -6.876774e+001 6.588395e+001 -6.684152e+001 -2.716045e+001 -3.699943e+000 8.446638e+001
10937606250 -3.104372e+000 8.280485e+001 -6.895817e+001 6.923631e+001 -6.666006e+001 -4.471451e+000 -3.716925e+000 8.353252e+001
10956350000 -3.117799e+000 8.226715e+001 -6.897286e+001 7.447877e+001 -6.638563e+001 1.548196e+001 -3.734187e+000 8.257114e+001
10975093750 -3.124612e+000 8.172766e+001 -6.952937e+001 8.766347e+001 -6.633721e+001 3.014979e+001 -3.749896e+000 8.164381e+001
10993837500 -3.134445e+000 8.118052e+001 -6.890148e+001 1.084923e+002 -6.643719e+001 4.900485e+001 -3.768554e+000 8.070708e+001
11012581250 -3.143336e+000 8.062881e+001 -6.866983e+001 1.316664e+002 -6.654837e+001 7.594407e+001 -3.783190e+000 7.976979e+001
11031325000 -3.146575e+000 8.009656e+001 -6.886221e+001 1.466349e+002 -6.660585e+001 9.191678e+001 -3.800901e+000 7.885783e+001
11050068750 -3.157308e+000 7.957545e+001 -6.863806e+001 1.663179e+002 -6.672335e+001 1.089323e+002 -3.819342e+000 7.792117e+001
11068812500 -3.167261e+000 7.902151e+001 -6.791912e+001 -1.770953e+002 -6.701962e+001 1.358171e+002 -3.833402e+000 7.697050e+001
11087556250 -3.173508e+000 7.848278e+001 -6.827686e+001 -1.511647e+002 -6.675463e+001 1.633786e+002 -3.849519e+000 7.607048e+001
11106300000 -3.184909e+000 7.795557e+001 -6.802028e+001 -1.212726e+002 -6.638211e+001 -1.710633e+002 -3.869752e+000 7.513651e+001
11125043750 -3.194634e+000 7.740937e+001 -6.764538e+001 -8.622971e+001 -6.672231e+001 -1.557027e+002 -3.885230e+000 7.418746e+001
11143787500 -3.202192e+000 7.687603e+001 -6.748035e+001 -5.695145e+001 -6.679433e+001 -1.414766e+002 -3.903963e+000 7.327970e+001
11162531250 -3.213833e+000 7.635238e+001 -6.697765e+001 -2.230053e+001 -6.677486e+001 -1.349090e+002 -3.921772e+000 7.234779e+001
11181275000 -3.223879e+000 7.578524e+001 -6.698739e+001 1.134553e+001 -6.646231e+001 -1.161755e+002 -3.935292e+000 7.139924e+001
11200018750 -3.230608e+000 7.525059e+001 -6.715281e+001 4.714587e+001 -6.656972e+001 -9.676711e+001 -3.950660e+000 7.050559e+001
11218762500 -3.244087e+000 7.469817e+001 -6.714872e+001 8.268095e+001 -6.691000e+001 -8.121467e+001 -3.971912e+000 6.957196e+001
11237506250 -3.250299e+000 7.413995e+001 -6.740102e+001 1.199645e+002 -6.684286e+001 -7.461135e+001 -3.985922e+000 6.863634e+001
11256250000 -3.258814e+000 7.362791e+001 -6.777553e+001 1.578588e+002 -6.692401e+001 -6.542477e+001 -4.004244e+000 6.772534e+001
11274993750 -3.272639e+000 7.310417e+001 -6.753259e+001 -1.613467e+002 -6.701686e+001 -4.488743e+001 -4.025227e+000 6.678391e+001
11293737500 -3.280574e+000 7.252500e+001 -6.769576e+001 -1.119768e+002 -6.637478e+001 -3.251606e+001 -4.037995e+000 6.582727e+001
11312481250 -3.288401e+000 7.198057e+001 -6.728397e+001 -7.410236e+001 -6.578374e+001 -2.573480e+001 -4.055737e+000 6.494705e+001
11331225000 -3.301996e+000 7.143339e+001 -6.726832e+001 -3.457682e+001 -6.591344e+001 -1.504207e+001 -4.074853e+000 6.401580e+001
11349968750 -3.308627e+000 7.086446e+001 -6.769141e+001 -7.373618e+000 -6.546209e+001 -8.705810e+000 -4.089706e+000 6.308664e+001
11368712500 -3.315899e+000 7.033205e+001 -6.741521e+001 1.467048e+001 -6.557628e+001 -2.318187e+000 -4.108029e+000 6.218388e+001
11387456250 -3.326399e+000 6.978736e+001 -6.719503e+001 4.178765e+001 -6.566780e+001 1.114207e+001 -4.127217e+000 6.124766e+001
11406200000 -3.335089e+000 6.921368e+001 -6.723060e+001 6.253195e+001 -6.555034e+001 3.352267e+001 -4.142937e+000 6.030623e+001
11424943750 -3.343600e+000 6.868840e+001 -6.754039e+001 7.837297e+001 -6.556691e+001 4.879922e+001 -4.159700e+000 5.939638e+001
11443687500 -3.354447e+000 6.811210e+001 -6.754176e+001 9.403100e+001 -6.575159e+001 5.773477e+001 -4.179262e+000 5.845649e+001
11462431250 -3.360777e+000 6.755276e+001 -6.753236e+001 1.099884e+002 -6.636965e+001 7.795479e+001 -4.195134e+000 5.752673e+001
11481175000 -3.369659e+000 6.701205e+001 -6.770352e+001 1.152542e+002 -6.627253e+001 9.034975e+001 -4.212286e+000 5.660118e+001
11499918750 -3.381405e+000 6.644930e+001 -6.747253e+001 1.165595e+002 -6.602021e+001 9.550024e+001 -4.231769e+000 5.566305e+001
11518662500 -3.386703e+000 6.588569e+001 -6.743177e+001 1.086218e+002 -6.634660e+001 9.009750e+001 -4.248091e+000 5.472534e+001
11537406250 -3.397081e+000 6.532228e+001 -6.733095e+001 9.999461e+001 -6.634696e+001 9.184762e+001 -4.264663e+000 5.381082e+001
11556150000 -3.406293e+000 6.472614e+001 -6.798250e+001 8.460345e+001 -6.565389e+001 1.001352e+002 -4.283657e+000 5.286450e+001
11574893750 -3.410741e+000 6.415925e+001 -6.793703e+001 7.477610e+001 -6.630560e+001 1.138806e+002 -4.300536e+000 5.193114e+001
11593637500 -3.420081e+000 6.361017e+001 -6.804280e+001 5.843925e+001 -6.643372e+001 1.219862e+002 -4.318263e+000 5.099659e+001
11612381250 -3.431052e+000 6.304821e+001 -6.800817e+001 4.641596e+001 -6.640102e+001 1.285527e+002 -4.336267e+000 5.003962e+001
11631125000 -3.437544e+000 6.246889e+001 -6.799422e+001 2.791705e+001 -6.649479e+001 1.367482e+002 -4.352273e+000 4.911409e+001
11649868750 -3.448095e+000 6.192473e+001 -6.778275e+001 1.609081e+001 -6.586880e+001 1.500606e+002 -4.369321e+000 4.819445e+001
11668612500 -3.455614e+000 6.131458e+001 -6.751228e+001 5.114948e+000 -6.572373e+001 1.752212e+002 -4.388227e+000 4.722921e+001
11687356250 -3.462437e+000 6.073912e+001 -6.700423e+001 3.401346e+000 -6.552443e+001 -1.726135e+002 -4.404466e+000 4.631689e+001
11706100000 -3.472142e+000 6.018809e+001 -6.722893e+001 -7.479820e+000 -6.526654e+001 -1.590122e+002 -4.424059e+000 4.538037e+001
11724843750 -3.482131e+000 5.960654e+001 -6.650549e+001 -1.529589e+001 -6.565732e+001 -1.427974e+002 -4.441833e+000 4.441316e+001
11743587500 -3.488860e+000 5.903905e+001 -6.634754e+001 -1.926998e+001 -6.613448e+001 -1.327388e+002 -4.456249e+000 4.346666e+001
11762331250 -3.498430e+000 5.845600e+001 -6.600294e+001 -2.442892e+001 -6.612379e+001 -1.193228e+002 -4.473423e+000 4.253319e+001
11781075000 -3.506058e+000 5.784447e+001 -6.581319e+001 -2.689180e+001 -6.606435e+001 -1.107911e+002 -4.490632e+000 4.157203e+001
11799818750 -3.507775e+000 5.727753e+001 -6.610810e+001 -1.718482e+001 -6.559472e+001 -1.050232e+002 -4.507242e+000 4.063581e+001
11818562500 -3.520385e+000 5.673093e+001 -6.577135e+001 -1.468592e+001 -6.563200e+001 -9.956801e+001 -4.525280e+000 3.968704e+001
11837306250 -3.533325e+000 5.612531e+001 -6.524419e+001 -1.065113e+001 -6.581069e+001 -1.040902e+002 -4.540929e+000 3.874488e+001
11856050000 -3.537319e+000 5.553822e+001 -6.491408e+001 -1.232983e+001 -6.572858e+001 -1.071621e+002 -4.559470e+000 3.782887e+001
11874793750 -3.550145e+000 5.498595e+001 -6.521537e+001 -9.756579e+000 -6.513486e+001 -1.044087e+002 -4.576293e+000 3.689362e+001
11893537500 -3.561875e+000 5.433487e+001 -6.532864e+001 -8.088195e+000 -6.453550e+001 -1.108075e+002 -4.596885e+000 3.595704e+001
11912281250 -3.562802e+000 5.378728e+001 -6.480953e+001 1.688415e+000 -6.433652e+001 -1.137718e+002 -4.613906e+000 3.499799e+001
11931025000 -3.577251e+000 5.323590e+001 -6.498502e+001 1.828170e+001 -6.413055e+001 -1.128390e+002 -4.630444e+000 3.406008e+001
11949768750 -3.592518e+000 5.259829e+001 -6.455874e+001 3.205107e+001 -6.368169e+001 -1.054934e+002 -4.648008e+000 3.312337e+001
11968512500 -3.592070e+000 5.203495e+001 -6.447087e+001 4.718341e+001 -6.397034e+001 -1.070150e+002 -4.663253e+000 3.214189e+001
11987256250 -3.604450e+000 5.146271e+001 -6.440964e+001 6.174043e+001 -6.435481e+001 -1.096626e+002 -4.679171e+000 3.122361e+001
12006000000 -3.616666e+000 5.083340e+001 -6.490044e+001 7.207693e+001 -6.359271e+001 -1.175531e+002 -4.699866e+000 3.029476e+001
12024743750 -3.616866e+000 5.027595e+001 -6.425681e+001 9.221974e+001 -6.394007e+001 -1.174404e+002 -4.718922e+000 2.931892e+001
12043487500 -3.631658e+000 4.969046e+001 -6.415832e+001 1.049895e+002 -6.380931e+001 -1.206301e+002 -4.734940e+000 2.839584e+001
12062231250 -3.641499e+000 4.907645e+001 -6.386638e+001 1.201847e+002 -6.389144e+001 -1.304558e+002 -4.755280e+000 2.745370e+001
12080975000 -3.643086e+000 4.850083e+001 -6.391253e+001 1.333544e+002 -6.380393e+001 -1.429970e+002 -4.769286e+000 2.645934e+001
12099718750 -3.657841e+000 4.791099e+001 -6.382536e+001 1.357328e+002 -6.446097e+001 -1.575849e+002 -4.784795e+000 2.556002e+001
12118462500 -3.662318e+000 4.729858e+001 -6.392163e+001 1.348966e+002 -6.435011e+001 -1.708722e+002 -4.808438e+000 2.459241e+001
12137206250 -3.664441e+000 4.672650e+001 -6.367491e+001 1.388451e+002 -6.451617e+001 1.721728e+002 -4.823037e+000 2.360159e+001
12155950000 -3.680093e+000 4.613811e+001 -6.383831e+001 1.416918e+002 -6.393545e+001 1.577740e+002 -4.840840e+000 2.269006e+001
12174693750 -3.686473e+000 4.554714e+001 -6.429287e+001 1.406817e+002 -6.365849e+001 1.485205e+002 -4.862748e+000 2.171934e+001
12193437500 -3.692143e+000 4.497596e+001 -6.406644e+001 1.396330e+002 -6.351510e+001 1.323750e+002 -4.880013e+000 2.073651e+001
12212181250 -3.707704e+000 4.436978e+001 -6.351613e+001 1.463142e+002 -6.310261e+001 1.215572e+002 -4.897101e+000 1.983447e+001
12230925000 -3.715351e+000 4.377078e+001 -6.359861e+001 1.409408e+002 -6.319929e+001 1.182698e+002 -4.917971e+000 1.886701e+001
12249668750 -3.722614e+000 4.317004e+001 -6.367390e+001 1.364459e+002 -6.381459e+001 1.131180e+002 -4.933778e+000 1.788278e+001
12268412500 -3.732677e+000 4.257167e+001 -6.389590e+001 1.345170e+002 -6.361917e+001 1.121310e+002 -4.950592e+000 1.694862e+001
12287156250 -3.739847e+000 4.197110e+001 -6.382355e+001 1.327969e+002 -6.356495e+001 1.142780e+002 -4.968994e+000 1.593880e+001
12305900000 -3.747910e+000 4.136433e+001 -6.343461e+001 1.268175e+002 -6.385604e+001 1.127188e+002 -4.981045e+000 1.496356e+001
12324643750 -3.757198e+000 4.076774e+001 -6.353584e+001 1.287628e+002 -6.364717e+001 1.115862e+002 -4.995978e+000 1.401373e+001
12343387500 -3.764876e+000 4.016016e+001 -6.372466e+001 1.247759e+002 -6.396826e+001 1.096154e+002 -5.017596e+000 1.303092e+001
12362131250 -3.770652e+000 3.956090e+001 -6.312114e+001 1.217694e+002 -6.410851e+001 1.081796e+002 -5.033041e+000 1.205740e+001
12380875000 -3.779509e+000 3.898525e+001 -6.328790e+001 1.234992e+002 -6.412472e+001 1.037739e+002 -5.050072e+000 1.110693e+001
12399618750 -3.789821e+000 3.838511e+001 -6.375398e+001 1.203200e+002 -6.410569e+001 1.070411e+002 -5.070950e+000 1.013155e+001
12418362500 -3.799829e+000 3.777972e+001 -6.317665e+001 1.206487e+002 -6.409779e+001 1.069113e+002 -5.084295e+000 9.161346e+000
12437106250 -3.810086e+000 3.718319e+001 -6.274863e+001 1.244941e+002 -6.493044e+001 1.037723e+002 -5.101103e+000 8.204226e+000
12455850000 -3.820069e+000 3.656551e+001 -6.297277e+001 1.194614e+002 -6.453297e+001 1.040818e+002 -5.117476e+000 7.205489e+000
12474593750 -3.827414e+000 3.596524e+001 -6.329042e+001 1.207671e+002 -6.526347e+001 1.069264e+002 -5.131734e+000 6.237538e+000
12493337500 -3.837280e+000 3.537524e+001 -6.355945e+001 1.208875e+002 -6.521303e+001 1.119626e+002 -5.147573e+000 5.265012e+000
12512081250 -3.846954e+000 3.476003e+001 -6.398737e+001 1.233054e+002 -6.595869e+001 1.109269e+002 -5.163638e+000 4.286290e+000
12530825000 -3.856497e+000 3.415079e+001 -6.405478e+001 1.367945e+002 -6.558417e+001 1.066680e+002 -5.177069e+000 3.323756e+000
12549568750 -3.866886e+000 3.353955e+001 -6.424012e+001 1.544567e+002 -6.556638e+001 1.076258e+002 -5.193508e+000 2.360774e+000
12568312500 -3.875966e+000 3.292723e+001 -6.429826e+001 1.696755e+002 -6.545226e+001 1.049930e+002 -5.210919e+000 1.358707e+000
12587056250 -3.883259e+000 3.233366e+001 -6.412543e+001 1.798667e+002 -6.523199e+001 1.033906e+002 -5.223998e+000 3.530245e-001
12605800000 -3.894154e+000 3.171174e+001 -6.405179e+001 -1.616228e+002 -6.515437e+001 1.017969e+002 -5.234746e+000 -6.109654e-001
12624543750 -3.904630e+000 3.108972e+001 -6.401449e+001 -1.476668e+002 -6.573064e+001 1.077569e+002 -5.247235e+000 -1.571549e+000
12643287500 -3.911570e+000 3.049664e+001 -6.418550e+001 -1.358068e+002 -6.600657e+001 1.097797e+002 -5.260307e+000 -2.570972e+000
12662031250 -3.921681e+000 2.987921e+001 -6.408370e+001 -1.147763e+002 -6.612283e+001 1.098122e+002 -5.272157e+000 -3.520238e+000
12680775000 -3.929220e+000 2.926473e+001 -6.439605e+001 -9.745502e+001 -6.619563e+001 1.158452e+002 -5.292032e+000 -4.504426e+000
12699518750 -3.935334e+000 2.867884e+001 -6.473019e+001 -7.776107e+001 -6.679916e+001 1.285046e+002 -5.298436e+000 -5.497949e+000
12718262500 -3.948129e+000 2.806425e+001 -6.496220e+001 -4.623158e+001 -6.733498e+001 1.441357e+002 -5.312179e+000 -6.423310e+000
12737006250 -3.956892e+000 2.744175e+001 -6.491218e+001 -1.360351e+001 -6.734849e+001 1.499109e+002 -5.328257e+000 -7.428892e+000
12755750000 -3.966237e+000 2.685779e+001 -6.448548e+001 1.548364e+001 -6.800382e+001 1.633542e+002 -5.334167e+000 -8.396137e+000
12774493750 -3.979374e+000 2.622870e+001 -6.464049e+001 4.881084e+001 -6.782119e+001 -1.787579e+002 -5.348517e+000 -9.314078e+000
12793237500 -3.987104e+000 2.561059e+001 -6.457003e+001 7.853768e+001 -6.758367e+001 -1.632506e+002 -5.362587e+000 -1.034198e+001
12811981250 -3.994188e+000 2.501444e+001 -6.446328e+001 1.117866e+002 -6.769106e+001 -1.419026e+002 -5.367183e+000 -1.131871e+001
12830725000 -4.006249e+000 2.438807e+001 -6.423965e+001 1.451024e+002 -6.820166e+001 -1.318253e+002 -5.379808e+000 -1.225581e+001
12849468750 -4.010464e+000 2.378511e+001 -6.465485e+001 1.734839e+002 -6.801588e+001 -1.132466e+002 -5.391675e+000 -1.325348e+001
12868212500 -4.017227e+000 2.319584e+001 -6.494233e+001 -1.550387e+002 -6.719262e+001 -9.459807e+001 -5.395267e+000 -1.422315e+001
12886956250 -4.028541e+000 2.256590e+001 -6.487214e+001 -1.195407e+002 -6.701691e+001 -7.737163e+001 -5.413201e+000 -1.515448e+001
12905700000 -4.032535e+000 2.196197e+001 -6.488950e+001 -8.337524e+001 -6.614234e+001 -6.280610e+001 -5.421857e+000 -1.618597e+001
12924443750 -4.042486e+000 2.137030e+001 -6.448753e+001 -5.131685e+001 -6.595350e+001 -4.589839e+001 -5.424413e+000 -1.716521e+001
12943187500 -4.053510e+000 2.074075e+001 -6.423354e+001 -2.415821e+001 -6.554114e+001 -2.613641e+001 -5.438488e+000 -1.811295e+001
12961931250 -4.058233e+000 2.015005e+001 -6.454131e+001 -7.240595e+000 -6.518126e+001 -7.779659e+000 -5.441723e+000 -1.912285e+001
12980675000 -4.069329e+000 1.955523e+001 -6.419584e+001 7.013339e+000 -6.496114e+001 7.847672e+000 -5.443331e+000 -2.006736e+001
12999418750 -4.080974e+000 1.890064e+001 -6.415093e+001 2.531833e+001 -6.463625e+001 2.574507e+001 -5.456945e+000 -2.099776e+001
13018162500 -4.087484e+000 1.829450e+001 -6.407255e+001 4.350244e+001 -6.497030e+001 3.960295e+001 -5.461354e+000 -2.196111e+001
13036906250 -4.097769e+000 1.769864e+001 -6.363486e+001 5.642136e+001 -6.469475e+001 5.817596e+001 -5.467494e+000 -2.289692e+001
13055650000 -4.106160e+000 1.707168e+001 -6.370607e+001 7.332613e+001 -6.388441e+001 7.258310e+001 -5.477932e+000 -2.387335e+001
13074393750 -4.112058e+000 1.646649e+001 -6.319612e+001 8.833248e+001 -6.397503e+001 8.751499e+001 -5.477004e+000 -2.482505e+001
13093137500 -4.125456e+000 1.586849e+001 -6.255625e+001 1.018836e+002 -6.364118e+001 1.023881e+002 -5.485898e+000 -2.576343e+001
13111881250 -4.135604e+000 1.523399e+001 -6.197517e+001 1.178205e+002 -6.268508e+001 1.143706e+002 -5.490015e+000 -2.671154e+001
13130625000 -4.142214e+000 1.462974e+001 -6.126626e+001 1.291687e+002 -6.218498e+001 1.192530e+002 -5.492860e+000 -2.768875e+001
13149368750 -4.151888e+000 1.403050e+001 -6.101685e+001 1.329150e+002 -6.139151e+001 1.204673e+002 -5.495296e+000 -2.864753e+001
13168112500 -4.160372e+000 1.341975e+001 -6.101738e+001 1.339456e+002 -6.104238e+001 1.293246e+002 -5.500287e+000 -2.959236e+001
13186856250 -4.165991e+000 1.282827e+001 -6.093337e+001 1.344316e+002 -6.045520e+001 1.323246e+002 -5.502978e+000 -3.055190e+001
13205600000 -4.175466e+000 1.223241e+001 -6.050033e+001 1.361295e+002 -6.016507e+001 1.339587e+002 -5.505454e+000 -3.151091e+001
13224343750 -4.183507e+000 1.160795e+001 -6.064419e+001 1.382078e+002 -6.012351e+001 1.349812e+002 -5.510146e+000 -3.244718e+001
13243087500 -4.190220e+000 1.100349e+001 -6.043277e+001 1.391366e+002 -5.978112e+001 1.331403e+002 -5.510406e+000 -3.342430e+001
13261831250 -4.200317e+000 1.038799e+001 -6.017589e+001 1.391032e+002 -5.886932e+001 1.380805e+002 -5.511468e+000 -3.436717e+001
13280575000 -4.209963e+000 9.762341e+000 -5.974126e+001 1.427156e+002 -5.886043e+001 1.366354e+002 -5.512699e+000 -3.531138e+001
13299318750 -4.215696e+000 9.159387e+000 -5.904068e+001 1.417715e+002 -5.882927e+001 1.353340e+002 -5.512240e+000 -3.626076e+001
13318062500 -4.226775e+000 8.548573e+000 -5.863338e+001 1.431165e+002 -5.894333e+001 1.338495e+002 -5.511388e+000 -3.717067e+001
13336806250 -4.235510e+000 7.926801e+000 -5.838840e+001 1.390169e+002 -5.919817e+001 1.304858e+002 -5.515117e+000 -3.809895e+001
13355550000 -4.241017e+000 7.316535e+000 -5.846724e+001 1.372822e+002 -5.872949e+001 1.265158e+002 -5.514889e+000 -3.903955e+001
13374293750 -4.250970e+000 6.714660e+000 -5.795983e+001 1.361803e+002 -5.833546e+001 1.258920e+002 -5.512431e+000 -3.995938e+001
13393037500 -4.257731e+000 6.109813e+000 -5.735332e+001 1.369229e+002 -5.814507e+001 1.255847e+002 -5.513651e+000 -4.090438e+001
13411781250 -4.265112e+000 5.525919e+000 -5.719730e+001 1.354097e+002 -5.791702e+001 1.250269e+002 -5.512079e+000 -4.183376e+001
13430525000 -4.275367e+000 4.918407e+000 -5.674231e+001 1.333036e+002 -5.805492e+001 1.238759e+002 -5.509938e+000 -4.275371e+001
13449268750 -4.280812e+000 4.301205e+000 -5.656393e+001 1.322140e+002 -5.766624e+001 1.251642e+002 -5.509286e+000 -4.370247e+001
13468012500 -4.286020e+000 3.712781e+000 -5.652070e+001 1.321725e+002 -5.744649e+001 1.216470e+002 -5.507554e+000 -4.464160e+001
13486756250 -4.294317e+000 3.111908e+000 -5.629268e+001 1.306857e+002 -5.745808e+001 1.193372e+002 -5.505076e+000 -4.555616e+001
13505500000 -4.300247e+000 2.522723e+000 -5.636151e+001 1.300872e+002 -5.699035e+001 1.198113e+002 -5.504604e+000 -4.649640e+001
13524243750 -4.304770e+000 1.932561e+000 -5.643334e+001 1.289351e+002 -5.691294e+001 1.192218e+002 -5.498587e+000 -4.743197e+001
13542987500 -4.316281e+000 1.323167e+000 -5.626080e+001 1.265519e+002 -5.653704e+001 1.173786e+002 -5.497033e+000 -4.835097e+001
13561731250 -4.320326e+000 6.878178e-001 -5.639474e+001 1.232257e+002 -5.609797e+001 1.167309e+002 -5.498013e+000 -4.929894e+001
13580475000 -4.324910e+000 9.734122e-002 -5.610635e+001 1.203560e+002 -5.595449e+001 1.142887e+002 -5.490376e+000 -5.023071e+001
13599218750 -4.332484e+000 -5.202968e-001 -5.591166e+001 1.194130e+002 -5.574741e+001 1.102775e+002 -5.486234e+000 -5.114896e+001
13617962500 -4.334810e+000 -1.122962e+000 -5.580797e+001 1.175886e+002 -5.556234e+001 1.096083e+002 -5.483279e+000 -5.208901e+001
13636706250 -4.342820e+000 -1.699466e+000 -5.571454e+001 1.148281e+002 -5.546659e+001 1.079342e+002 -5.476141e+000 -5.299074e+001
13655450000 -4.354002e+000 -2.313252e+000 -5.551525e+001 1.133211e+002 -5.561639e+001 1.052499e+002 -5.472031e+000 -5.388621e+001
13674193750 -4.357857e+000 -2.925403e+000 -5.536331e+001 1.098311e+002 -5.543342e+001 1.026068e+002 -5.470638e+000 -5.482788e+001
13692937500 -4.363325e+000 -3.516176e+000 -5.519074e+001 1.072766e+002 -5.544383e+001 1.002893e+002 -5.463696e+000 -5.574314e+001
13711681250 -4.371225e+000 -4.123277e+000 -5.490651e+001 1.057159e+002 -5.516931e+001 9.827393e+001 -5.459355e+000 -5.667465e+001
13730425000 -4.372286e+000 -4.708844e+000 -5.479836e+001 1.040380e+002 -5.503220e+001 9.633294e+001 -5.454330e+000 -5.759824e+001
13749168750 -4.379059e+000 -5.279494e+000 -5.474556e+001 1.018004e+002 -5.490911e+001 9.132040e+001 -5.447021e+000 -5.852300e+001
13767912500 -4.389125e+000 -5.895431e+000 -5.441864e+001 9.754624e+001 -5.458378e+001 9.015913e+001 -5.440002e+000 -5.943847e+001
13786656250 -4.390912e+000 -6.508873e+000 -5.438594e+001 9.428333e+001 -5.453377e+001 9.018074e+001 -5.435788e+000 -6.036860e+001
13805400000 -4.398704e+000 -7.105255e+000 -5.467884e+001 9.268972e+001 -5.448465e+001 8.792593e+001 -5.428218e+000 -6.130033e+001
13824143750 -4.405934e+000 -7.724481e+000 -5.484562e+001 9.215215e+001 -5.454627e+001 8.501193e+001 -5.422597e+000 -6.223483e+001
13842887500 -4.404336e+000 -8.318511e+000 -5.479312e+001 9.111501e+001 -5.472115e+001 8.437402e+001 -5.416806e+000 -6.316526e+001
13861631250 -4.409948e+000 -8.885686e+000 -5.490770e+001 9.053056e+001 -5.495127e+001 8.600916e+001 -5.406639e+000 -6.408520e+001
13880375000 -4.415982e+000 -9.492721e+000 -5.490954e+001 8.961397e+001 -5.531081e+001 8.597426e+001 -5.398015e+000 -6.501400e+001
13899118750 -4.416325e+000 -1.010835e+001 -5.500571e+001 8.661853e+001 -5.575565e+001 8.382434e+001 -5.390182e+000 -6.595874e+001
13917862500 -4.423295e+000 -1.067663e+001 -5.508137e+001 8.571397e+001 -5.577385e+001 8.218436e+001 -5.379390e+000 -6.689110e+001
13936606250 -4.425551e+000 -1.129872e+001 -5.539263e+001 8.452436e+001 -5.611182e+001 8.154729e+001 -5.374151e+000 -6.783642e+001
13955350000 -4.425363e+000 -1.188139e+001 -5.544449e+001 8.279231e+001 -5.619679e+001 7.827231e+001 -5.364439e+000 -6.876928e+001
13974093750 -4.431033e+000 -1.243691e+001 -5.580602e+001 8.268156e+001 -5.636636e+001 7.891359e+001 -5.353021e+000 -6.970367e+001
13992837500 -4.434806e+000 -1.304287e+001 -5.590317e+001 8.294789e+001 -5.653103e+001 7.828391e+001 -5.346194e+000 -7.063592e+001
14011581250 -4.434083e+000 -1.364357e+001 -5.592949e+001 8.411878e+001 -5.659333e+001 7.816339e+001 -5.338845e+000 -7.157348e+001
14030325000 -4.440011e+000 -1.421747e+001 -5.594336e+001 8.245895e+001 -5.661409e+001 7.932415e+001 -5.329499e+000 -7.251405e+001
14049068750 -4.441182e+000 -1.483772e+001 -5.610959e+001 8.302471e+001 -5.665580e+001 8.092928e+001 -5.322232e+000 -7.347007e+001
14067812500 -4.438937e+000 -1.542402e+001 -5.667807e+001 8.623531e+001 -5.677993e+001 7.947883e+001 -5.312358e+000 -7.442509e+001
14086556250 -4.444788e+000 -1.599911e+001 -5.669349e+001 8.559562e+001 -5.667481e+001 8.015436e+001 -5.303395e+000 -7.539402e+001
14105300000 -4.444952e+000 -1.661549e+001 -5.674250e+001 8.512131e+001 -5.673385e+001 8.097175e+001 -5.295811e+000 -7.634831e+001
14124043750 -4.444456e+000 -1.719325e+001 -5.674825e+001 8.484385e+001 -5.681295e+001 8.044267e+001 -5.285569e+000 -7.731757e+001
14142787500 -4.449126e+000 -1.778116e+001 -5.673337e+001 8.437712e+001 -5.690964e+001 7.953352e+001 -5.275824e+000 -7.828316e+001
14161531250 -4.447139e+000 -1.841349e+001 -5.684987e+001 8.638811e+001 -5.694314e+001 8.169062e+001 -5.268227e+000 -7.925821e+001
14180275000 -4.445266e+000 -1.897705e+001 -5.701436e+001 8.618243e+001 -5.706149e+001 8.496424e+001 -5.257333e+000 -8.023816e+001
14199018750 -4.449162e+000 -1.956037e+001 -5.732249e+001 8.543714e+001 -5.727254e+001 8.631480e+001 -5.251019e+000 -8.123346e+001
14217762500 -4.449391e+000 -2.018207e+001 -5.747791e+001 8.920171e+001 -5.759698e+001 8.699014e+001 -5.245382e+000 -8.221310e+001
14236506250 -4.447079e+000 -2.075503e+001 -5.735867e+001 8.961114e+001 -5.754380e+001 8.746615e+001 -5.238543e+000 -8.321052e+001
14255250000 -4.449334e+000 -2.136405e+001 -5.732434e+001 8.989529e+001 -5.772196e+001 8.847419e+001 -5.233253e+000 -8.420789e+001
14273993750 -4.444268e+000 -2.198893e+001 -5.750372e+001 9.092757e+001 -5.777399e+001 8.838011e+001 -5.226964e+000 -8.520894e+001
14292737500 -4.442752e+000 -2.255498e+001 -5.745406e+001 8.996659e+001 -5.743559e+001 8.694514e+001 -5.221186e+000 -8.621058e+001
14311481250 -4.445716e+000 -2.315843e+001 -5.736470e+001 8.925254e+001 -5.724806e+001 8.601808e+001 -5.218373e+000 -8.721534e+001
14330225000 -4.442815e+000 -2.377550e+001 -5.735000e+001 9.074838e+001 -5.693853e+001 8.806755e+001 -5.215805e+000 -8.822716e+001
14348968750 -4.440685e+000 -2.438095e+001 -5.716635e+001 9.116969e+001 -5.688543e+001 8.809303e+001 -5.211560e+000 -8.925266e+001
14367712500 -4.442004e+000 -2.500732e+001 -5.687268e+001 9.114948e+001 -5.658273e+001 8.662125e+001 -5.207489e+000 -9.027505e+001
14386456250 -4.435305e+000 -2.563883e+001 -5.673664e+001 9.228985e+001 -5.649534e+001 8.816068e+001 -5.205780e+000 -9.128538e+001
14405200000 -4.431256e+000 -2.623312e+001 -5.659358e+001 9.293566e+001 -5.648101e+001 8.814317e+001 -5.204198e+000 -9.230470e+001
14423943750 -4.430313e+000 -2.684606e+001 -5.634553e+001 9.207307e+001 -5.660678e+001 8.793681e+001 -5.205388e+000 -9.332677e+001
14442687500 -4.426464e+000 -2.745994e+001 -5.639004e+001 9.088703e+001 -5.667884e+001 8.807385e+001 -5.205487e+000 -9.435681e+001
14461431250 -4.425598e+000 -2.806660e+001 -5.638997e+001 9.104063e+001 -5.675717e+001 8.760036e+001 -5.205515e+000 -9.539880e+001
14480175000 -4.425354e+000 -2.872355e+001 -5.634340e+001 9.144271e+001 -5.673191e+001 8.669420e+001 -5.205189e+000 -9.642361e+001
14498918750 -4.418166e+000 -2.935526e+001 -5.579439e+001 8.955783e+001 -5.661861e+001 8.720344e+001 -5.205420e+000 -9.745853e+001
14517662500 -4.412597e+000 -2.995947e+001 -5.572369e+001 9.002243e+001 -5.654918e+001 8.815811e+001 -5.206074e+000 -9.848392e+001
14536406250 -4.410172e+000 -3.059444e+001 -5.554708e+001 9.018156e+001 -5.655227e+001 8.726733e+001 -5.210224e+000 -9.951895e+001
14555150000 -4.403710e+000 -3.120876e+001 -5.556310e+001 9.026170e+001 -5.640718e+001 8.892248e+001 -5.214896e+000 -1.005596e+002
14573893750 -4.400509e+000 -3.182837e+001 -5.588099e+001 8.951606e+001 -5.625981e+001 9.007719e+001 -5.218345e+000 -1.015937e+002
14592637500 -4.398979e+000 -3.248895e+001 -5.577063e+001 8.749221e+001 -5.618502e+001 8.963044e+001 -5.223602e+000 -1.026109e+002
14611381250 -4.392001e+000 -3.312668e+001 -5.570429e+001 8.808015e+001 -5.590759e+001 8.878440e+001 -5.226373e+000 -1.036317e+002
14630125000 -4.389718e+000 -3.374821e+001 -5.542055e+001 9.025683e+001 -5.563583e+001 8.651034e+001 -5.230712e+000 -1.046425e+002
14648868750 -4.383911e+000 -3.439246e+001 -5.504684e+001 8.892963e+001 -5.543765e+001 8.536345e+001 -5.235689e+000 -1.056550e+002
14667612500 -4.378037e+000 -3.501498e+001 -5.484159e+001 8.852177e+001 -5.537436e+001 8.546171e+001 -5.239947e+000 -1.066744e+002
14686356250 -4.378269e+000 -3.564703e+001 -5.453193e+001 8.736263e+001 -5.498707e+001 8.470737e+001 -5.244572e+000 -1.076994e+002
14705100000 -4.377277e+000 -3.631688e+001 -5.424059e+001 8.627896e+001 -5.490546e+001 8.481949e+001 -5.251012e+000 -1.087158e+002
14723843750 -4.372016e+000 -3.694392e+001 -5.414600e+001 8.644678e+001 -5.472492e+001 8.350555e+001 -5.254924e+000 -1.097433e+002
14742587500 -4.370698e+000 -3.759469e+001 -5.399353e+001 8.728973e+001 -5.452494e+001 8.365742e+001 -5.262434e+000 -1.107571e+002
14761331250 -4.368090e+000 -3.823149e+001 -5.373679e+001 8.647749e+001 -5.451868e+001 8.193015e+001 -5.268200e+000 -1.117669e+002
14780075000 -4.367684e+000 -3.886947e+001 -5.359130e+001 8.566769e+001 -5.431606e+001 8.155977e+001 -5.276655e+000 -1.127890e+002
14798818750 -4.368926e+000 -3.952004e+001 -5.343540e+001 8.626432e+001 -5.425246e+001 8.147485e+001 -5.280438e+000 -1.137970e+002
14817562500 -4.365838e+000 -4.017964e+001 -5.336842e+001 8.495049e+001 -5.396700e+001 8.130775e+001 -5.286912e+000 -1.148139e+002
14836306250 -4.364211e+000 -4.082299e+001 -5.307748e+001 8.382861e+001 -5.376607e+001 8.010480e+001 -5.291388e+000 -1.158267e+002
14855050000 -4.365091e+000 -4.148662e+001 -5.277615e+001 8.371690e+001 -5.335161e+001 7.923676e+001 -5.295724e+000 -1.168252e+002
14873793750 -4.365362e+000 -4.215689e+001 -5.263919e+001 8.308326e+001 -5.316627e+001 7.834309e+001 -5.301798e+000 -1.178386e+002
14892537500 -4.364796e+000 -4.280006e+001 -5.243240e+001 8.176081e+001 -5.279822e+001 7.738798e+001 -5.308466e+000 -1.188430e+002
14911281250 -4.366929e+000 -4.346166e+001 -5.208858e+001 7.980469e+001 -5.253574e+001 7.573164e+001 -5.313649e+000 -1.198539e+002
14930025000 -4.363928e+000 -4.413903e+001 -5.187477e+001 7.859885e+001 -5.226239e+001 7.622192e+001 -5.322163e+000 -1.208577e+002
14948768750 -4.365057e+000 -4.478377e+001 -5.169350e+001 7.670894e+001 -5.206004e+001 7.489436e+001 -5.328302e+000 -1.218614e+002
14967512500 -4.366168e+000 -4.546474e+001 -5.164089e+001 7.477944e+001 -5.181886e+001 7.400790e+001 -5.333588e+000 -1.228595e+002
14986256250 -4.369521e+000 -4.614782e+001 -5.142462e+001 7.316992e+001 -5.154367e+001 7.232074e+001 -5.335397e+000 -1.238626e+002
15005000000 -4.366104e+000 -4.680738e+001 -5.104248e+001 7.132966e+001 -5.150023e+001 7.030124e+001 -5.341227e+000 -1.248398e+002
15023743750 -4.373322e+000 -4.744210e+001 -5.095673e+001 6.958925e+001 -5.124157e+001 6.829173e+001 -5.347006e+000 -1.258627e+002
15042487500 -4.372843e+000 -4.813377e+001 -5.076630e+001 6.775481e+001 -5.114186e+001 6.666673e+001 -5.352001e+000 -1.268729e+002
15061231250 -4.366721e+000 -4.878474e+001 -5.066549e+001 6.514733e+001 -5.096878e+001 6.633557e+001 -5.358653e+000 -1.278567e+002
15079975000 -4.380642e+000 -4.942939e+001 -5.058434e+001 6.311618e+001 -5.072297e+001 6.406775e+001 -5.363621e+000 -1.288853e+002
15098718750 -4.379850e+000 -5.012016e+001 -5.045520e+001 6.158184e+001 -5.080653e+001 6.085324e+001 -5.367366e+000 -1.298876e+002
15117462500 -4.378876e+000 -5.074450e+001 -5.045801e+001 6.022707e+001 -5.074804e+001 5.961338e+001 -5.376531e+000 -1.308689e+002
15136206250 -4.391919e+000 -5.140904e+001 -5.028621e+001 5.896589e+001 -5.040731e+001 5.784192e+001 -5.380299e+000 -1.318808e+002
15154950000 -4.385867e+000 -5.210012e+001 -5.031236e+001 5.614126e+001 -5.035821e+001 5.495835e+001 -5.387785e+000 -1.328614e+002
15173693750 -4.386869e+000 -5.268750e+001 -5.035028e+001 5.303670e+001 -5.030324e+001 5.261308e+001 -5.398729e+000 -1.338506e+002
15192437500 -4.399664e+000 -5.335580e+001 -5.036495e+001 5.172768e+001 -5.006019e+001 5.108789e+001 -5.403995e+000 -1.348698e+002
15211181250 -4.393430e+000 -5.401888e+001 -5.036364e+001 5.015922e+001 -5.001350e+001 4.945387e+001 -5.409220e+000 -1.358441e+002
15229925000 -4.399303e+000 -5.463661e+001 -5.025667e+001 4.800953e+001 -4.991314e+001 4.739459e+001 -5.423429e+000 -1.368307e+002
15248668750 -4.412107e+000 -5.532433e+001 -5.017238e+001 4.568401e+001 -4.993371e+001 4.575094e+001 -5.429133e+000 -1.378395e+002
15267412500 -4.403041e+000 -5.597181e+001 -5.016437e+001 4.386030e+001 -4.982187e+001 4.332907e+001 -5.441187e+000 -1.388172e+002
15286156250 -4.410520e+000 -5.655549e+001 -5.018388e+001 4.180002e+001 -4.980681e+001 4.100106e+001 -5.454192e+000 -1.398270e+002
15304900000 -4.418226e+000 -5.720408e+001 -5.024342e+001 4.027024e+001 -4.972028e+001 3.967918e+001 -5.460570e+000 -1.408405e+002
15323643750 -4.412641e+000 -5.784218e+001 -5.020290e+001 3.779869e+001 -4.971855e+001 3.879636e+001 -5.471138e+000 -1.418213e+002
15342387500 -4.423048e+000 -5.843773e+001 -5.040470e+001 3.644868e+001 -4.970828e+001 3.649912e+001 -5.484114e+000 -1.428196e+002
15361131250 -4.430691e+000 -5.911232e+001 -5.036856e+001 3.415448e+001 -4.987119e+001 3.421788e+001 -5.490372e+000 -1.438150e+002
15379875000 -4.422812e+000 -5.974298e+001 -5.040664e+001 3.199254e+001 -4.983698e+001 3.158092e+001 -5.504923e+000 -1.447963e+002
15398618750 -4.435460e+000 -6.030470e+001 -5.034011e+001 3.069083e+001 -4.992572e+001 2.953289e+001 -5.521476e+000 -1.458098e+002
15417362500 -4.437683e+000 -6.096059e+001 -5.035818e+001 2.934411e+001 -4.996083e+001 2.733235e+001 -5.534894e+000 -1.468210e+002
15436106250 -4.439543e+000 -6.156713e+001 -5.034426e+001 2.790612e+001 -4.986472e+001 2.525601e+001 -5.551234e+000 -1.478303e+002
15454850000 -4.450168e+000 -6.220410e+001 -5.026293e+001 2.583295e+001 -4.981920e+001 2.348071e+001 -5.566564e+000 -1.488428e+002
15473593750 -4.453520e+000 -6.285545e+001 -5.024228e+001 2.396253e+001 -4.972284e+001 2.113848e+001 -5.583631e+000 -1.498507e+002
15492337500 -4.454462e+000 -6.345043e+001 -5.024555e+001 2.154478e+001 -4.975084e+001 1.936128e+001 -5.605259e+000 -1.508621e+002
15511081250 -4.458575e+000 -6.406271e+001 -5.019883e+001 1.884197e+001 -4.970149e+001 1.759644e+001 -5.624835e+000 -1.518781e+002
15529825000 -4.462698e+000 -6.469632e+001 -5.020172e+001 1.679619e+001 -4.945286e+001 1.689905e+001 -5.645551e+000 -1.528963e+002
15548568750 -4.466396e+000 -6.532465e+001 -5.007970e+001 1.432280e+001 -4.940553e+001 1.372461e+001 -5.666287e+000 -1.539023e+002
15567312500 -4.471923e+000 -6.594212e+001 -5.019796e+001 1.102217e+001 -4.937096e+001 1.025505e+001 -5.689697e+000 -1.549240e+002
15586056250 -4.477024e+000 -6.659258e+001 -5.012019e+001 9.020449e+000 -4.939028e+001 7.526779e+000 -5.714649e+000 -1.559436e+002
15604800000 -4.479148e+000 -6.722771e+001 -4.995628e+001 6.724566e+000 -4.938594e+001 4.854265e+000 -5.739314e+000 -1.569765e+002
15623543750 -4.483712e+000 -6.782816e+001 -4.992243e+001 3.868336e+000 -4.946561e+001 2.368708e+000 -5.767340e+000 -1.580026e+002
15642287500 -4.489078e+000 -6.845859e+001 -4.981619e+001 3.803066e-001 -4.936634e+001 1.839427e-001 -5.797200e+000 -1.590440e+002
15661031250 -4.490629e+000 -6.906966e+001 -4.987274e+001 -2.982442e+000 -4.936358e+001 -2.730798e+000 -5.825607e+000 -1.600714e+002
15679775000 -4.494541e+000 -6.967687e+001 -4.986850e+001 -6.550466e+000 -4.931398e+001 -5.730721e+000 -5.860034e+000 -1.610924e+002
15698518750 -4.498820e+000 -7.031812e+001 -4.997145e+001 -9.993642e+000 -4.940295e+001 -8.454802e+000 -5.895916e+000 -1.621147e+002
15717262500 -4.497350e+000 -7.092606e+001 -5.012021e+001 -1.388975e+001 -4.938982e+001 -1.113518e+001 -5.934061e+000 -1.631429e+002
15736006250 -4.502494e+000 -7.152502e+001 -5.010207e+001 -1.727252e+001 -4.952766e+001 -1.547590e+001 -5.974657e+000 -1.641905e+002
15754750000 -4.507490e+000 -7.214746e+001 -5.010082e+001 -2.084841e+001 -4.969828e+001 -1.949451e+001 -6.017024e+000 -1.652316e+002
15773493750 -4.510025e+000 -7.273359e+001 -5.002653e+001 -2.434318e+001 -4.975207e+001 -2.214139e+001 -6.060484e+000 -1.662650e+002
15792237500 -4.515225e+000 -7.331847e+001 -5.015921e+001 -2.727290e+001 -4.977137e+001 -2.556557e+001 -6.109406e+000 -1.673017e+002
15810981250 -4.523408e+000 -7.394629e+001 -5.022121e+001 -3.049720e+001 -4.982032e+001 -2.894472e+001 -6.160191e+000 -1.683192e+002
15829725000 -4.520425e+000 -7.455193e+001 -5.026955e+001 -3.418433e+001 -4.987664e+001 -3.271734e+001 -6.213975e+000 -1.693270e+002
15848468750 -4.525806e+000 -7.511539e+001 -5.024198e+001 -3.785436e+001 -5.001221e+001 -3.559398e+001 -6.273995e+000 -1.703574e+002
15867212500 -4.529670e+000 -7.574984e+001 -5.023689e+001 -4.175322e+001 -5.002342e+001 -3.940847e+001 -6.331128e+000 -1.713744e+002
15885956250 -4.530118e+000 -7.631197e+001 -5.027163e+001 -4.476011e+001 -5.010350e+001 -4.320359e+001 -6.399185e+000 -1.723709e+002
15904700000 -4.536391e+000 -7.692460e+001 -5.029221e+001 -4.898115e+001 -5.016031e+001 -4.724911e+001 -6.465783e+000 -1.734062e+002
15923443750 -4.541573e+000 -7.755036e+001 -5.022486e+001 -5.187488e+001 -5.023669e+001 -5.160299e+001 -6.533937e+000 -1.744104e+002
15942187500 -4.539945e+000 -7.809792e+001 -5.051810e+001 -5.492271e+001 -5.037904e+001 -5.613280e+001 -6.616135e+000 -1.754120e+002
15960931250 -4.549120e+000 -7.870356e+001 -5.070844e+001 -5.939887e+001 -5.049233e+001 -6.023288e+001 -6.693732e+000 -1.764545e+002
15979675000 -4.550536e+000 -7.932086e+001 -5.081282e+001 -6.271420e+001 -5.059743e+001 -6.396387e+001 -6.770301e+000 -1.774292e+002
15998418750 -4.549715e+000 -7.987980e+001 -5.090228e+001 -6.643501e+001 -5.078432e+001 -6.817827e+001 -6.862709e+000 -1.783855e+002
16017162500 -4.561498e+000 -8.047668e+001 -5.092567e+001 -7.020601e+001 -5.075074e+001 -7.134815e+001 -6.954081e+000 -1.793939e+002
16035906250 -4.561210e+000 -8.109275e+001 -5.100415e+001 -7.385550e+001 -5.079040e+001 -7.476096e+001 -7.049150e+000 1.796766e+002
16054650000 -4.563853e+000 -8.165063e+001 -5.103186e+001 -7.716539e+001 -5.084604e+001 -7.795599e+001 -7.154736e+000 1.787187e+002
16073393750 -4.573048e+000 -8.225694e+001 -5.118372e+001 -8.075793e+001 -5.092147e+001 -8.147710e+001 -7.254354e+000 1.777363e+002
16092137500 -4.573782e+000 -8.287560e+001 -5.116695e+001 -8.365485e+001 -5.095451e+001 -8.478793e+001 -7.356312e+000 1.768377e+002
16110881250 -4.576800e+000 -8.344273e+001 -5.128948e+001 -8.645856e+001 -5.093538e+001 -8.810963e+001 -7.474021e+000 1.759448e+002
16129625000 -4.588069e+000 -8.407471e+001 -5.119946e+001 -8.928136e+001 -5.094206e+001 -9.101895e+001 -7.585682e+000 1.750210e+002
16148368750 -4.588857e+000 -8.468988e+001 -5.118441e+001 -9.156541e+001 -5.084605e+001 -9.484335e+001 -7.704791e+000 1.741847e+002
16167112500 -4.589974e+000 -8.524748e+001 -5.109071e+001 -9.563615e+001 -5.065013e+001 -9.787537e+001 -7.833831e+000 1.733184e+002
16185856250 -4.599630e+000 -8.586700e+001 -5.108651e+001 -9.827399e+001 -5.044385e+001 -1.008963e+002 -7.954290e+000 1.724486e+002
16204600000 -4.597221e+000 -8.648304e+001 -5.090157e+001 -1.013044e+002 -5.040731e+001 -1.042394e+002 -8.083887e+000 1.717098e+002
16223343750 -4.602723e+000 -8.706645e+001 -5.088927e+001 -1.043910e+002 -5.020348e+001 -1.078657e+002 -8.225878e+000 1.709684e+002
16242087500 -4.607383e+000 -8.768407e+001 -5.074529e+001 -1.071010e+002 -5.014232e+001 -1.111578e+002 -8.362883e+000 1.701992e+002
16260831250 -4.607145e+000 -8.827955e+001 -5.068488e+001 -1.103781e+002 -4.999317e+001 -1.132995e+002 -8.507695e+000 1.695157e+002
16279575000 -4.611940e+000 -8.888763e+001 -5.064337e+001 -1.132376e+002 -4.982582e+001 -1.166598e+002 -8.655355e+000 1.687937e+002
16298318750 -4.619566e+000 -8.948940e+001 -5.056437e+001 -1.159913e+002 -4.973395e+001 -1.187790e+002 -8.799051e+000 1.681105e+002
16317062500 -4.617814e+000 -9.011902e+001 -5.048362e+001 -1.184827e+002 -4.968203e+001 -1.211476e+002 -8.943556e+000 1.675472e+002
16335806250 -4.622481e+000 -9.069747e+001 -5.033515e+001 -1.209447e+002 -4.954110e+001 -1.235894e+002 -9.101182e+000 1.670037e+002
16354550000 -4.627247e+000 -9.130782e+001 -5.028863e+001 -1.236456e+002 -4.941256e+001 -1.257544e+002 -9.254644e+000 1.664607e+002
16373293750 -4.629661e+000 -9.193214e+001 -4.986475e+001 -1.262409e+002 -4.919716e+001 -1.276511e+002 -9.409974e+000 1.659707e+002
16392037500 -4.634790e+000 -9.250982e+001 -4.954976e+001 -1.286322e+002 -4.894553e+001 -1.293238e+002 -9.567821e+000 1.654982e+002
16410781250 -4.641468e+000 -9.310833e+001 -4.937799e+001 -1.311638e+002 -4.875319e+001 -1.308991e+002 -9.719540e+000 1.650544e+002
16429525000 -4.644083e+000 -9.373608e+001 -4.910408e+001 -1.328942e+002 -4.844362e+001 -1.316467e+002 -9.868445e+000 1.647152e+002
16448268750 -4.645044e+000 -9.433047e+001 -4.886635e+001 -1.346220e+002 -4.821553e+001 -1.332294e+002 -1.002654e+001 1.644293e+002
16467012500 -4.651173e+000 -9.493409e+001 -4.864268e+001 -1.366184e+002 -4.802732e+001 -1.353335e+002 -1.018109e+001 1.641475e+002
16485756250 -4.652541e+000 -9.555452e+001 -4.842301e+001 -1.383660e+002 -4.765700e+001 -1.372648e+002 -1.033957e+001 1.639258e+002
16504500000 -4.656655e+000 -9.614819e+001 -4.807916e+001 -1.397081e+002 -4.745153e+001 -1.390141e+002 -1.049510e+001 1.636814e+002
16523243750 -4.662872e+000 -9.674551e+001 -4.777407e+001 -1.417323e+002 -4.714150e+001 -1.403403e+002 -1.064090e+001 1.634832e+002
16541987500 -4.666560e+000 -9.735181e+001 -4.736083e+001 -1.432189e+002 -4.691739e+001 -1.419171e+002 -1.078141e+001 1.633538e+002
16560731250 -4.672245e+000 -9.794141e+001 -4.705846e+001 -1.447136e+002 -4.661659e+001 -1.435878e+002 -1.092636e+001 1.632508e+002
16579475000 -4.681150e+000 -9.854166e+001 -4.666605e+001 -1.462434e+002 -4.641765e+001 -1.444265e+002 -1.106626e+001 1.631699e+002
16598218750 -4.688369e+000 -9.916232e+001 -4.642014e+001 -1.466962e+002 -4.622036e+001 -1.454654e+002 -1.120941e+001 1.631479e+002
16616962500 -4.694872e+000 -9.976390e+001 -4.609999e+001 -1.479574e+002 -4.596239e+001 -1.469528e+002 -1.135009e+001 1.630908e+002
16635706250 -4.702730e+000 -1.003858e+002 -4.580195e+001 -1.496073e+002 -4.562112e+001 -1.484347e+002 -1.147714e+001 1.630180e+002
16654450000 -4.709018e+000 -1.010169e+002 -4.539740e+001 -1.510317e+002 -4.541831e+001 -1.496306e+002 -1.159913e+001 1.630154e+002
16673193750 -4.717937e+000 -1.016156e+002 -4.510778e+001 -1.525384e+002 -4.508721e+001 -1.498250e+002 -1.172213e+001 1.630261e+002
16691937500 -4.728902e+000 -1.022412e+002 -4.476358e+001 -1.529673e+002 -4.471243e+001 -1.510498e+002 -1.183307e+001 1.630261e+002
16710681250 -4.737867e+000 -1.028549e+002 -4.435301e+001 -1.542332e+002 -4.437482e+001 -1.520175e+002 -1.195021e+001 1.630842e+002
16729425000 -4.748061e+000 -1.034561e+002 -4.397705e+001 -1.554530e+002 -4.401659e+001 -1.531869e+002 -1.206407e+001 1.630775e+002
16748168750 -4.759891e+000 -1.040833e+002 -4.359730e+001 -1.567365e+002 -4.367364e+001 -1.541389e+002 -1.215876e+001 1.630644e+002
16766912500 -4.768631e+000 -1.047077e+002 -4.323037e+001 -1.576311e+002 -4.331815e+001 -1.548094e+002 -1.225252e+001 1.630891e+002
16785656250 -4.781970e+000 -1.053289e+002 -4.283556e+001 -1.585862e+002 -4.292318e+001 -1.558745e+002 -1.234880e+001 1.630894e+002
16804400000 -4.793651e+000 -1.059740e+002 -4.251340e+001 -1.593451e+002 -4.253051e+001 -1.569226e+002 -1.243630e+001 1.631175e+002
16823143750 -4.804365e+000 -1.066147e+002 -4.211295e+001 -1.600326e+002 -4.221523e+001 -1.582660e+002 -1.253403e+001 1.631121e+002
16841887500 -4.817288e+000 -1.072462e+002 -4.169969e+001 -1.609920e+002 -4.179192e+001 -1.593622e+002 -1.262349e+001 1.629939e+002
16860631250 -4.828734e+000 -1.078734e+002 -4.129496e+001 -1.619878e+002 -4.143768e+001 -1.603915e+002 -1.270237e+001 1.629053e+002
16879375000 -4.841649e+000 -1.085073e+002 -4.090940e+001 -1.628256e+002 -4.102839e+001 -1.617516e+002 -1.277707e+001 1.627777e+002
16898118750 -4.858544e+000 -1.091249e+002 -4.049850e+001 -1.635939e+002 -4.055614e+001 -1.629033e+002 -1.284926e+001 1.626217e+002
16916862500 -4.872870e+000 -1.097696e+002 -4.003047e+001 -1.648314e+002 -4.018927e+001 -1.641142e+002 -1.291719e+001 1.624912e+002
16935606250 -4.887334e+000 -1.103916e+002 -3.959769e+001 -1.660272e+002 -3.973916e+001 -1.653745e+002 -1.299814e+001 1.623600e+002
16954350000 -4.904439e+000 -1.110224e+002 -3.916423e+001 -1.670341e+002 -3.931648e+001 -1.667553e+002 -1.307363e+001 1.621019e+002
16973093750 -4.920832e+000 -1.116643e+002 -3.876035e+001 -1.683331e+002 -3.888602e+001 -1.677639e+002 -1.314484e+001 1.618381e+002
16991837500 -4.936242e+000 -1.122746e+002 -3.833274e+001 -1.695899e+002 -3.840922e+001 -1.692570e+002 -1.322132e+001 1.615760e+002
17010581250 -4.953971e+000 -1.129039e+002 -3.788204e+001 -1.709264e+002 -3.798376e+001 -1.707692e+002 -1.329265e+001 1.612670e+002
17029325000 -4.970682e+000 -1.135519e+002 -3.738755e+001 -1.726692e+002 -3.749483e+001 -1.721637e+002 -1.336595e+001 1.609842e+002
17048068750 -4.989065e+000 -1.141600e+002 -3.694154e+001 -1.740505e+002 -3.706900e+001 -1.733091e+002 -1.345096e+001 1.606402e+002
17066812500 -5.012300e+000 -1.147802e+002 -3.652159e+001 -1.755088e+002 -3.659245e+001 -1.745907e+002 -1.353218e+001 1.602053e+002
17085556250 -5.031710e+000 -1.153977e+002 -3.606424e+001 -1.770667e+002 -3.610101e+001 -1.760215e+002 -1.361310e+001 1.597935e+002
17104300000 -5.052437e+000 -1.159942e+002 -3.561497e+001 -1.783663e+002 -3.564647e+001 -1.777424e+002 -1.370144e+001 1.593499e+002
17123043750 -5.077865e+000 -1.166123e+002 -3.514984e+001 1.799126e+002 -3.522179e+001 -1.792472e+002 -1.379367e+001 1.588941e+002
17141787500 -5.100733e+000 -1.172306e+002 -3.470698e+001 1.782606e+002 -3.475943e+001 1.790947e+002 -1.388963e+001 1.584796e+002
17160531250 -5.124835e+000 -1.178376e+002 -3.425252e+001 1.767454e+002 -3.430291e+001 1.773807e+002 -1.400504e+001 1.579741e+002
17179275000 -5.152001e+000 -1.184598e+002 -3.383998e+001 1.749253e+002 -3.379146e+001 1.754737e+002 -1.411944e+001 1.574243e+002
17198018750 -5.177443e+000 -1.190687e+002 -3.338366e+001 1.732459e+002 -3.339292e+001 1.735777e+002 -1.424522e+001 1.569410e+002
17216762500 -5.202804e+000 -1.196637e+002 -3.293542e+001 1.713318e+002 -3.294030e+001 1.716608e+002 -1.437503e+001 1.563859e+002
17235506250 -5.233612e+000 -1.202720e+002 -3.246732e+001 1.694574e+002 -3.249535e+001 1.698718e+002 -1.450494e+001 1.558305e+002
17254250000 -5.259898e+000 -1.208639e+002 -3.201140e+001 1.674724e+002 -3.204221e+001 1.679191e+002 -1.465317e+001 1.553366e+002
17272993750 -5.290558e+000 -1.214356e+002 -3.158089e+001 1.655880e+002 -3.160258e+001 1.656873e+002 -1.481266e+001 1.548144e+002
17291737500 -5.324402e+000 -1.220512e+002 -3.115183e+001 1.634638e+002 -3.113209e+001 1.636602e+002 -1.496362e+001 1.542772e+002
17310481250 -5.355129e+000 -1.226415e+002 -3.073186e+001 1.613232e+002 -3.073216e+001 1.615746e+002 -1.513518e+001 1.538203e+002
17329225000 -5.387091e+000 -1.232220e+002 -3.033247e+001 1.591332e+002 -3.030816e+001 1.595131e+002 -1.531859e+001 1.533666e+002
17347968750 -5.422199e+000 -1.238101e+002 -2.991798e+001 1.569440e+002 -2.988739e+001 1.572950e+002 -1.551026e+001 1.529698e+002
17366712500 -5.455822e+000 -1.243812e+002 -2.951920e+001 1.547824e+002 -2.949735e+001 1.548869e+002 -1.572485e+001 1.526075e+002
17385456250 -5.493363e+000 -1.249515e+002 -2.911930e+001 1.524525e+002 -2.910487e+001 1.525757e+002 -1.593844e+001 1.521821e+002
17404200000 -5.530706e+000 -1.255526e+002 -2.871948e+001 1.501534e+002 -2.871172e+001 1.501442e+002 -1.615013e+001 1.518811e+002
17422943750 -5.564500e+000 -1.261332e+002 -2.833987e+001 1.477399e+002 -2.833990e+001 1.478016e+002 -1.637725e+001 1.516493e+002
17441687500 -5.603646e+000 -1.266941e+002 -2.796164e+001 1.452639e+002 -2.795497e+001 1.454390e+002 -1.661451e+001 1.514518e+002
17460431250 -5.641761e+000 -1.272500e+002 -2.760237e+001 1.429104e+002 -2.758211e+001 1.429895e+002 -1.685088e+001 1.514200e+002
17479175000 -5.678001e+000 -1.278038e+002 -2.724687e+001 1.404485e+002 -2.720113e+001 1.403537e+002 -1.711511e+001 1.514767e+002
17497918750 -5.715895e+000 -1.283423e+002 -2.687910e+001 1.379026e+002 -2.685334e+001 1.378565e+002 -1.739277e+001 1.515684e+002
17516662500 -5.755788e+000 -1.289186e+002 -2.653257e+001 1.354079e+002 -2.650945e+001 1.353287e+002 -1.765029e+001 1.516964e+002
17535406250 -5.792101e+000 -1.294771e+002 -2.620325e+001 1.328055e+002 -2.616731e+001 1.326339e+002 -1.792602e+001 1.520586e+002
17554150000 -5.833310e+000 -1.300046e+002 -2.586062e+001 1.301152e+002 -2.583515e+001 1.299958e+002 -1.819897e+001 1.524281e+002
17572893750 -5.874084e+000 -1.305204e+002 -2.553090e+001 1.275567e+002 -2.550726e+001 1.274644e+002 -1.846341e+001 1.529637e+002
17591637500 -5.913213e+000 -1.310293e+002 -2.521943e+001 1.248955e+002 -2.519363e+001 1.248657e+002 -1.874149e+001 1.537295e+002
17610381250 -5.959754e+000 -1.315086e+002 -2.488820e+001 1.222745e+002 -2.487942e+001 1.222230e+002 -1.901756e+001 1.544240e+002
17629125000 -6.001587e+000 -1.320136e+002 -2.457971e+001 1.196288e+002 -2.456478e+001 1.196209e+002 -1.926441e+001 1.552859e+002
17647868750 -6.043985e+000 -1.325024e+002 -2.428856e+001 1.169088e+002 -2.426822e+001 1.169592e+002 -1.952090e+001 1.563137e+002
17666612500 -6.086145e+000 -1.329578e+002 -2.398998e+001 1.142212e+002 -2.397620e+001 1.142687e+002 -1.977684e+001 1.574253e+002
17685356250 -6.127216e+000 -1.334129e+002 -2.371084e+001 1.115575e+002 -2.368158e+001 1.115407e+002 -2.000744e+001 1.587815e+002
17704100000 -6.169541e+000 -1.338497e+002 -2.342525e+001 1.088438e+002 -2.340574e+001 1.088711e+002 -2.025159e+001 1.602907e+002
17722843750 -6.215513e+000 -1.342769e+002 -2.314171e+001 1.061679e+002 -2.314384e+001 1.060985e+002 -2.048357e+001 1.616877e+002
17741587500 -6.259303e+000 -1.347178e+002 -2.288646e+001 1.034275e+002 -2.287741e+001 1.033414e+002 -2.068648e+001 1.631996e+002
17760331250 -6.297618e+000 -1.351394e+002 -2.261701e+001 1.006628e+002 -2.261921e+001 1.006207e+002 -2.088368e+001 1.649390e+002
17779075000 -6.339737e+000 -1.355395e+002 -2.235522e+001 9.795206e+001 -2.236222e+001 9.784132e+001 -2.105550e+001 1.666314e+002
17797818750 -6.379750e+000 -1.359432e+002 -2.211133e+001 9.520802e+001 -2.211593e+001 9.509700e+001 -2.119632e+001 1.685457e+002
17816562500 -6.420781e+000 -1.363057e+002 -2.187435e+001 9.241764e+001 -2.187965e+001 9.237924e+001 -2.135905e+001 1.706823e+002
17835306250 -6.469092e+000 -1.366586e+002 -2.164025e+001 8.969067e+001 -2.164554e+001 8.957489e+001 -2.151676e+001 1.726905e+002
17854050000 -6.514089e+000 -1.370628e+002 -2.142139e+001 8.695280e+001 -2.141753e+001 8.675151e+001 -2.163042e+001 1.747775e+002
17872793750 -6.552646e+000 -1.374238e+002 -2.119781e+001 8.417801e+001 -2.120516e+001 8.398833e+001 -2.173198e+001 1.770230e+002
17891537500 -6.597017e+000 -1.377580e+002 -2.097733e+001 8.139133e+001 -2.098820e+001 8.125131e+001 -2.180696e+001 1.791568e+002
17910281250 -6.637201e+000 -1.380956e+002 -2.077159e+001 7.860410e+001 -2.078345e+001 7.849216e+001 -2.184934e+001 -1.785225e+002
17929025000 -6.677595e+000 -1.384107e+002 -2.057229e+001 7.581992e+001 -2.058061e+001 7.575416e+001 -2.189239e+001 -1.761396e+002
17947768750 -6.723526e+000 -1.387138e+002 -2.037494e+001 7.308134e+001 -2.037728e+001 7.298228e+001 -2.193544e+001 -1.738294e+002
17966512500 -6.764741e+000 -1.390532e+002 -2.018328e+001 7.028963e+001 -2.018515e+001 7.028010e+001 -2.192957e+001 -1.715772e+002
17985256250 -6.797683e+000 -1.393585e+002 -1.999435e+001 6.752686e+001 -2.000178e+001 6.751426e+001 -2.191472e+001 -1.692209e+002
18004000000 -6.832385e+000 -1.396617e+002 -1.981415e+001 6.480027e+001 -1.981633e+001 6.474271e+001 -2.189217e+001 -1.669666e+002
18022743750 -6.864583e+000 -1.399550e+002 -1.963670e+001 6.204824e+001 -1.964542e+001 6.200922e+001 -2.183552e+001 -1.647062e+002
18041487500 -6.894113e+000 -1.402248e+002 -1.946856e+001 5.930836e+001 -1.948100e+001 5.923950e+001 -2.177513e+001 -1.623415e+002
18060231250 -6.931784e+000 -1.404942e+002 -1.930608e+001 5.659039e+001 -1.931040e+001 5.647323e+001 -2.169962e+001 -1.602197e+002
18078975000 -6.959775e+000 -1.407870e+002 -1.914203e+001 5.386308e+001 -1.915387e+001 5.376931e+001 -2.159072e+001 -1.579983e+002
18097718750 -6.984616e+000 -1.410469e+002 -1.899039e+001 5.115058e+001 -1.900576e+001 5.101619e+001 -2.146154e+001 -1.558136e+002
18116462500 -7.012012e+000 -1.413107e+002 -1.883977e+001 4.844864e+001 -1.885474e+001 4.832639e+001 -2.131812e+001 -1.538260e+002
18135206250 -7.031030e+000 -1.415895e+002 -1.869734e+001 4.571494e+001 -1.871240e+001 4.567664e+001 -2.116096e+001 -1.518599e+002
18153950000 -7.051025e+000 -1.418086e+002 -1.855858e+001 4.300837e+001 -1.857251e+001 4.291964e+001 -2.100892e+001 -1.497879e+002
18172693750 -7.075067e+000 -1.420688e+002 -1.842184e+001 4.035643e+001 -1.843319e+001 4.024940e+001 -2.084170e+001 -1.478924e+002
18191437500 -7.094103e+000 -1.423416e+002 -1.829669e+001 3.768509e+001 -1.831451e+001 3.761442e+001 -2.064692e+001 -1.461224e+002
18210181250 -7.106132e+000 -1.425749e+002 -1.817167e+001 3.503630e+001 -1.819621e+001 3.495231e+001 -2.044832e+001 -1.443698e+002
18228925000 -7.120449e+000 -1.428194e+002 -1.804967e+001 3.238756e+001 -1.807075e+001 3.232554e+001 -2.023205e+001 -1.427607e+002
18247668750 -7.128019e+000 -1.430566e+002 -1.793334e+001 2.977053e+001 -1.796290e+001 2.967577e+001 -1.998590e+001 -1.412366e+002
18266412500 -7.135441e+000 -1.432777e+002 -1.782308e+001 2.711719e+001 -1.785494e+001 2.703863e+001 -1.973448e+001 -1.397363e+002
18285156250 -7.144950e+000 -1.435059e+002 -1.771249e+001 2.450182e+001 -1.774484e+001 2.449504e+001 -1.948676e+001 -1.383923e+002
18303900000 -7.148489e+000 -1.437699e+002 -1.760960e+001 2.192017e+001 -1.764808e+001 2.190599e+001 -1.922293e+001 -1.371955e+002
18322643750 -7.148871e+000 -1.440258e+002 -1.751077e+001 1.936719e+001 -1.754905e+001 1.928963e+001 -1.896603e+001 -1.360314e+002
18341387500 -7.148378e+000 -1.442832e+002 -1.741378e+001 1.678812e+001 -1.745550e+001 1.674128e+001 -1.869910e+001 -1.350082e+002
18360131250 -7.147443e+000 -1.445190e+002 -1.732369e+001 1.430352e+001 -1.737346e+001 1.418016e+001 -1.840511e+001 -1.340657e+002
18378875000 -7.146381e+000 -1.447589e+002 -1.723676e+001 1.174700e+001 -1.728465e+001 1.163319e+001 -1.810891e+001 -1.331753e+002
18397618750 -7.145518e+000 -1.450448e+002 -1.714470e+001 9.240613e+000 -1.719764e+001 9.139680e+000 -1.782486e+001 -1.324228e+002
18416362500 -7.140288e+000 -1.453509e+002 -1.706419e+001 6.786066e+000 -1.712693e+001 6.631638e+000 -1.753307e+001 -1.317709e+002
18435106250 -7.133944e+000 -1.456523e+002 -1.698575e+001 4.254377e+000 -1.704272e+001 4.138630e+000 -1.723718e+001 -1.311806e+002
18453850000 -7.129537e+000 -1.459527e+002 -1.690580e+001 1.830844e+000 -1.696879e+001 1.714703e+000 -1.693456e+001 -1.307133e+002
18472593750 -7.120284e+000 -1.462447e+002 -1.683392e+001 -5.962178e-001 -1.690002e+001 -7.464604e-001 -1.663393e+001 -1.303384e+002
18491337500 -7.112820e+000 -1.465557e+002 -1.676260e+001 -3.069426e+000 -1.682360e+001 -3.184801e+000 -1.634925e+001 -1.299588e+002
18510081250 -7.106839e+000 -1.469083e+002 -1.669669e+001 -5.465930e+000 -1.675922e+001 -5.564372e+000 -1.606605e+001 -1.297631e+002
18528825000 -7.096899e+000 -1.472848e+002 -1.663306e+001 -7.864337e+000 -1.669835e+001 -7.983122e+000 -1.579043e+001 -1.296413e+002
18547568750 -7.087351e+000 -1.476569e+002 -1.656606e+001 -1.024258e+001 -1.663360e+001 -1.034471e+001 -1.551948e+001 -1.295645e+002
18566312500 -7.078857e+000 -1.480367e+002 -1.650545e+001 -1.256514e+001 -1.657956e+001 -1.267445e+001 -1.524107e+001 -1.295722e+002
18585056250 -7.069287e+000 -1.484203e+002 -1.645244e+001 -1.491294e+001 -1.652346e+001 -1.502924e+001 -1.496848e+001 -1.296866e+002
18603800000 -7.063340e+000 -1.487992e+002 -1.639126e+001 -1.726850e+001 -1.646941e+001 -1.730484e+001 -1.470577e+001 -1.297919e+002
18622543750 -7.057994e+000 -1.492532e+002 -1.633705e+001 -1.955219e+001 -1.641568e+001 -1.964216e+001 -1.445286e+001 -1.300037e+002
18641287500 -7.051395e+000 -1.497287e+002 -1.628722e+001 -2.184514e+001 -1.636353e+001 -2.195728e+001 -1.420638e+001 -1.302553e+002
18660031250 -7.044715e+000 -1.501974e+002 -1.623390e+001 -2.412908e+001 -1.630725e+001 -2.422772e+001 -1.397189e+001 -1.305624e+002
18678775000 -7.035251e+000 -1.506891e+002 -1.618547e+001 -2.635232e+001 -1.626002e+001 -2.644677e+001 -1.375043e+001 -1.309474e+002
18697518750 -7.025905e+000 -1.511418e+002 -1.613872e+001 -2.860257e+001 -1.620977e+001 -2.869464e+001 -1.352412e+001 -1.313619e+002
18716262500 -7.021984e+000 -1.516291e+002 -1.608813e+001 -3.082276e+001 -1.616276e+001 -3.092705e+001 -1.331085e+001 -1.317396e+002
18735006250 -7.017348e+000 -1.521755e+002 -1.604461e+001 -3.300903e+001 -1.612142e+001 -3.313126e+001 -1.310783e+001 -1.321833e+002
18753750000 -7.011213e+000 -1.526991e+002 -1.599856e+001 -3.525678e+001 -1.607796e+001 -3.535563e+001 -1.291025e+001 -1.326814e+002
18772493750 -7.009713e+000 -1.532539e+002 -1.594879e+001 -3.740382e+001 -1.603078e+001 -3.750830e+001 -1.271633e+001 -1.332426e+002
18791237500 -7.002915e+000 -1.538127e+002 -1.590677e+001 -3.958911e+001 -1.599243e+001 -3.967202e+001 -1.253365e+001 -1.338390e+002
18809981250 -7.000510e+000 -1.543352e+002 -1.586079e+001 -4.175579e+001 -1.594928e+001 -4.181611e+001 -1.235917e+001 -1.344195e+002
18828725000 -7.003358e+000 -1.548854e+002 -1.581580e+001 -4.385615e+001 -1.591312e+001 -4.392842e+001 -1.218532e+001 -1.349918e+002
18847468750 -7.004861e+000 -1.554552e+002 -1.577964e+001 -4.597736e+001 -1.587414e+001 -4.604127e+001 -1.202132e+001 -1.355988e+002
18866212500 -7.006835e+000 -1.560105e+002 -1.573504e+001 -4.809790e+001 -1.583382e+001 -4.813093e+001 -1.186343e+001 -1.362485e+002
18884956250 -7.009526e+000 -1.566152e+002 -1.569299e+001 -5.017170e+001 -1.579245e+001 -5.022423e+001 -1.171768e+001 -1.369067e+002
18903700000 -7.010818e+000 -1.571943e+002 -1.565452e+001 -5.228572e+001 -1.575438e+001 -5.231427e+001 -1.157472e+001 -1.375960e+002
18922443750 -7.017861e+000 -1.577489e+002 -1.560831e+001 -5.436657e+001 -1.571983e+001 -5.435029e+001 -1.143248e+001 -1.382775e+002
18941187500 -7.031207e+000 -1.583404e+002 -1.556664e+001 -5.639903e+001 -1.568150e+001 -5.639611e+001 -1.130164e+001 -1.389553e+002
18959931250 -7.042902e+000 -1.589360e+002 -1.553234e+001 -5.847940e+001 -1.564257e+001 -5.846186e+001 -1.117479e+001 -1.396497e+002
18978675000 -7.056547e+000 -1.595387e+002 -1.548846e+001 -6.052459e+001 -1.560382e+001 -6.047145e+001 -1.105538e+001 -1.403693e+002
18997418750 -7.071359e+000 -1.601565e+002 -1.544802e+001 -6.252275e+001 -1.556517e+001 -6.251816e+001 -1.094086e+001 -1.410908e+002
19016162500 -7.085250e+000 -1.607522e+002 -1.541032e+001 -6.458228e+001 -1.552770e+001 -6.454146e+001 -1.082759e+001 -1.418034e+002
19034906250 -7.103032e+000 -1.613391e+002 -1.536393e+001 -6.658725e+001 -1.548733e+001 -6.654688e+001 -1.071873e+001 -1.424978e+002
19053650000 -7.126456e+000 -1.619444e+002 -1.532235e+001 -6.858044e+001 -1.544610e+001 -6.852744e+001 -1.061757e+001 -1.431792e+002
19072393750 -7.149955e+000 -1.625396e+002 -1.528093e+001 -7.061643e+001 -1.540907e+001 -7.052238e+001 -1.052365e+001 -1.438725e+002
19091137500 -7.177492e+000 -1.631522e+002 -1.523191e+001 -7.259396e+001 -1.537192e+001 -7.248446e+001 -1.043297e+001 -1.446066e+002
19109881250 -7.205614e+000 -1.637815e+002 -1.519629e+001 -7.459294e+001 -1.533087e+001 -7.446375e+001 -1.034704e+001 -1.453187e+002
19128625000 -7.236603e+000 -1.643830e+002 -1.515288e+001 -7.660892e+001 -1.528985e+001 -7.643781e+001 -1.026281e+001 -1.460252e+002
19147368750 -7.273552e+000 -1.649630e+002 -1.510788e+001 -7.856870e+001 -1.525065e+001 -7.841052e+001 -1.018010e+001 -1.467518e+002
19166112500 -7.314250e+000 -1.655495e+002 -1.506915e+001 -8.053981e+001 -1.520536e+001 -8.036601e+001 -1.010389e+001 -1.474401e+002
19184856250 -7.356772e+000 -1.661671e+002 -1.502546e+001 -8.253074e+001 -1.516291e+001 -8.230188e+001 -1.003365e+001 -1.481320e+002
19203600000 -7.400889e+000 -1.667804e+002 -1.497750e+001 -8.446446e+001 -1.512402e+001 -8.425591e+001 -9.970481e+000 -1.488329e+002
19222343750 -7.445358e+000 -1.674183e+002 -1.493780e+001 -8.640521e+001 -1.507925e+001 -8.618240e+001 -9.908712e+000 -1.495193e+002
19241087500 -7.486261e+000 -1.680087e+002 -1.489044e+001 -8.837113e+001 -1.503982e+001 -8.812566e+001 -9.849663e+000 -1.502152e+002
19259831250 -7.538207e+000 -1.685865e+002 -1.484667e+001 -9.030735e+001 -1.499672e+001 -9.008044e+001 -9.792945e+000 -1.508931e+002
19278575000 -7.594421e+000 -1.691871e+002 -1.480479e+001 -9.225604e+001 -1.495250e+001 -9.198137e+001 -9.742016e+000 -1.515520e+002
19297318750 -7.650572e+000 -1.697925e+002 -1.475677e+001 -9.421745e+001 -1.491212e+001 -9.390721e+001 -9.697068e+000 -1.522093e+002
19316062500 -7.711468e+000 -1.703938e+002 -1.471018e+001 -9.614735e+001 -1.486873e+001 -9.587101e+001 -9.654213e+000 -1.528765e+002
19334806250 -7.768073e+000 -1.710173e+002 -1.467121e+001 -9.809379e+001 -1.482310e+001 -9.778642e+001 -9.616428e+000 -1.535492e+002
19353550000 -7.826476e+000 -1.715689e+002 -1.462446e+001 -1.000246e+002 -1.477833e+001 -9.972116e+001 -9.581525e+000 -1.542079e+002
19372293750 -7.892972e+000 -1.721096e+002 -1.458157e+001 -1.019484e+002 -1.473325e+001 -1.016819e+002 -9.544376e+000 -1.548416e+002
19391037500 -7.961530e+000 -1.726381e+002 -1.453824e+001 -1.038885e+002 -1.468726e+001 -1.035830e+002 -9.514870e+000 -1.554500e+002
19409781250 -8.032988e+000 -1.731678e+002 -1.449017e+001 -1.058422e+002 -1.464773e+001 -1.055331e+002 -9.489816e+000 -1.560493e+002
19428525000 -8.107725e+000 -1.737282e+002 -1.444767e+001 -1.077830e+002 -1.460142e+001 -1.074501e+002 -9.469286e+000 -1.566612e+002
19447268750 -8.176724e+000 -1.742652e+002 -1.440335e+001 -1.097230e+002 -1.455301e+001 -1.093457e+002 -9.450453e+000 -1.572769e+002
19466012500 -8.251619e+000 -1.747335e+002 -1.435942e+001 -1.116639e+002 -1.450850e+001 -1.112893e+002 -9.430913e+000 -1.578876e+002
19484756250 -8.333229e+000 -1.751855e+002 -1.431626e+001 -1.135976e+002 -1.446160e+001 -1.132265e+002 -9.411695e+000 -1.584886e+002
19503500000 -8.412437e+000 -1.756402e+002 -1.427424e+001 -1.155678e+002 -1.441681e+001 -1.151431e+002 -9.396817e+000 -1.590530e+002
19522243750 -8.497643e+000 -1.760689e+002 -1.422773e+001 -1.175234e+002 -1.437627e+001 -1.170930e+002 -9.388726e+000 -1.595857e+002
19540987500 -8.587866e+000 -1.764998e+002 -1.418022e+001 -1.194612e+002 -1.432612e+001 -1.190265e+002 -9.379233e+000 -1.601449e+002
19559731250 -8.664818e+000 -1.769091e+002 -1.413442e+001 -1.214309e+002 -1.428337e+001 -1.209716e+002 -9.374413e+000 -1.607066e+002
19578475000 -8.748919e+000 -1.772387e+002 -1.408493e+001 -1.233796e+002 -1.424172e+001 -1.229161e+002 -9.368938e+000 -1.612322e+002
19597218750 -8.840788e+000 -1.775563e+002 -1.404207e+001 -1.253296e+002 -1.419414e+001 -1.248667e+002 -9.364505e+000 -1.617635e+002
19615962500 -8.933745e+000 -1.778489e+002 -1.399683e+001 -1.273104e+002 -1.414727e+001 -1.268106e+002 -9.361544e+000 -1.622557e+002
19634706250 -9.031563e+000 -1.781091e+002 -1.395694e+001 -1.292902e+002 -1.410314e+001 -1.287855e+002 -9.358397e+000 -1.627572e+002
19653450000 -9.128080e+000 -1.783959e+002 -1.391453e+001 -1.312816e+002 -1.405633e+001 -1.307496e+002 -9.355741e+000 -1.632636e+002
19672193750 -9.221177e+000 -1.786249e+002 -1.387288e+001 -1.332865e+002 -1.401491e+001 -1.326851e+002 -9.353580e+000 -1.637593e+002
19690937500 -9.316075e+000 -1.787836e+002 -1.383187e+001 -1.352673e+002 -1.397281e+001 -1.346798e+002 -9.350927e+000 -1.642156e+002
19709681250 -9.416327e+000 -1.789345e+002 -1.379195e+001 -1.372622e+002 -1.392650e+001 -1.366671e+002 -9.350017e+000 -1.646565e+002
19728425000 -9.519320e+000 -1.790393e+002 -1.375510e+001 -1.392477e+002 -1.388641e+001 -1.386325e+002 -9.351611e+000 -1.650533e+002
19747168750 -9.628015e+000 -1.791380e+002 -1.371619e+001 -1.412374e+002 -1.384806e+001 -1.406373e+002 -9.353108e+000 -1.654751e+002
19765912500 -9.732161e+000 -1.792455e+002 -1.367516e+001 -1.432235e+002 -1.380735e+001 -1.425934e+002 -9.353458e+000 -1.658893e+002
19784656250 -9.824673e+000 -1.793058e+002 -1.363599e+001 -1.452380e+002 -1.377081e+001 -1.445722e+002 -9.351447e+000 -1.662926e+002
19803400000 -9.914351e+000 -1.792907e+002 -1.359568e+001 -1.472792e+002 -1.373194e+001 -1.465497e+002 -9.353660e+000 -1.666868e+002
19822143750 -1.001801e+001 -1.792226e+002 -1.355752e+001 -1.492628e+002 -1.369562e+001 -1.485292e+002 -9.351451e+000 -1.670504e+002
19840887500 -1.011771e+001 -1.791637e+002 -1.352970e+001 -1.512721e+002 -1.365751e+001 -1.505105e+002 -9.348880e+000 -1.673800e+002
19859631250 -1.021521e+001 -1.790357e+002 -1.349135e+001 -1.533131e+002 -1.362182e+001 -1.525516e+002 -9.345795e+000 -1.676659e+002
19878375000 -1.031472e+001 -1.789651e+002 -1.345294e+001 -1.553360e+002 -1.358672e+001 -1.545350e+002 -9.344876e+000 -1.679921e+002
19897118750 -1.040409e+001 -1.788466e+002 -1.342167e+001 -1.573242e+002 -1.356049e+001 -1.565197e+002 -9.346502e+000 -1.683167e+002
19915862500 -1.048947e+001 -1.786272e+002 -1.338843e+001 -1.593299e+002 -1.352417e+001 -1.585423e+002 -9.345779e+000 -1.686129e+002
19934606250 -1.057429e+001 -1.783651e+002 -1.335532e+001 -1.613314e+002 -1.348902e+001 -1.605315e+002 -9.341084e+000 -1.688937e+002
19953350000 -1.066018e+001 -1.780660e+002 -1.332992e+001 -1.633349e+002 -1.345674e+001 -1.625218e+002 -9.340916e+000 -1.691609e+002
19972093750 -1.074390e+001 -1.777993e+002 -1.330449e+001 -1.653327e+002 -1.343097e+001 -1.645325e+002 -9.341168e+000 -1.693961e+002
19990837500 -1.082150e+001 -1.775691e+002 -1.327633e+001 -1.673250e+002 -1.339582e+001 -1.665048e+002 -9.330857e+000 -1.696328e+002
20009581250 -1.088653e+001 -1.772591e+002 -1.325776e+001 -1.693618e+002 -1.337708e+001 -1.684673e+002 -9.328918e+000 -1.698844e+002
20028325000 -1.094599e+001 -1.769403e+002 -1.323351e+001 -1.713742e+002 -1.334668e+001 -1.704954e+002 -9.317857e+000 -1.701414e+002
20047068750 -1.099404e+001 -1.765689e+002 -1.321618e+001 -1.733419e+002 -1.332356e+001 -1.724524e+002 -9.306912e+000 -1.703716e+002
20065812500 -1.105170e+001 -1.761422e+002 -1.319890e+001 -1.753267e+002 -1.330247e+001 -1.744246e+002 -9.299467e+000 -1.705762e+002
20084556250 -1.110617e+001 -1.757702e+002 -1.317599e+001 -1.773248e+002 -1.327835e+001 -1.764533e+002 -9.296046e+000 -1.708187e+002
20103300000 -1.114455e+001 -1.754278e+002 -1.315359e+001 -1.792737e+002 -1.325367e+001 -1.784405e+002 -9.283896e+000 -1.710201e+002
20122043750 -1.117428e+001 -1.750046e+002 -1.314093e+001 1.787190e+002 -1.323920e+001 1.795822e+002 -9.279411e+000 -1.712820e+002
20140787500 -1.119715e+001 -1.745651e+002 -1.312162e+001 1.767281e+002 -1.322415e+001 1.775993e+002 -9.264215e+000 -1.715394e+002
20159531250 -1.121658e+001 -1.740955e+002 -1.310309e+001 1.747802e+002 -1.320544e+001 1.756396e+002 -9.244854e+000 -1.717848e+002
20178275000 -1.123367e+001 -1.735876e+002 -1.309061e+001 1.727542e+002 -1.319096e+001 1.736553e+002 -9.228168e+000 -1.720210e+002
20197018750 -1.125126e+001 -1.731744e+002 -1.307156e+001 1.707742e+002 -1.317208e+001 1.716592e+002 -9.214224e+000 -1.722263e+002
20215762500 -1.126033e+001 -1.728037e+002 -1.306657e+001 1.687797e+002 -1.315849e+001 1.697348e+002 -9.197248e+000 -1.724660e+002
20234506250 -1.126424e+001 -1.723986e+002 -1.305747e+001 1.668090e+002 -1.314828e+001 1.677099e+002 -9.181698e+000 -1.727388e+002
20253250000 -1.124595e+001 -1.720465e+002 -1.304446e+001 1.648415e+002 -1.313252e+001 1.657471e+002 -9.157389e+000 -1.730381e+002
20271993750 -1.122553e+001 -1.715885e+002 -1.302772e+001 1.628906e+002 -1.312478e+001 1.637748e+002 -9.136110e+000 -1.732978e+002
20290737500 -1.121915e+001 -1.711631e+002 -1.302614e+001 1.609329e+002 -1.311417e+001 1.618074e+002 -9.114803e+000 -1.736232e+002
20309481250 -1.120385e+001 -1.708212e+002 -1.301712e+001 1.590207e+002 -1.310543e+001 1.598662e+002 -9.091437e+000 -1.739171e+002
20328225000 -1.117746e+001 -1.704754e+002 -1.301289e+001 1.570543e+002 -1.309046e+001 1.579391e+002 -9.062486e+000 -1.741747e+002
20346968750 -1.114319e+001 -1.701474e+002 -1.300694e+001 1.550649e+002 -1.308566e+001 1.559619e+002 -9.037825e+000 -1.744954e+002
20365712500 -1.110618e+001 -1.698512e+002 -1.299769e+001 1.531720e+002 -1.307803e+001 1.540328e+002 -9.005582e+000 -1.748254e+002
20384456250 -1.106247e+001 -1.695350e+002 -1.299728e+001 1.512221e+002 -1.308527e+001 1.520963e+002 -8.974543e+000 -1.751086e+002
20403200000 -1.103282e+001 -1.692102e+002 -1.298974e+001 1.492597e+002 -1.308495e+001 1.501143e+002 -8.949140e+000 -1.754411e+002
20421943750 -1.099846e+001 -1.689449e+002 -1.298766e+001 1.473411e+002 -1.307935e+001 1.481942e+002 -8.923754e+000 -1.758212e+002
20440687500 -1.094573e+001 -1.688037e+002 -1.298566e+001 1.453940e+002 -1.307273e+001 1.462636e+002 -8.894549e+000 -1.761909e+002
20459431250 -1.089275e+001 -1.685818e+002 -1.297424e+001 1.434678e+002 -1.307683e+001 1.443037e+002 -8.872518e+000 -1.765589e+002
20478175000 -1.084462e+001 -1.684077e+002 -1.296977e+001 1.416078e+002 -1.307636e+001 1.423888e+002 -8.837799e+000 -1.769423e+002
20496918750 -1.078487e+001 -1.681976e+002 -1.297245e+001 1.396015e+002 -1.307851e+001 1.404420e+002 -8.806103e+000 -1.772757e+002
20515662500 -1.073842e+001 -1.680194e+002 -1.296964e+001 1.376720e+002 -1.307402e+001 1.385432e+002 -8.778442e+000 -1.776103e+002
20534406250 -1.069978e+001 -1.679628e+002 -1.297934e+001 1.357632e+002 -1.307226e+001 1.366686e+002 -8.752353e+000 -1.779917e+002
20553150000 -1.065051e+001 -1.679555e+002 -1.297926e+001 1.338242e+002 -1.307199e+001 1.347732e+002 -8.730819e+000 -1.783683e+002
20571893750 -1.059616e+001 -1.679642e+002 -1.297851e+001 1.319651e+002 -1.306581e+001 1.328317e+002 -8.708694e+000 -1.787872e+002
20590637500 -1.053612e+001 -1.679893e+002 -1.298675e+001 1.300494e+002 -1.306260e+001 1.309777e+002 -8.676889e+000 -1.792038e+002
20609381250 -1.047412e+001 -1.679852e+002 -1.298767e+001 1.281492e+002 -1.306351e+001 1.290831e+002 -8.656896e+000 -1.795939e+002
20628125000 -1.042814e+001 -1.679641e+002 -1.298815e+001 1.263179e+002 -1.305920e+001 1.272139e+002 -8.631478e+000 1.799570e+002
20646868750 -1.038190e+001 -1.680461e+002 -1.299175e+001 1.244947e+002 -1.305055e+001 1.253238e+002 -8.610881e+000 1.795461e+002
20665612500 -1.033054e+001 -1.681548e+002 -1.298916e+001 1.225947e+002 -1.304834e+001 1.234588e+002 -8.590302e+000 1.791511e+002
20684356250 -1.028041e+001 -1.682983e+002 -1.299509e+001 1.207333e+002 -1.304671e+001 1.216189e+002 -8.574232e+000 1.786989e+002
20703100000 -1.021958e+001 -1.684706e+002 -1.300112e+001 1.188383e+002 -1.304247e+001 1.198217e+002 -8.551632e+000 1.782941e+002
20721843750 -1.016052e+001 -1.685824e+002 -1.299695e+001 1.169488e+002 -1.305007e+001 1.179599e+002 -8.540062e+000 1.778961e+002
20740587500 -1.011553e+001 -1.686901e+002 -1.300704e+001 1.151556e+002 -1.305301e+001 1.161332e+002 -8.527545e+000 1.774409e+002
20759331250 -1.006505e+001 -1.689309e+002 -1.301023e+001 1.132659e+002 -1.305087e+001 1.142827e+002 -8.517918e+000 1.769783e+002
20778075000 -1.001855e+001 -1.691683e+002 -1.300992e+001 1.114128e+002 -1.305122e+001 1.124293e+002 -8.514578e+000 1.765112e+002
20796818750 -9.968238e+000 -1.694296e+002 -1.301861e+001 1.095912e+002 -1.304837e+001 1.105928e+002 -8.509341e+000 1.760215e+002
20815562500 -9.916831e+000 -1.697170e+002 -1.302319e+001 1.077142e+002 -1.304612e+001 1.087825e+002 -8.498012e+000 1.755462e+002
20834306250 -9.862906e+000 -1.699140e+002 -1.301380e+001 1.058722e+002 -1.303947e+001 1.069768e+002 -8.493454e+000 1.750926e+002
20853050000 -9.823812e+000 -1.701825e+002 -1.302418e+001 1.040932e+002 -1.304279e+001 1.051481e+002 -8.498345e+000 1.746316e+002
20871793750 -9.792727e+000 -1.704556e+002 -1.303082e+001 1.022675e+002 -1.304084e+001 1.033313e+002 -8.501322e+000 1.741924e+002
20890537500 -9.761495e+000 -1.707666e+002 -1.303028e+001 1.004638e+002 -1.303809e+001 1.015511e+002 -8.507255e+000 1.736966e+002
20909281250 -9.723333e+000 -1.711711e+002 -1.303835e+001 9.860110e+001 -1.303783e+001 9.973489e+001 -8.513616e+000 1.732070e+002
20928025000 -9.680296e+000 -1.715318e+002 -1.303369e+001 9.684462e+001 -1.303886e+001 9.797339e+001 -8.521893e+000 1.727397e+002
20946768750 -9.642257e+000 -1.718061e+002 -1.303165e+001 9.507870e+001 -1.304219e+001 9.616605e+001 -8.537069e+000 1.722364e+002
20965512500 -9.611626e+000 -1.721409e+002 -1.303464e+001 9.328627e+001 -1.303721e+001 9.436784e+001 -8.549376e+000 1.717454e+002
20984256250 -9.577910e+000 -1.725043e+002 -1.303501e+001 9.145893e+001 -1.303896e+001 9.255487e+001 -8.569213e+000 1.712953e+002
21003000000 -9.558321e+000 -1.728742e+002 -1.303253e+001 8.966708e+001 -1.303942e+001 9.080566e+001 -8.589833e+000 1.707760e+002
21021743750 -9.529199e+000 -1.732647e+002 -1.303324e+001 8.787939e+001 -1.303913e+001 8.897194e+001 -8.605604e+000 1.702951e+002
21040487500 -9.494350e+000 -1.736601e+002 -1.303021e+001 8.607407e+001 -1.303620e+001 8.720712e+001 -8.623854e+000 1.698713e+002
21059231250 -9.470935e+000 -1.740040e+002 -1.302899e+001 8.428121e+001 -1.304100e+001 8.541163e+001 -8.656628e+000 1.694154e+002
21077975000 -9.452294e+000 -1.743293e+002 -1.303003e+001 8.246724e+001 -1.304614e+001 8.361238e+001 -8.685752e+000 1.689463e+002
21096718750 -9.437657e+000 -1.746960e+002 -1.303199e+001 8.068418e+001 -1.304782e+001 8.184573e+001 -8.721894e+000 1.684772e+002
21115462500 -9.426171e+000 -1.750657e+002 -1.302230e+001 7.891988e+001 -1.304765e+001 8.005015e+001 -8.760769e+000 1.679967e+002
21134206250 -9.415199e+000 -1.754729e+002 -1.302908e+001 7.713730e+001 -1.304509e+001 7.821745e+001 -8.794441e+000 1.675088e+002
21152950000 -9.398734e+000 -1.758541e+002 -1.302469e+001 7.534941e+001 -1.304333e+001 7.646948e+001 -8.831893e+000 1.671282e+002
21171693750 -9.393177e+000 -1.762075e+002 -1.302100e+001 7.356549e+001 -1.304249e+001 7.464760e+001 -8.880265e+000 1.667185e+002
21190437500 -9.393733e+000 -1.765448e+002 -1.302089e+001 7.177841e+001 -1.304745e+001 7.284903e+001 -8.925939e+000 1.662760e+002
21209181250 -9.397077e+000 -1.769306e+002 -1.301411e+001 6.994830e+001 -1.304687e+001 7.108946e+001 -8.979715e+000 1.658863e+002
21227925000 -9.406425e+000 -1.773949e+002 -1.301216e+001 6.816287e+001 -1.304955e+001 6.929355e+001 -9.031807e+000 1.654534e+002
21246668750 -9.398284e+000 -1.777994e+002 -1.301143e+001 6.638813e+001 -1.303604e+001 6.747912e+001 -9.077780e+000 1.650391e+002
21265412500 -9.392154e+000 -1.781775e+002 -1.301274e+001 6.462743e+001 -1.303121e+001 6.563987e+001 -9.132489e+000 1.646747e+002
21284156250 -9.398379e+000 -1.785106e+002 -1.301074e+001 6.284236e+001 -1.303712e+001 6.386068e+001 -9.193190e+000 1.643128e+002
21302900000 -9.404172e+000 -1.788746e+002 -1.300388e+001 6.103452e+001 -1.302625e+001 6.200132e+001 -9.255065e+000 1.639724e+002
21321643750 -9.417471e+000 -1.792626e+002 -1.300032e+001 5.921464e+001 -1.302144e+001 6.017208e+001 -9.327085e+000 1.636236e+002
21340387500 -9.434566e+000 -1.796205e+002 -1.299812e+001 5.739610e+001 -1.302025e+001 5.837570e+001 -9.401711e+000 1.632700e+002
21359131250 -9.437640e+000 1.799512e+002 -1.299951e+001 5.558566e+001 -1.301174e+001 5.652776e+001 -9.462253e+000 1.629717e+002
21377875000 -9.437479e+000 1.796206e+002 -1.299814e+001 5.379720e+001 -1.300542e+001 5.473376e+001 -9.533833e+000 1.627482e+002
21396618750 -9.448319e+000 1.793498e+002 -1.300016e+001 5.198232e+001 -1.301062e+001 5.285561e+001 -9.618114e+000 1.624837e+002
21415362500 -9.466928e+000 1.790364e+002 -1.299213e+001 5.020211e+001 -1.300093e+001 5.105864e+001 -9.690708e+000 1.622370e+002
21434106250 -9.486177e+000 1.787175e+002 -1.299061e+001 4.840552e+001 -1.299900e+001 4.920253e+001 -9.780995e+000 1.620218e+002
21452850000 -9.508048e+000 1.782853e+002 -1.299352e+001 4.658483e+001 -1.299615e+001 4.730875e+001 -9.872231e+000 1.617658e+002
21471593750 -9.519282e+000 1.779639e+002 -1.299658e+001 4.479758e+001 -1.299169e+001 4.545578e+001 -9.952684e+000 1.616036e+002
21490337500 -9.527419e+000 1.777238e+002 -1.299144e+001 4.298381e+001 -1.299045e+001 4.361351e+001 -1.004839e+001 1.615327e+002
21509081250 -9.549014e+000 1.774413e+002 -1.299033e+001 4.113725e+001 -1.299458e+001 4.171903e+001 -1.013888e+001 1.614264e+002
21527825000 -9.567277e+000 1.771913e+002 -1.298943e+001 3.931974e+001 -1.298807e+001 3.987169e+001 -1.023335e+001 1.613489e+002
21546568750 -9.595140e+000 1.769127e+002 -1.299224e+001 3.746814e+001 -1.298866e+001 3.800338e+001 -1.033094e+001 1.613075e+002
21565312500 -9.621800e+000 1.765808e+002 -1.298861e+001 3.567238e+001 -1.299026e+001 3.609393e+001 -1.042464e+001 1.612006e+002
21584056250 -9.631481e+000 1.762780e+002 -1.299447e+001 3.382764e+001 -1.298368e+001 3.421144e+001 -1.050994e+001 1.611860e+002
21602800000 -9.637233e+000 1.761069e+002 -1.299416e+001 3.198658e+001 -1.298749e+001 3.236728e+001 -1.060717e+001 1.612406e+002
21621543750 -9.654364e+000 1.759165e+002 -1.299828e+001 3.016529e+001 -1.298462e+001 3.045881e+001 -1.070727e+001 1.613283e+002
21640287500 -9.676288e+000 1.757424e+002 -1.300243e+001 2.836646e+001 -1.298596e+001 2.856409e+001 -1.080926e+001 1.614464e+002
21659031250 -9.696630e+000 1.755882e+002 -1.300468e+001 2.648282e+001 -1.299683e+001 2.668206e+001 -1.091502e+001 1.615789e+002
21677775000 -9.722900e+000 1.753141e+002 -1.300306e+001 2.461454e+001 -1.300277e+001 2.477032e+001 -1.100117e+001 1.617173e+002
21696518750 -9.732591e+000 1.751031e+002 -1.300715e+001 2.272920e+001 -1.300537e+001 2.294291e+001 -1.108215e+001 1.619551e+002
21715262500 -9.741594e+000 1.749517e+002 -1.300303e+001 2.085290e+001 -1.300313e+001 2.109864e+001 -1.117870e+001 1.622587e+002
21734006250 -9.767906e+000 1.748645e+002 -1.300989e+001 1.899236e+001 -1.301379e+001 1.920006e+001 -1.126412e+001 1.625385e+002
21752750000 -9.791640e+000 1.747802e+002 -1.301960e+001 1.712730e+001 -1.301960e+001 1.735218e+001 -1.135081e+001 1.629318e+002
21771493750 -9.819023e+000 1.746281e+002 -1.302471e+001 1.529196e+001 -1.302827e+001 1.542337e+001 -1.144425e+001 1.632085e+002
21790237500 -9.844279e+000 1.744163e+002 -1.302878e+001 1.343180e+001 -1.303301e+001 1.351236e+001 -1.151667e+001 1.635409e+002
21808981250 -9.854927e+000 1.742504e+002 -1.303232e+001 1.153416e+001 -1.304050e+001 1.162645e+001 -1.158127e+001 1.639819e+002
21827725000 -9.863194e+000 1.742108e+002 -1.304043e+001 9.656027e+000 -1.305248e+001 9.724250e+000 -1.165497e+001 1.645376e+002
21846468750 -9.880897e+000 1.741637e+002 -1.304955e+001 7.786969e+000 -1.306355e+001 7.772682e+000 -1.171749e+001 1.650588e+002
21865212500 -9.901918e+000 1.741637e+002 -1.305936e+001 5.862887e+000 -1.306974e+001 5.910021e+000 -1.178135e+001 1.656289e+002
21883956250 -9.931374e+000 1.741268e+002 -1.305931e+001 3.946926e+000 -1.309153e+001 4.008369e+000 -1.183744e+001 1.661809e+002
21902700000 -9.950550e+000 1.739582e+002 -1.306832e+001 2.031364e+000 -1.310447e+001 2.117828e+000 -1.188218e+001 1.667065e+002
21921443750 -9.958598e+000 1.738312e+002 -1.308482e+001 1.159355e-001 -1.311755e+001 2.660734e-001 -1.191246e+001 1.673304e+002
21940187500 -9.958594e+000 1.738190e+002 -1.309598e+001 -1.734295e+000 -1.313165e+001 -1.642491e+000 -1.195363e+001 1.679856e+002
21958931250 -9.968686e+000 1.738092e+002 -1.311152e+001 -3.634385e+000 -1.314123e+001 -3.563072e+000 -1.198090e+001 1.686928e+002
21977675000 -9.981589e+000 1.738477e+002 -1.312382e+001 -5.577440e+000 -1.315250e+001 -5.404089e+000 -1.200879e+001 1.693790e+002
21996418750 -1.000411e+001 1.737891e+002 -1.313702e+001 -7.507841e+000 -1.317238e+001 -7.304937e+000 -1.204084e+001 1.700052e+002
22015162500 -1.001516e+001 1.736676e+002 -1.315311e+001 -9.394662e+000 -1.318860e+001 -9.180871e+000 -1.204956e+001 1.706582e+002
22033906250 -1.001525e+001 1.735909e+002 -1.317037e+001 -1.134357e+001 -1.319925e+001 -1.106031e+001 -1.205239e+001 1.714311e+002
22052650000 -1.001174e+001 1.735941e+002 -1.318008e+001 -1.325832e+001 -1.322200e+001 -1.297462e+001 -1.205282e+001 1.721555e+002
22071393750 -1.001389e+001 1.736345e+002 -1.320476e+001 -1.515827e+001 -1.323631e+001 -1.482865e+001 -1.203925e+001 1.728615e+002
22090137500 -1.002962e+001 1.736738e+002 -1.322218e+001 -1.709001e+001 -1.324995e+001 -1.666280e+001 -1.202442e+001 1.736325e+002
22108881250 -1.004560e+001 1.736789e+002 -1.323960e+001 -1.897373e+001 -1.327698e+001 -1.856842e+001 -1.201947e+001 1.742853e+002
22127625000 -1.004386e+001 1.735758e+002 -1.326521e+001 -2.083961e+001 -1.329381e+001 -2.045424e+001 -1.199310e+001 1.749441e+002
22146368750 -1.003390e+001 1.735706e+002 -1.328916e+001 -2.280156e+001 -1.332188e+001 -2.239793e+001 -1.196333e+001 1.756361e+002
22165112500 -1.001818e+001 1.735973e+002 -1.331001e+001 -2.467983e+001 -1.334494e+001 -2.430207e+001 -1.193254e+001 1.763172e+002
22183856250 -1.001218e+001 1.736602e+002 -1.333598e+001 -2.663045e+001 -1.336618e+001 -2.618012e+001 -1.188739e+001 1.769344e+002
22202600000 -1.001203e+001 1.737567e+002 -1.335687e+001 -2.850259e+001 -1.339593e+001 -2.804600e+001 -1.183045e+001 1.776212e+002
22221343750 -1.001949e+001 1.737603e+002 -1.337858e+001 -3.038354e+001 -1.342617e+001 -2.994033e+001 -1.178421e+001 1.781559e+002
22240087500 -1.001737e+001 1.737134e+002 -1.340721e+001 -3.233186e+001 -1.345103e+001 -3.183627e+001 -1.171567e+001 1.786846e+002
22258831250 -1.000406e+001 1.736726e+002 -1.341958e+001 -3.423703e+001 -1.348068e+001 -3.370443e+001 -1.164395e+001 1.792301e+002
22277575000 -9.982155e+000 1.737308e+002 -1.344773e+001 -3.612071e+001 -1.350306e+001 -3.562386e+001 -1.157842e+001 1.797631e+002
22296318750 -9.961370e+000 1.737701e+002 -1.347208e+001 -3.805251e+001 -1.353375e+001 -3.748420e+001 -1.149970e+001 -1.797111e+002
22315062500 -9.953257e+000 1.738494e+002 -1.350222e+001 -3.993417e+001 -1.356347e+001 -3.934300e+001 -1.143914e+001 -1.792346e+002
22333806250 -9.949080e+000 1.738309e+002 -1.353057e+001 -4.181194e+001 -1.359161e+001 -4.126023e+001 -1.136595e+001 -1.788541e+002
22352550000 -9.932511e+000 1.737415e+002 -1.355940e+001 -4.376387e+001 -1.361837e+001 -4.317828e+001 -1.127714e+001 -1.784529e+002
22371293750 -9.910281e+000 1.737247e+002 -1.358356e+001 -4.569127e+001 -1.365439e+001 -4.507368e+001 -1.119553e+001 -1.780649e+002
22390037500 -9.885433e+000 1.737486e+002 -1.361672e+001 -4.753439e+001 -1.369330e+001 -4.695443e+001 -1.110304e+001 -1.777840e+002
22408781250 -9.864326e+000 1.737740e+002 -1.364743e+001 -4.938861e+001 -1.372908e+001 -4.883780e+001 -1.101147e+001 -1.774360e+002
22427525000 -9.848735e+000 1.738818e+002 -1.367837e+001 -5.129151e+001 -1.376446e+001 -5.074627e+001 -1.092220e+001 -1.770869e+002
22446268750 -9.842555e+000 1.738592e+002 -1.371401e+001 -5.317213e+001 -1.379287e+001 -5.267934e+001 -1.083220e+001 -1.769060e+002
22465012500 -9.821045e+000 1.737842e+002 -1.374599e+001 -5.511252e+001 -1.382854e+001 -5.456342e+001 -1.072981e+001 -1.767177e+002
22483756250 -9.799492e+000 1.737620e+002 -1.377577e+001 -5.697965e+001 -1.385686e+001 -5.647594e+001 -1.063664e+001 -1.765006e+002
22502500000 -9.771558e+000 1.737200e+002 -1.381215e+001 -5.890265e+001 -1.389253e+001 -5.842834e+001 -1.053556e+001 -1.763331e+002
22521243750 -9.744589e+000 1.737542e+002 -1.384773e+001 -6.082116e+001 -1.392698e+001 -6.033727e+001 -1.043960e+001 -1.761845e+002
22539987500 -9.729492e+000 1.737488e+002 -1.387774e+001 -6.267652e+001 -1.396289e+001 -6.224193e+001 -1.034791e+001 -1.760512e+002
22558731250 -9.723157e+000 1.736924e+002 -1.391970e+001 -6.458857e+001 -1.400596e+001 -6.417473e+001 -1.025084e+001 -1.759978e+002
22577475000 -9.702520e+000 1.735981e+002 -1.395120e+001 -6.647225e+001 -1.404352e+001 -6.611566e+001 -1.014450e+001 -1.758956e+002
22596218750 -9.675264e+000 1.734972e+002 -1.398771e+001 -6.836672e+001 -1.407598e+001 -6.797052e+001 -1.004398e+001 -1.758054e+002
22614962500 -9.642739e+000 1.734457e+002 -1.402339e+001 -7.022293e+001 -1.411804e+001 -6.988744e+001 -9.952328e+000 -1.757437e+002
22633706250 -9.617777e+000 1.734090e+002 -1.405524e+001 -7.217649e+001 -1.415115e+001 -7.178507e+001 -9.865120e+000 -1.756832e+002
22652450000 -9.595119e+000 1.734200e+002 -1.409253e+001 -7.408015e+001 -1.418850e+001 -7.364407e+001 -9.781763e+000 -1.756477e+002
22671193750 -9.585761e+000 1.733032e+002 -1.413070e+001 -7.590321e+001 -1.423257e+001 -7.555290e+001 -9.705785e+000 -1.756526e+002
22689937500 -9.557176e+000 1.731321e+002 -1.417936e+001 -7.784760e+001 -1.426817e+001 -7.750375e+001 -9.611387e+000 -1.757374e+002
22708681250 -9.534127e+000 1.730613e+002 -1.421819e+001 -7.978488e+001 -1.430744e+001 -7.933659e+001 -9.526024e+000 -1.757521e+002
22727425000 -9.505493e+000 1.729788e+002 -1.426241e+001 -8.163383e+001 -1.434855e+001 -8.131235e+001 -9.446852e+000 -1.758145e+002
22746168750 -9.476394e+000 1.729334e+002 -1.429984e+001 -8.358266e+001 -1.438279e+001 -8.322807e+001 -9.358304e+000 -1.759079e+002
22764912500 -9.463163e+000 1.729600e+002 -1.432973e+001 -8.550061e+001 -1.442852e+001 -8.508549e+001 -9.282111e+000 -1.759345e+002
22783656250 -9.451034e+000 1.728504e+002 -1.437359e+001 -8.732683e+001 -1.447683e+001 -8.700802e+001 -9.214542e+000 -1.761036e+002
22802400000 -9.427570e+000 1.727016e+002 -1.441994e+001 -8.923314e+001 -1.451532e+001 -8.889255e+001 -9.129294e+000 -1.761962e+002
22821143750 -9.404641e+000 1.726162e+002 -1.445602e+001 -9.115672e+001 -1.455488e+001 -9.078191e+001 -9.064122e+000 -1.762456e+002
22839887500 -9.382250e+000 1.725010e+002 -1.449896e+001 -9.309158e+001 -1.460361e+001 -9.277643e+001 -9.001286e+000 -1.763831e+002
22858631250 -9.352715e+000 1.724833e+002 -1.453685e+001 -9.503799e+001 -1.464158e+001 -9.465807e+001 -8.925007e+000 -1.765093e+002
22877375000 -9.335102e+000 1.724715e+002 -1.457361e+001 -9.692939e+001 -1.469339e+001 -9.655677e+001 -8.867729e+000 -1.765613e+002
22896118750 -9.325181e+000 1.723356e+002 -1.461970e+001 -9.883324e+001 -1.473897e+001 -9.848404e+001 -8.802279e+000 -1.767616e+002
22914862500 -9.297926e+000 1.721851e+002 -1.466912e+001 -1.008238e+002 -1.478715e+001 -1.003785e+002 -8.731940e+000 -1.769000e+002
22933606250 -9.269681e+000 1.721246e+002 -1.470666e+001 -1.027351e+002 -1.483266e+001 -1.023078e+002 -8.675626e+000 -1.769883e+002
22952350000 -9.239836e+000 1.719912e+002 -1.475375e+001 -1.046396e+002 -1.488051e+001 -1.042859e+002 -8.621980e+000 -1.771678e+002
22971093750 -9.209941e+000 1.720172e+002 -1.480935e+001 -1.066337e+002 -1.492758e+001 -1.062136e+002 -8.564750e+000 -1.772883e+002
22989837500 -9.197435e+000 1.720246e+002 -1.484843e+001 -1.085526e+002 -1.497925e+001 -1.080823e+002 -8.523083e+000 -1.774345e+002
23008581250 -9.186448e+000 1.719045e+002 -1.489963e+001 -1.104669e+002 -1.502453e+001 -1.099324e+002 -8.470750e+000 -1.776732e+002
23027325000 -9.161106e+000 1.718092e+002 -1.493940e+001 -1.124309e+002 -1.507882e+001 -1.119321e+002 -8.413501e+000 -1.778442e+002
23046068750 -9.139809e+000 1.717311e+002 -1.498468e+001 -1.143723e+002 -1.512998e+001 -1.138908e+002 -8.363807e+000 -1.779766e+002
23064812500 -9.107162e+000 1.716514e+002 -1.504155e+001 -1.163494e+002 -1.518423e+001 -1.157738e+002 -8.313559e+000 -1.781446e+002
23083556250 -9.077175e+000 1.716624e+002 -1.508686e+001 -1.183649e+002 -1.523475e+001 -1.177149e+002 -8.263680e+000 -1.782628e+002
23102300000 -9.058514e+000 1.716806e+002 -1.513508e+001 -1.203289e+002 -1.528937e+001 -1.196614e+002 -8.220808e+000 -1.784449e+002
23121043750 -9.045976e+000 1.716062e+002 -1.518188e+001 -1.222726e+002 -1.534078e+001 -1.215370e+002 -8.178005e+000 -1.786353e+002
23139787500 -9.018898e+000 1.714653e+002 -1.522805e+001 -1.242114e+002 -1.540917e+001 -1.235278e+002 -8.125833e+000 -1.787833e+002
23158531250 -8.995835e+000 1.714032e+002 -1.527943e+001 -1.261359e+002 -1.545738e+001 -1.254154e+002 -8.082502e+000 -1.789053e+002
23177275000 -8.963898e+000 1.713542e+002 -1.533594e+001 -1.280986e+002 -1.551760e+001 -1.273580e+002 -8.039527e+000 -1.790009e+002
23196018750 -8.933320e+000 1.713498e+002 -1.539127e+001 -1.300603e+002 -1.557010e+001 -1.293723e+002 -7.996108e+000 -1.791471e+002
23214762500 -8.917700e+000 1.713726e+002 -1.543875e+001 -1.320551e+002 -1.562532e+001 -1.313112e+002 -7.952925e+000 -1.792556e+002
23233506250 -8.891213e+000 1.712781e+002 -1.549237e+001 -1.340228e+002 -1.568152e+001 -1.332130e+002 -7.913753e+000 -1.794313e+002
23252250000 -8.857637e+000 1.711676e+002 -1.554076e+001 -1.359703e+002 -1.574091e+001 -1.352054e+002 -7.867227e+000 -1.795580e+002
23270993750 -8.821949e+000 1.711261e+002 -1.560056e+001 -1.378975e+002 -1.579254e+001 -1.371238e+002 -7.824914e+000 -1.796413e+002
23289737500 -8.786146e+000 1.710312e+002 -1.565956e+001 -1.399308e+002 -1.585960e+001 -1.390737e+002 -7.789765e+000 -1.797495e+002
23308481250 -8.752743e+000 1.710491e+002 -1.572387e+001 -1.419040e+002 -1.592906e+001 -1.410753e+002 -7.745882e+000 -1.798877e+002
23327225000 -8.727377e+000 1.710336e+002 -1.578147e+001 -1.438549e+002 -1.598697e+001 -1.430818e+002 -7.710995e+000 -1.799818e+002
23345968750 -8.703851e+000 1.709566e+002 -1.584401e+001 -1.458035e+002 -1.604733e+001 -1.449951e+002 -7.668828e+000 1.799022e+002
23364712500 -8.672702e+000 1.708523e+002 -1.590272e+001 -1.477505e+002 -1.611735e+001 -1.469416e+002 -7.619965e+000 1.798223e+002
23383456250 -8.632540e+000 1.708091e+002 -1.595936e+001 -1.497483e+002 -1.618072e+001 -1.488639e+002 -7.581012e+000 1.797794e+002
23402200000 -8.587908e+000 1.707321e+002 -1.601469e+001 -1.517664e+002 -1.624598e+001 -1.508361e+002 -7.548315e+000 1.796816e+002
23420943750 -8.546266e+000 1.706998e+002 -1.608420e+001 -1.537389e+002 -1.631775e+001 -1.528563e+002 -7.506586e+000 1.795988e+002
23439687500 -8.516908e+000 1.706393e+002 -1.614923e+001 -1.557400e+002 -1.638133e+001 -1.548486e+002 -7.467043e+000 1.795177e+002
23458431250 -8.479066e+000 1.705166e+002 -1.622274e+001 -1.577399e+002 -1.645519e+001 -1.567797e+002 -7.427340e+000 1.794093e+002
23477175000 -8.432081e+000 1.703947e+002 -1.629376e+001 -1.597135e+002 -1.652481e+001 -1.587488e+002 -7.379242e+000 1.793701e+002
23495918750 -8.389593e+000 1.703075e+002 -1.635646e+001 -1.616773e+002 -1.658887e+001 -1.607168e+002 -7.339891e+000 1.793316e+002
23514662500 -8.342007e+000 1.702347e+002 -1.642564e+001 -1.636609e+002 -1.666415e+001 -1.627043e+002 -7.301766e+000 1.792417e+002
23533406250 -8.296881e+000 1.701869e+002 -1.649943e+001 -1.657085e+002 -1.672960e+001 -1.646677e+002 -7.262187e+000 1.792146e+002
23552150000 -8.261339e+000 1.700950e+002 -1.657129e+001 -1.677111e+002 -1.680921e+001 -1.666449e+002 -7.223958e+000 1.791259e+002
23570893750 -8.216365e+000 1.699320e+002 -1.664903e+001 -1.697558e+002 -1.687895e+001 -1.685965e+002 -7.183785e+000 1.790094e+002
23589637500 -8.164884e+000 1.698134e+002 -1.672813e+001 -1.718073e+002 -1.695514e+001 -1.706603e+002 -7.137539e+000 1.789698e+002
23608381250 -8.118876e+000 1.696718e+002 -1.680076e+001 -1.738097e+002 -1.702267e+001 -1.726133e+002 -7.097817e+000 1.789042e+002
23627125000 -8.061905e+000 1.695378e+002 -1.688231e+001 -1.758351e+002 -1.710546e+001 -1.745914e+002 -7.057362e+000 1.788162e+002
23645868750 -8.009888e+000 1.694396e+002 -1.696808e+001 -1.778395e+002 -1.717515e+001 -1.765626e+002 -7.015681e+000 1.787438e+002
23664612500 -7.974588e+000 1.692858e+002 -1.704437e+001 -1.798320e+002 -1.725518e+001 -1.785453e+002 -6.972015e+000 1.786420e+002
23683356250 -7.928663e+000 1.690778e+002 -1.712902e+001 1.780744e+002 -1.734170e+001 1.794425e+002 -6.921110e+000 1.785174e+002
23702100000 -7.876061e+000 1.689109e+002 -1.720851e+001 1.760291e+002 -1.742493e+001 1.773916e+002 -6.872045e+000 1.784687e+002
23720843750 -7.827505e+000 1.687321e+002 -1.728560e+001 1.740857e+002 -1.750180e+001 1.754127e+002 -6.830498e+000 1.784007e+002
23739587500 -7.772192e+000 1.685568e+002 -1.735831e+001 1.721171e+002 -1.757834e+001 1.734408e+002 -6.786605e+000 1.783168e+002
23758331250 -7.724949e+000 1.684236e+002 -1.743335e+001 1.700892e+002 -1.765902e+001 1.714652e+002 -6.742954e+000 1.782354e+002
23777075000 -7.684885e+000 1.681740e+002 -1.751085e+001 1.680887e+002 -1.774576e+001 1.694935e+002 -6.698856e+000 1.780980e+002
23795818750 -7.629872e+000 1.679193e+002 -1.759953e+001 1.660177e+002 -1.783153e+001 1.675039e+002 -6.647538e+000 1.779536e+002
23814562500 -7.585394e+000 1.677047e+002 -1.768122e+001 1.639818e+002 -1.791428e+001 1.654561e+002 -6.596937e+000 1.778726e+002
23833306250 -7.532465e+000 1.674675e+002 -1.775782e+001 1.620026e+002 -1.800096e+001 1.634388e+002 -6.548415e+000 1.777872e+002
23852050000 -7.477912e+000 1.672443e+002 -1.783829e+001 1.598923e+002 -1.807864e+001 1.614447e+002 -6.497076e+000 1.776735e+002
23870793750 -7.428857e+000 1.670557e+002 -1.792682e+001 1.578269e+002 -1.816347e+001 1.593553e+002 -6.451889e+000 1.775629e+002
23889537500 -7.393341e+000 1.667750e+002 -1.801408e+001 1.557845e+002 -1.824517e+001 1.573238e+002 -6.401953e+000 1.773725e+002
23908281250 -7.341536e+000 1.664611e+002 -1.810342e+001 1.536917e+002 -1.832484e+001 1.553158e+002 -6.346241e+000 1.772295e+002
23927025000 -7.291423e+000 1.662000e+002 -1.819165e+001 1.516710e+002 -1.841021e+001 1.532107e+002 -6.296700e+000 1.771118e+002
23945768750 -7.247672e+000 1.658573e+002 -1.828331e+001 1.496697e+002 -1.849383e+001 1.511859e+002 -6.252947e+000 1.769794e+002
23964512500 -7.191909e+000 1.655810e+002 -1.837475e+001 1.475788e+002 -1.857482e+001 1.491306e+002 -6.195753e+000 1.768074e+002
23983256250 -7.154702e+000 1.653491e+002 -1.846030e+001 1.455450e+002 -1.864821e+001 1.470736e+002 -6.150826e+000 1.766814e+002
24002000000 -7.120399e+000 1.650258e+002 -1.855347e+001 1.435569e+002 -1.873428e+001 1.449815e+002 -6.097466e+000 1.764932e+002
24020743750 -7.074803e+000 1.646549e+002 -1.863849e+001 1.414815e+002 -1.884030e+001 1.430076e+002 -6.039392e+000 1.763189e+002
24039487500 -7.029483e+000 1.643541e+002 -1.873025e+001 1.395391e+002 -1.893191e+001 1.409863e+002 -5.992063e+000 1.761685e+002
24058231250 -6.990565e+000 1.639619e+002 -1.881322e+001 1.375028e+002 -1.901967e+001 1.389286e+002 -5.943456e+000 1.759845e+002
24076975000 -6.941658e+000 1.636822e+002 -1.889935e+001 1.353335e+002 -1.912646e+001 1.368454e+002 -5.893609e+000 1.758036e+002
24095718750 -6.911119e+000 1.634108e+002 -1.898469e+001 1.331993e+002 -1.921264e+001 1.348163e+002 -5.846011e+000 1.756107e+002
24114462500 -6.877618e+000 1.630259e+002 -1.908244e+001 1.311488e+002 -1.930324e+001 1.328945e+002 -5.799695e+000 1.753932e+002
24133206250 -6.836790e+000 1.626654e+002 -1.917425e+001 1.290394e+002 -1.938566e+001 1.309345e+002 -5.742822e+000 1.751765e+002
24151950000 -6.801922e+000 1.622841e+002 -1.927731e+001 1.270159e+002 -1.948370e+001 1.287884e+002 -5.696091e+000 1.750016e+002
24170693750 -6.760664e+000 1.618910e+002 -1.938243e+001 1.248586e+002 -1.957015e+001 1.268126e+002 -5.651720e+000 1.747932e+002
24189437500 -6.718637e+000 1.615821e+002 -1.946945e+001 1.227268e+002 -1.967381e+001 1.247302e+002 -5.606727e+000 1.745917e+002
24208181250 -6.690142e+000 1.612933e+002 -1.956219e+001 1.206556e+002 -1.976920e+001 1.226399e+002 -5.564999e+000 1.743631e+002
24226925000 -6.662394e+000 1.608823e+002 -1.965379e+001 1.185580e+002 -1.986633e+001 1.205732e+002 -5.520755e+000 1.740953e+002
24245668750 -6.627677e+000 1.605209e+002 -1.975190e+001 1.164234e+002 -1.995993e+001 1.185123e+002 -5.471299e+000 1.738620e+002
24264412500 -6.604344e+000 1.600949e+002 -1.985735e+001 1.143713e+002 -2.005856e+001 1.164873e+002 -5.428575e+000 1.736284e+002
24283156250 -6.572601e+000 1.597046e+002 -1.996776e+001 1.122365e+002 -2.016288e+001 1.144255e+002 -5.385501e+000 1.733701e+002
24301900000 -6.537887e+000 1.593958e+002 -2.006676e+001 1.101642e+002 -2.026234e+001 1.124729e+002 -5.342715e+000 1.731560e+002
24320643750 -6.517105e+000 1.590783e+002 -2.017238e+001 1.080941e+002 -2.036226e+001 1.103221e+002 -5.308660e+000 1.729034e+002
24339387500 -6.496220e+000 1.586927e+002 -2.027483e+001 1.060076e+002 -2.048031e+001 1.083072e+002 -5.266311e+000 1.726196e+002
24358131250 -6.472652e+000 1.583364e+002 -2.037856e+001 1.039518e+002 -2.059107e+001 1.062398e+002 -5.220335e+000 1.723818e+002
24376875000 -6.451137e+000 1.579509e+002 -2.048018e+001 1.017369e+002 -2.068140e+001 1.041542e+002 -5.179317e+000 1.721196e+002
24395618750 -6.426261e+000 1.575622e+002 -2.059113e+001 9.964737e+001 -2.078950e+001 1.020484e+002 -5.138559e+000 1.718506e+002
24414362500 -6.402118e+000 1.572407e+002 -2.069253e+001 9.759810e+001 -2.090021e+001 9.992103e+001 -5.096772e+000 1.716108e+002
24433106250 -6.387465e+000 1.568773e+002 -2.079867e+001 9.550396e+001 -2.100203e+001 9.787417e+001 -5.060482e+000 1.713224e+002
24451850000 -6.367413e+000 1.565175e+002 -2.090668e+001 9.332439e+001 -2.109578e+001 9.574719e+001 -5.019578e+000 1.710205e+002
24470593750 -6.348681e+000 1.561830e+002 -2.102259e+001 9.111569e+001 -2.120953e+001 9.362299e+001 -4.975782e+000 1.707950e+002
24489337500 -6.335103e+000 1.558418e+002 -2.115204e+001 8.902721e+001 -2.131086e+001 9.151307e+001 -4.941157e+000 1.705319e+002
24508081250 -6.316216e+000 1.554848e+002 -2.126098e+001 8.692928e+001 -2.140909e+001 8.944394e+001 -4.901506e+000 1.702632e+002
24526825000 -6.297236e+000 1.552076e+002 -2.138109e+001 8.491548e+001 -2.151603e+001 8.722518e+001 -4.864639e+000 1.700268e+002
24545568750 -6.288561e+000 1.548865e+002 -2.149483e+001 8.285470e+001 -2.160665e+001 8.503898e+001 -4.828105e+000 1.697348e+002
24564312500 -6.269536e+000 1.545213e+002 -2.160134e+001 8.069182e+001 -2.174046e+001 8.283501e+001 -4.786948e+000 1.694411e+002
24583056250 -6.257794e+000 1.542446e+002 -2.171706e+001 7.848452e+001 -2.185023e+001 8.070528e+001 -4.745318e+000 1.692009e+002
24601800000 -6.248063e+000 1.538857e+002 -2.184891e+001 7.642273e+001 -2.198396e+001 7.852120e+001 -4.706855e+000 1.688958e+002
24620543750 -6.228601e+000 1.535510e+002 -2.198528e+001 7.426183e+001 -2.210400e+001 7.644376e+001 -4.664897e+000 1.686106e+002
24639287500 -6.216938e+000 1.532612e+002 -2.210723e+001 7.205506e+001 -2.222597e+001 7.425666e+001 -4.628091e+000 1.683572e+002
24658031250 -6.212368e+000 1.529168e+002 -2.223351e+001 6.992484e+001 -2.234311e+001 7.213305e+001 -4.591248e+000 1.680311e+002
24676775000 -6.195237e+000 1.526131e+002 -2.234111e+001 6.787305e+001 -2.247235e+001 7.003075e+001 -4.546469e+000 1.677564e+002
24695518750 -6.188029e+000 1.523618e+002 -2.247878e+001 6.574199e+001 -2.260290e+001 6.784959e+001 -4.506752e+000 1.675174e+002
24714262500 -6.175389e+000 1.520208e+002 -2.258761e+001 6.366751e+001 -2.272404e+001 6.584226e+001 -4.470352e+000 1.672212e+002
24733006250 -6.152986e+000 1.517431e+002 -2.269691e+001 6.152689e+001 -2.286056e+001 6.364727e+001 -4.426411e+000 1.669209e+002
24751750000 -6.142437e+000 1.514752e+002 -2.282693e+001 5.934523e+001 -2.299627e+001 6.164348e+001 -4.388210e+000 1.666956e+002
24770493750 -6.126047e+000 1.511410e+002 -2.296227e+001 5.717599e+001 -2.311596e+001 5.946968e+001 -4.346554e+000 1.663817e+002
24789237500 -6.105822e+000 1.508719e+002 -2.309937e+001 5.496778e+001 -2.324439e+001 5.739132e+001 -4.303860e+000 1.661221e+002
24807981250 -6.095911e+000 1.506410e+002 -2.325324e+001 5.292075e+001 -2.339202e+001 5.525790e+001 -4.266838e+000 1.658931e+002
24826725000 -6.082289e+000 1.503437e+002 -2.338433e+001 5.070251e+001 -2.353155e+001 5.324892e+001 -4.232651e+000 1.656004e+002
24845468750 -6.055812e+000 1.501408e+002 -2.353428e+001 4.860146e+001 -2.365940e+001 5.112455e+001 -4.192586e+000 1.653434e+002
24864212500 -6.042459e+000 1.499246e+002 -2.368350e+001 4.638614e+001 -2.378599e+001 4.906595e+001 -4.157164e+000 1.650622e+002
24882956250 -6.027352e+000 1.496164e+002 -2.381958e+001 4.435701e+001 -2.392052e+001 4.692850e+001 -4.113104e+000 1.647615e+002
24901700000 -6.000301e+000 1.493881e+002 -2.396595e+001 4.230681e+001 -2.406163e+001 4.486107e+001 -4.063858e+000 1.645130e+002
24920443750 -5.986966e+000 1.491514e+002 -2.411689e+001 4.015066e+001 -2.422500e+001 4.276580e+001 -4.021300e+000 1.642500e+002
24939187500 -5.956193e+000 1.488832e+002 -2.427527e+001 3.809528e+001 -2.437466e+001 4.084542e+001 -3.975238e+000 1.639539e+002
24957931250 -5.933376e+000 1.486508e+002 -2.442769e+001 3.591320e+001 -2.454252e+001 3.867891e+001 -3.930448e+000 1.636692e+002
24976675000 -5.917091e+000 1.484456e+002 -2.458042e+001 3.381598e+001 -2.470200e+001 3.677045e+001 -3.894416e+000 1.633919e+002
24995418750 -5.894505e+000 1.481888e+002 -2.476472e+001 3.166910e+001 -2.485130e+001 3.461282e+001 -3.849315e+000 1.630578e+002
25014162500 -5.866133e+000 1.479856e+002 -2.494138e+001 2.957306e+001 -2.499513e+001 3.264637e+001 -3.805368e+000 1.627552e+002
25032906250 -5.846771e+000 1.477804e+002 -2.508478e+001 2.744630e+001 -2.511406e+001 3.072264e+001 -3.765632e+000 1.624384e+002
25051650000 -5.820707e+000 1.475324e+002 -2.521266e+001 2.542885e+001 -2.524405e+001 2.864041e+001 -3.718271e+000 1.620708e+002
25070393750 -5.786224e+000 1.473424e+002 -2.536274e+001 2.354897e+001 -2.542863e+001 2.654109e+001 -3.674915e+000 1.617732e+002
25089137500 -5.762464e+000 1.471502e+002 -2.552028e+001 2.167149e+001 -2.558717e+001 2.458554e+001 -3.636273e+000 1.614684e+002
25107881250 -5.733873e+000 1.468668e+002 -2.568928e+001 1.986890e+001 -2.573806e+001 2.257771e+001 -3.590406e+000 1.611192e+002
25126625000 -5.699016e+000 1.466801e+002 -2.582294e+001 1.794444e+001 -2.589871e+001 2.055303e+001 -3.549287e+000 1.607962e+002
25145368750 -5.677320e+000 1.464550e+002 -2.601109e+001 1.613221e+001 -2.604943e+001 1.867013e+001 -3.514870e+000 1.604458e+002
25164112500 -5.648831e+000 1.461779e+002 -2.619100e+001 1.429279e+001 -2.620890e+001 1.676058e+001 -3.473521e+000 1.601144e+002
25182856250 -5.620460e+000 1.459836e+002 -2.634393e+001 1.249991e+001 -2.635869e+001 1.475590e+001 -3.436125e+000 1.597874e+002
25201600000 -5.605276e+000 1.457261e+002 -2.649957e+001 1.067434e+001 -2.652881e+001 1.288904e+001 -3.402911e+000 1.594040e+002
25220343750 -5.572948e+000 1.454201e+002 -2.668277e+001 8.881744e+000 -2.673260e+001 1.103921e+001 -3.362756e+000 1.590320e+002
25239087500 -5.538501e+000 1.452082e+002 -2.685683e+001 7.102755e+000 -2.689522e+001 8.900988e+000 -3.323567e+000 1.586969e+002
25257831250 -5.510275e+000 1.449353e+002 -2.704908e+001 5.238071e+000 -2.708766e+001 7.020773e+000 -3.292718e+000 1.583485e+002
25276575000 -5.473050e+000 1.446235e+002 -2.721686e+001 3.274010e+000 -2.727611e+001 5.223099e+000 -3.251914e+000 1.579954e+002
25295318750 -5.445105e+000 1.443935e+002 -2.738432e+001 1.576587e+000 -2.747038e+001 3.442697e+000 -3.219521e+000 1.576679e+002
25314062500 -5.422323e+000 1.441285e+002 -2.756213e+001 -2.410829e-001 -2.766097e+001 1.679407e+000 -3.190253e+000 1.572862e+002
25332806250 -5.383235e+000 1.437972e+002 -2.773421e+001 -1.914199e+000 -2.782106e+001 -6.902092e-003 -3.154273e+000 1.569184e+002
25351550000 -5.345803e+000 1.435565e+002 -2.789409e+001 -3.645305e+000 -2.798580e+001 -1.601362e+000 -3.124902e+000 1.566072e+002
25370293750 -5.321586e+000 1.432219e+002 -2.805080e+001 -5.573529e+000 -2.816599e+001 -3.658786e+000 -3.094902e+000 1.562630e+002
25389037500 -5.288714e+000 1.429039e+002 -2.823709e+001 -7.013583e+000 -2.834294e+001 -4.992892e+000 -3.069852e+000 1.559134e+002
25407781250 -5.253089e+000 1.426115e+002 -2.838192e+001 -8.653368e+000 -2.851066e+001 -6.710252e+000 -3.034616e+000 1.555935e+002
25426525000 -5.232778e+000 1.423232e+002 -2.850644e+001 -1.015463e+001 -2.867542e+001 -8.109825e+000 -3.015586e+000 1.552799e+002
25445268750 -5.196078e+000 1.419235e+002 -2.863103e+001 -1.164540e+001 -2.884129e+001 -9.535693e+000 -2.984690e+000 1.549084e+002
25464012500 -5.154337e+000 1.416132e+002 -2.880533e+001 -1.313415e+001 -2.901247e+001 -1.122259e+001 -2.953395e+000 1.546400e+002
25482756250 -5.118911e+000 1.413264e+002 -2.904320e+001 -1.431554e+001 -2.919102e+001 -1.283248e+001 -2.934728e+000 1.543883e+002
25501500000 -5.091311e+000 1.410103e+002 -2.918933e+001 -1.587882e+001 -2.930866e+001 -1.423916e+001 -2.909069e+000 1.540314e+002
25520243750 -5.054381e+000 1.406417e+002 -2.933487e+001 -1.747902e+001 -2.941879e+001 -1.573224e+001 -2.875413e+000 1.537448e+002
25538987500 -5.023724e+000 1.403121e+002 -2.950974e+001 -1.938726e+001 -2.960327e+001 -1.704949e+001 -2.858005e+000 1.534641e+002
25557731250 -4.993116e+000 1.399294e+002 -2.972822e+001 -2.081724e+001 -2.974761e+001 -1.820849e+001 -2.829555e+000 1.531518e+002
25576475000 -4.949501e+000 1.395715e+002 -2.987008e+001 -2.235322e+001 -2.992056e+001 -2.002411e+001 -2.796526e+000 1.529093e+002
25595218750 -4.915091e+000 1.392619e+002 -3.003917e+001 -2.370041e+001 -3.004922e+001 -2.150476e+001 -2.781224e+000 1.526348e+002
25613962500 -4.882302e+000 1.389121e+002 -3.015232e+001 -2.506332e+001 -3.022000e+001 -2.294751e+001 -2.756623e+000 1.522791e+002
25632706250 -4.839845e+000 1.385931e+002 -3.031172e+001 -2.630147e+001 -3.038057e+001 -2.471727e+001 -2.727645e+000 1.520123e+002
25651450000 -4.807052e+000 1.382763e+002 -3.045115e+001 -2.751279e+001 -3.046059e+001 -2.628764e+001 -2.708663e+000 1.517328e+002
25670193750 -4.776662e+000 1.378693e+002 -3.054948e+001 -2.890113e+001 -3.057917e+001 -2.752356e+001 -2.682168e+000 1.513963e+002
25688937500 -4.739118e+000 1.374978e+002 -3.066054e+001 -2.999112e+001 -3.069086e+001 -2.901977e+001 -2.648453e+000 1.511346e+002
25707681250 -4.711007e+000 1.371804e+002 -3.086512e+001 -3.138638e+001 -3.080150e+001 -3.042851e+001 -2.631793e+000 1.508472e+002
25726425000 -4.674500e+000 1.368174e+002 -3.097223e+001 -3.259679e+001 -3.088664e+001 -3.175082e+001 -2.607970e+000 1.504964e+002
25745168750 -4.636191e+000 1.364370e+002 -3.109276e+001 -3.357522e+001 -3.103073e+001 -3.303712e+001 -2.585589e+000 1.502426e+002
25763912500 -4.614251e+000 1.360748e+002 -3.124138e+001 -3.489348e+001 -3.116210e+001 -3.440413e+001 -2.571424e+000 1.499385e+002
25782656250 -4.587566e+000 1.356583e+002 -3.140813e+001 -3.595362e+001 -3.134072e+001 -3.590269e+001 -2.542918e+000 1.495877e+002
25801400000 -4.553752e+000 1.353032e+002 -3.153764e+001 -3.679390e+001 -3.145653e+001 -3.683547e+001 -2.522957e+000 1.493064e+002
25820143750 -4.515387e+000 1.349611e+002 -3.164651e+001 -3.841767e+001 -3.153898e+001 -3.825254e+001 -2.503227e+000 1.490262e+002
25838887500 -4.492034e+000 1.345611e+002 -3.179659e+001 -3.992389e+001 -3.170449e+001 -3.956461e+001 -2.486532e+000 1.486980e+002
25857631250 -4.454867e+000 1.341367e+002 -3.194977e+001 -4.117850e+001 -3.183929e+001 -4.062870e+001 -2.461358e+000 1.483719e+002
25876375000 -4.430245e+000 1.337769e+002 -3.208570e+001 -4.260828e+001 -3.195928e+001 -4.200582e+001 -2.445326e+000 1.481003e+002
25895118750 -4.411732e+000 1.333461e+002 -3.219110e+001 -4.395363e+001 -3.211354e+001 -4.361752e+001 -2.426850e+000 1.477596e+002
25913862500 -4.383195e+000 1.328852e+002 -3.233043e+001 -4.597481e+001 -3.222333e+001 -4.482027e+001 -2.404294e+000 1.474482e+002
25932606250 -4.352730e+000 1.324697e+002 -3.252120e+001 -4.720276e+001 -3.234069e+001 -4.635134e+001 -2.390594e+000 1.471871e+002
25951350000 -4.334216e+000 1.321259e+002 -3.271301e+001 -4.835929e+001 -3.253878e+001 -4.745486e+001 -2.384528e+000 1.468578e+002
25970093750 -4.307199e+000 1.316889e+002 -3.282480e+001 -4.967238e+001 -3.267960e+001 -4.920110e+001 -2.364226e+000 1.465237e+002
25988837500 -4.280550e+000 1.312793e+002 -3.289605e+001 -5.113646e+001 -3.281892e+001 -5.065033e+001 -2.350637e+000 1.462150e+002
26007581250 -4.262726e+000 1.308583e+002 -3.304223e+001 -5.268855e+001 -3.294207e+001 -5.199863e+001 -2.336436e+000 1.458721e+002
26026325000 -4.236724e+000 1.304167e+002 -3.316771e+001 -5.406425e+001 -3.313961e+001 -5.326898e+001 -2.312669e+000 1.455721e+002
26045068750 -4.206976e+000 1.300171e+002 -3.335221e+001 -5.549585e+001 -3.324598e+001 -5.419338e+001 -2.303984e+000 1.452924e+002
26063812500 -4.194671e+000 1.295872e+002 -3.343174e+001 -5.679555e+001 -3.334687e+001 -5.548258e+001 -2.297207e+000 1.449480e+002
26082556250 -4.174608e+000 1.291201e+002 -3.351709e+001 -5.810217e+001 -3.353583e+001 -5.669936e+001 -2.276923e+000 1.446244e+002
26101300000 -4.149530e+000 1.286903e+002 -3.369851e+001 -5.920346e+001 -3.366907e+001 -5.757593e+001 -2.266335e+000 1.443370e+002
26120043750 -4.129503e+000 1.282847e+002 -3.379663e+001 -6.064354e+001 -3.378581e+001 -5.875033e+001 -2.256470e+000 1.440188e+002
26138787500 -4.104012e+000 1.278224e+002 -3.385971e+001 -6.212596e+001 -3.391615e+001 -5.962365e+001 -2.240925e+000 1.437167e+002
26157531250 -4.083423e+000 1.274269e+002 -3.401901e+001 -6.354954e+001 -3.411787e+001 -6.121228e+001 -2.232422e+000 1.434619e+002
26176275000 -4.073395e+000 1.269956e+002 -3.417865e+001 -6.467753e+001 -3.416164e+001 -6.249652e+001 -2.219933e+000 1.430975e+002
26195018750 -4.052838e+000 1.265366e+002 -3.427481e+001 -6.575541e+001 -3.425761e+001 -6.356158e+001 -2.202870e+000 1.427813e+002
26213762500 -4.027541e+000 1.261166e+002 -3.436827e+001 -6.705476e+001 -3.430219e+001 -6.455281e+001 -2.198816e+000 1.425038e+002
26232506250 -4.013059e+000 1.256514e+002 -3.444258e+001 -6.866343e+001 -3.447272e+001 -6.592480e+001 -2.186862e+000 1.421881e+002
26251250000 -3.989275e+000 1.251945e+002 -3.457851e+001 -6.979001e+001 -3.467009e+001 -6.740563e+001 -2.175322e+000 1.419070e+002
26269993750 -3.968958e+000 1.248328e+002 -3.473091e+001 -7.072411e+001 -3.481078e+001 -6.838712e+001 -2.171839e+000 1.416080e+002
26288737500 -3.958256e+000 1.243941e+002 -3.485096e+001 -7.217300e+001 -3.491112e+001 -6.970904e+001 -2.163657e+000 1.412652e+002
26307481250 -3.934519e+000 1.239516e+002 -3.500537e+001 -7.307415e+001 -3.505586e+001 -7.090995e+001 -2.150967e+000 1.409591e+002
26326225000 -3.918288e+000 1.235564e+002 -3.519055e+001 -7.429610e+001 -3.524394e+001 -7.154986e+001 -2.152053e+000 1.406375e+002
26344968750 -3.906031e+000 1.231093e+002 -3.529598e+001 -7.428451e+001 -3.533313e+001 -7.254662e+001 -2.143404e+000 1.402971e+002
26363712500 -3.882066e+000 1.227123e+002 -3.539758e+001 -7.557895e+001 -3.549323e+001 -7.321178e+001 -2.134367e+000 1.399930e+002
26382456250 -3.866975e+000 1.223389e+002 -3.550607e+001 -7.654106e+001 -3.555844e+001 -7.427834e+001 -2.133366e+000 1.396486e+002
26401200000 -3.859674e+000 1.218867e+002 -3.570588e+001 -7.674257e+001 -3.564972e+001 -7.509360e+001 -2.127559e+000 1.392600e+002
26419943750 -3.842352e+000 1.214368e+002 -3.587653e+001 -7.761069e+001 -3.573641e+001 -7.601051e+001 -2.117859e+000 1.389581e+002
26438687500 -3.831273e+000 1.210297e+002 -3.596229e+001 -7.845499e+001 -3.582299e+001 -7.721880e+001 -2.118868e+000 1.386434e+002
26457431250 -3.819887e+000 1.205486e+002 -3.609105e+001 -7.942558e+001 -3.587011e+001 -7.833147e+001 -2.110851e+000 1.382957e+002
26476175000 -3.797703e+000 1.201388e+002 -3.615571e+001 -8.079813e+001 -3.602534e+001 -7.882828e+001 -2.109151e+000 1.379998e+002
26494918750 -3.786943e+000 1.197893e+002 -3.639120e+001 -8.195966e+001 -3.612354e+001 -7.963866e+001 -2.112469e+000 1.376344e+002
26513662500 -3.781169e+000 1.193411e+002 -3.655707e+001 -8.351791e+001 -3.630608e+001 -8.093388e+001 -2.111167e+000 1.372117e+002
26532406250 -3.765759e+000 1.189197e+002 -3.662107e+001 -8.472352e+001 -3.642450e+001 -8.210796e+001 -2.103722e+000 1.369029e+002
26551150000 -3.757745e+000 1.184722e+002 -3.674591e+001 -8.560194e+001 -3.656023e+001 -8.290508e+001 -2.101951e+000 1.365344e+002
26569893750 -3.743543e+000 1.180109e+002 -3.693262e+001 -8.659257e+001 -3.666565e+001 -8.406543e+001 -2.097957e+000 1.361907e+002
26588637500 -3.726206e+000 1.176278e+002 -3.702247e+001 -8.778117e+001 -3.670173e+001 -8.530665e+001 -2.100832e+000 1.358899e+002
26607381250 -3.721231e+000 1.172475e+002 -3.712341e+001 -8.923562e+001 -3.690418e+001 -8.648217e+001 -2.110545e+000 1.354873e+002
26626125000 -3.715764e+000 1.168031e+002 -3.718081e+001 -8.976854e+001 -3.705514e+001 -8.763972e+001 -2.110311e+000 1.350850e+002
26644868750 -3.704635e+000 1.163735e+002 -3.726027e+001 -9.088278e+001 -3.719674e+001 -8.858546e+001 -2.109194e+000 1.347583e+002
26663612500 -3.699968e+000 1.159542e+002 -3.744024e+001 -9.108759e+001 -3.723177e+001 -8.941801e+001 -2.110074e+000 1.343512e+002
26682356250 -3.688088e+000 1.155322e+002 -3.752273e+001 -9.179895e+001 -3.733839e+001 -9.035643e+001 -2.104462e+000 1.340013e+002
26701100000 -3.675468e+000 1.151623e+002 -3.770441e+001 -9.270847e+001 -3.746525e+001 -9.177423e+001 -2.110033e+000 1.336815e+002
26719843750 -3.676794e+000 1.147730e+002 -3.780973e+001 -9.317918e+001 -3.757550e+001 -9.259412e+001 -2.118101e+000 1.332786e+002
26738587500 -3.674230e+000 1.143392e+002 -3.786454e+001 -9.399496e+001 -3.764966e+001 -9.330597e+001 -2.115514e+000 1.328808e+002
26757331250 -3.666670e+000 1.139309e+002 -3.791098e+001 -9.503776e+001 -3.768566e+001 -9.440862e+001 -2.114236e+000 1.325146e+002
26776075000 -3.661920e+000 1.135102e+002 -3.799717e+001 -9.708136e+001 -3.781400e+001 -9.450003e+001 -2.117756e+000 1.321467e+002
26794818750 -3.647965e+000 1.130728e+002 -3.809440e+001 -9.736528e+001 -3.785408e+001 -9.526864e+001 -2.113398e+000 1.317979e+002
26813562500 -3.636101e+000 1.127013e+002 -3.821136e+001 -9.763259e+001 -3.805751e+001 -9.622820e+001 -2.123899e+000 1.314840e+002
26832306250 -3.635880e+000 1.123196e+002 -3.829791e+001 -9.948209e+001 -3.821953e+001 -9.604398e+001 -2.128619e+000 1.310725e+002
26851050000 -3.626929e+000 1.119169e+002 -3.834335e+001 -1.010316e+002 -3.831770e+001 -9.602359e+001 -2.128073e+000 1.306713e+002
26869793750 -3.619972e+000 1.115132e+002 -3.841532e+001 -1.016064e+002 -3.842036e+001 -9.619965e+001 -2.128931e+000 1.303150e+002
26888537500 -3.616636e+000 1.110864e+002 -3.857920e+001 -1.024898e+002 -3.849380e+001 -9.671254e+001 -2.133119e+000 1.299062e+002
26907281250 -3.606389e+000 1.106907e+002 -3.871590e+001 -1.025895e+002 -3.862563e+001 -9.785510e+001 -2.127571e+000 1.295742e+002
26926025000 -3.602431e+000 1.103346e+002 -3.885934e+001 -1.027464e+002 -3.873383e+001 -9.767998e+001 -2.133381e+000 1.292428e+002
26944768750 -3.601519e+000 1.099579e+002 -3.890605e+001 -1.026332e+002 -3.875203e+001 -9.729682e+001 -2.136214e+000 1.288358e+002
26963512500 -3.600949e+000 1.095497e+002 -3.907488e+001 -1.030867e+002 -3.880614e+001 -9.764678e+001 -2.134103e+000 1.284385e+002
26982256250 -3.601663e+000 1.091780e+002 -3.913812e+001 -1.038318e+002 -3.878403e+001 -9.817513e+001 -2.140504e+000 1.280685e+002
27001000000 -3.601681e+000 1.087677e+002 -3.915527e+001 -1.041699e+002 -3.897865e+001 -9.898250e+001 -2.140522e+000 1.276752e+002
27019743750 -3.591743e+000 1.083727e+002 -3.921176e+001 -1.039957e+002 -3.908232e+001 -9.862703e+001 -2.140232e+000 1.273121e+002
27038487500 -3.586939e+000 1.080473e+002 -3.921702e+001 -1.041766e+002 -3.916553e+001 -9.867344e+001 -2.147767e+000 1.269871e+002
27057231250 -3.588997e+000 1.076497e+002 -3.940842e+001 -1.050268e+002 -3.924754e+001 -9.880117e+001 -2.148534e+000 1.265666e+002
27075975000 -3.587241e+000 1.072725e+002 -3.946570e+001 -1.059844e+002 -3.928697e+001 -9.953940e+001 -2.145843e+000 1.261892e+002
27094718750 -3.584341e+000 1.068917e+002 -3.957994e+001 -1.063544e+002 -3.941640e+001 -1.003970e+002 -2.150673e+000 1.258094e+002
27113462500 -3.583688e+000 1.064541e+002 -3.962837e+001 -1.067815e+002 -3.949436e+001 -1.000104e+002 -2.148941e+000 1.254119e+002
27132206250 -3.575300e+000 1.060672e+002 -3.968674e+001 -1.060531e+002 -3.944859e+001 -1.001281e+002 -2.151482e+000 1.250516e+002
27150950000 -3.572269e+000 1.057214e+002 -3.967240e+001 -1.062946e+002 -3.952112e+001 -1.005262e+002 -2.159076e+000 1.246548e+002
27169693750 -3.571842e+000 1.053450e+002 -3.979309e+001 -1.073043e+002 -3.966474e+001 -1.001762e+002 -2.158722e+000 1.242246e+002
27188437500 -3.568340e+000 1.049656e+002 -3.983594e+001 -1.070353e+002 -3.960703e+001 -1.002331e+002 -2.153453e+000 1.238830e+002
27207181250 -3.571840e+000 1.045735e+002 -3.980615e+001 -1.070267e+002 -3.966182e+001 -1.013759e+002 -2.152924e+000 1.234686e+002
27225925000 -3.575364e+000 1.041467e+002 -3.990068e+001 -1.077900e+002 -3.971677e+001 -1.017589e+002 -2.146578e+000 1.230776e+002
27244668750 -3.569918e+000 1.037837e+002 -3.986246e+001 -1.088215e+002 -3.964338e+001 -1.020777e+002 -2.144182e+000 1.227138e+002
27263412500 -3.572121e+000 1.034287e+002 -3.990778e+001 -1.087561e+002 -3.961708e+001 -1.030837e+002 -2.155459e+000 1.223181e+002
27282156250 -3.575650e+000 1.030132e+002 -3.997177e+001 -1.081502e+002 -3.966280e+001 -1.044111e+002 -2.147604e+000 1.218862e+002
27300900000 -3.576173e+000 1.026382e+002 -4.005892e+001 -1.088787e+002 -3.966266e+001 -1.048179e+002 -2.147443e+000 1.215122e+002
27319643750 -3.580546e+000 1.022405e+002 -3.997012e+001 -1.089510e+002 -3.972000e+001 -1.050950e+002 -2.147702e+000 1.211076e+002
27338387500 -3.580941e+000 1.017813e+002 -3.992294e+001 -1.095789e+002 -3.978815e+001 -1.061859e+002 -2.138298e+000 1.207254e+002
27357131250 -3.572941e+000 1.014040e+002 -3.992451e+001 -1.110128e+002 -3.987738e+001 -1.072233e+002 -2.139497e+000 1.203911e+002
27375875000 -3.575681e+000 1.010410e+002 -3.992936e+001 -1.122266e+002 -3.986446e+001 -1.081864e+002 -2.145952e+000 1.199965e+002
27394618750 -3.574452e+000 1.006297e+002 -3.990239e+001 -1.129343e+002 -3.998107e+001 -1.085283e+002 -2.138598e+000 1.195878e+002
27413362500 -3.573190e+000 1.002486e+002 -3.994547e+001 -1.129497e+002 -4.009085e+001 -1.086090e+002 -2.138545e+000 1.192623e+002
27432106250 -3.582636e+000 9.985238e+001 -4.001754e+001 -1.130038e+002 -3.998492e+001 -1.090123e+002 -2.136890e+000 1.188415e+002
27450850000 -3.586455e+000 9.941856e+001 -4.006571e+001 -1.143455e+002 -3.995799e+001 -1.094699e+002 -2.126937e+000 1.184641e+002
27469593750 -3.580450e+000 9.904980e+001 -4.010990e+001 -1.150912e+002 -3.995050e+001 -1.095825e+002 -2.134797e+000 1.181006e+002
27488337500 -3.585409e+000 9.866895e+001 -4.008889e+001 -1.159265e+002 -3.988520e+001 -1.105011e+002 -2.143980e+000 1.176603e+002
27507081250 -3.588148e+000 9.828294e+001 -4.012717e+001 -1.157879e+002 -3.992890e+001 -1.114760e+002 -2.136390e+000 1.172502e+002
27525825000 -3.591234e+000 9.795070e+001 -4.014653e+001 -1.166290e+002 -3.991679e+001 -1.118330e+002 -2.139932e+000 1.168899e+002
27544568750 -3.604232e+000 9.755670e+001 -4.016995e+001 -1.171414e+002 -3.985008e+001 -1.125828e+002 -2.139493e+000 1.164651e+002
27563312500 -3.603123e+000 9.715317e+001 -4.011472e+001 -1.189581e+002 -3.987440e+001 -1.131261e+002 -2.124554e+000 1.161360e+002
27582056250 -3.603029e+000 9.680081e+001 -4.032323e+001 -1.196477e+002 -3.982635e+001 -1.140920e+002 -2.127202e+000 1.158550e+002
27600800000 -3.612325e+000 9.640720e+001 -4.027073e+001 -1.204022e+002 -3.982535e+001 -1.157901e+002 -2.128422e+000 1.154414e+002
27619543750 -3.606482e+000 9.601046e+001 -4.030237e+001 -1.212452e+002 -3.989134e+001 -1.166923e+002 -2.120208e+000 1.150692e+002
27638287500 -3.605771e+000 9.569105e+001 -4.032856e+001 -1.219712e+002 -4.005206e+001 -1.168396e+002 -2.125939e+000 1.147234e+002
27657031250 -3.616006e+000 9.529205e+001 -4.032487e+001 -1.223237e+002 -4.000142e+001 -1.181056e+002 -2.124120e+000 1.142923e+002
27675775000 -3.618242e+000 9.486873e+001 -4.028972e+001 -1.230893e+002 -3.996707e+001 -1.191176e+002 -2.113086e+000 1.139790e+002
27694518750 -3.620019e+000 9.451884e+001 -4.015210e+001 -1.230816e+002 -4.011414e+001 -1.199992e+002 -2.112521e+000 1.136699e+002
27713262500 -3.630937e+000 9.414205e+001 -4.011045e+001 -1.241646e+002 -4.007865e+001 -1.206831e+002 -2.113286e+000 1.132654e+002
27732006250 -3.631211e+000 9.378123e+001 -4.009568e+001 -1.244290e+002 -4.025324e+001 -1.213389e+002 -2.100325e+000 1.129536e+002
27750750000 -3.637654e+000 9.344459e+001 -4.013841e+001 -1.251954e+002 -4.033559e+001 -1.221447e+002 -2.107279e+000 1.125971e+002
27769493750 -3.654321e+000 9.303619e+001 -4.023388e+001 -1.253316e+002 -4.022979e+001 -1.222394e+002 -2.102632e+000 1.121810e+002
27788237500 -3.655103e+000 9.265388e+001 -4.017973e+001 -1.248019e+002 -4.018980e+001 -1.233016e+002 -2.094976e+000 1.118820e+002
27806981250 -3.665320e+000 9.229391e+001 -4.020943e+001 -1.250908e+002 -4.019048e+001 -1.236202e+002 -2.102052e+000 1.115740e+002
27825725000 -3.671371e+000 9.191001e+001 -4.022321e+001 -1.257323e+002 -4.018645e+001 -1.245493e+002 -2.103656e+000 1.111612e+002
27844468750 -3.674317e+000 9.155216e+001 -4.022134e+001 -1.264146e+002 -4.015989e+001 -1.264013e+002 -2.097202e+000 1.108119e+002
27863212500 -3.681122e+000 9.119641e+001 -4.019090e+001 -1.274643e+002 -4.022997e+001 -1.264772e+002 -2.101471e+000 1.104499e+002
27881956250 -3.688950e+000 9.078478e+001 -4.020198e+001 -1.270134e+002 -4.023166e+001 -1.269023e+002 -2.093621e+000 1.100588e+002
27900700000 -3.696063e+000 9.037586e+001 -4.022591e+001 -1.276433e+002 -4.026011e+001 -1.283443e+002 -2.076361e+000 1.098041e+002
27919443750 -3.708731e+000 9.002732e+001 -4.027039e+001 -1.284155e+002 -4.030883e+001 -1.294851e+002 -2.082320e+000 1.095048e+002
27938187500 -3.714968e+000 8.962082e+001 -4.029359e+001 -1.290062e+002 -4.028270e+001 -1.286478e+002 -2.075346e+000 1.091245e+002
27956931250 -3.721576e+000 8.925528e+001 -4.026143e+001 -1.299128e+002 -4.032763e+001 -1.292674e+002 -2.068747e+000 1.088518e+002
27975675000 -3.731673e+000 8.891226e+001 -4.030003e+001 -1.305621e+002 -4.035086e+001 -1.307984e+002 -2.075505e+000 1.085039e+002
27994418750 -3.745089e+000 8.849979e+001 -4.025230e+001 -1.314204e+002 -4.038855e+001 -1.307670e+002 -2.066685e+000 1.081152e+002
28013162500 -3.749696e+000 8.812447e+001 -4.013144e+001 -1.324651e+002 -4.038571e+001 -1.314948e+002 -2.063890e+000 1.078237e+002
28031906250 -3.761364e+000 8.776199e+001 -4.025571e+001 -1.317685e+002 -4.038885e+001 -1.315876e+002 -2.072231e+000 1.075254e+002
28050650000 -3.777166e+000 8.735573e+001 -4.023557e+001 -1.321027e+002 -4.042035e+001 -1.323251e+002 -2.069761e+000 1.071749e+002
28069393750 -3.791741e+000 8.697701e+001 -4.038967e+001 -1.320708e+002 -4.032385e+001 -1.333557e+002 -2.068601e+000 1.068985e+002
28088137500 -3.803861e+000 8.663280e+001 -4.029440e+001 -1.331687e+002 -4.041068e+001 -1.340006e+002 -2.078054e+000 1.065587e+002
28106881250 -3.815584e+000 8.624195e+001 -4.055289e+001 -1.337458e+002 -4.051023e+001 -1.350381e+002 -2.067367e+000 1.062126e+002
28125625000 -3.824969e+000 8.588683e+001 -4.065759e+001 -1.348490e+002 -4.048879e+001 -1.359320e+002 -2.067725e+000 1.059607e+002
28144368750 -3.839124e+000 8.553474e+001 -4.069506e+001 -1.356362e+002 -4.062990e+001 -1.365815e+002 -2.077022e+000 1.056200e+002
28163112500 -3.851261e+000 8.515614e+001 -4.071975e+001 -1.365022e+002 -4.052142e+001 -1.376658e+002 -2.076003e+000 1.052702e+002
28181856250 -3.863665e+000 8.483678e+001 -4.071113e+001 -1.377926e+002 -4.035262e+001 -1.382228e+002 -2.078828e+000 1.050275e+002
28200600000 -3.877020e+000 8.455460e+001 -4.074628e+001 -1.385245e+002 -4.040196e+001 -1.391063e+002 -2.083613e+000 1.046992e+002
28219343750 -3.894033e+000 8.418095e+001 -4.067629e+001 -1.407283e+002 -4.034560e+001 -1.398551e+002 -2.075506e+000 1.044228e+002
28238087500 -3.901932e+000 8.385298e+001 -4.069149e+001 -1.418237e+002 -4.045092e+001 -1.418952e+002 -2.075416e+000 1.041662e+002
28256831250 -3.918634e+000 8.352209e+001 -4.072259e+001 -1.428837e+002 -4.040857e+001 -1.433570e+002 -2.078546e+000 1.038812e+002
28275575000 -3.930583e+000 8.318266e+001 -4.087824e+001 -1.439474e+002 -4.054781e+001 -1.437511e+002 -2.075210e+000 1.035940e+002
28294318750 -3.941721e+000 8.289680e+001 -4.096433e+001 -1.451781e+002 -4.065451e+001 -1.461125e+002 -2.083798e+000 1.033357e+002
28313062500 -3.961432e+000 8.259192e+001 -4.096075e+001 -1.464431e+002 -4.081072e+001 -1.477580e+002 -2.087329e+000 1.030162e+002
28331806250 -3.978678e+000 8.227725e+001 -4.106878e+001 -1.478568e+002 -4.076796e+001 -1.488557e+002 -2.083200e+000 1.027191e+002
28350550000 -3.989111e+000 8.197207e+001 -4.101180e+001 -1.484194e+002 -4.093458e+001 -1.494904e+002 -2.086634e+000 1.024805e+002
28369293750 -4.011580e+000 8.166828e+001 -4.097209e+001 -1.496958e+002 -4.104866e+001 -1.520835e+002 -2.093939e+000 1.021663e+002
28388037500 -4.022196e+000 8.133679e+001 -4.113200e+001 -1.521386e+002 -4.112608e+001 -1.534122e+002 -2.099888e+000 1.018865e+002
28406781250 -4.035017e+000 8.105585e+001 -4.121123e+001 -1.532377e+002 -4.128693e+001 -1.539606e+002 -2.111380e+000 1.016147e+002
28425525000 -4.049781e+000 8.079124e+001 -4.136739e+001 -1.545621e+002 -4.143284e+001 -1.556081e+002 -2.115625e+000 1.012656e+002
28444268750 -4.067728e+000 8.047620e+001 -4.150960e+001 -1.555215e+002 -4.157925e+001 -1.575320e+002 -2.114301e+000 1.010126e+002
28463012500 -4.082326e+000 8.021143e+001 -4.149362e+001 -1.573591e+002 -4.154807e+001 -1.595465e+002 -2.120915e+000 1.007434e+002
28481756250 -4.098275e+000 7.995412e+001 -4.193543e+001 -1.592520e+002 -4.182609e+001 -1.610533e+002 -2.126967e+000 1.004241e+002
28500500000 -4.106322e+000 7.968903e+001 -4.193583e+001 -1.612852e+002 -4.190935e+001 -1.625301e+002 -2.126998e+000 1.001835e+002
28519243750 -4.119705e+000 7.945860e+001 -4.216299e+001 -1.624461e+002 -4.209923e+001 -1.628717e+002 -2.136294e+000 9.991550e+001
28537987500 -4.136231e+000 7.920978e+001 -4.217884e+001 -1.633348e+002 -4.221395e+001 -1.629239e+002 -2.140792e+000 9.960159e+001
28556731250 -4.149511e+000 7.894489e+001 -4.230035e+001 -1.650372e+002 -4.241785e+001 -1.630593e+002 -2.138491e+000 9.934225e+001
28575475000 -4.157387e+000 7.869030e+001 -4.250953e+001 -1.655265e+002 -4.256610e+001 -1.648460e+002 -2.150708e+000 9.909022e+001
28594218750 -4.169577e+000 7.840986e+001 -4.284221e+001 -1.676714e+002 -4.286946e+001 -1.660698e+002 -2.155848e+000 9.878259e+001
28612962500 -4.177820e+000 7.812685e+001 -4.310772e+001 -1.679446e+002 -4.324533e+001 -1.665304e+002 -2.155594e+000 9.850743e+001
28631706250 -4.184340e+000 7.788290e+001 -4.347691e+001 -1.686477e+002 -4.370847e+001 -1.653135e+002 -2.166742e+000 9.819774e+001
28650450000 -4.194315e+000 7.762695e+001 -4.390871e+001 -1.672448e+002 -4.402062e+001 -1.654264e+002 -2.169337e+000 9.784802e+001
28669193750 -4.202710e+000 7.736512e+001 -4.420826e+001 -1.660885e+002 -4.436820e+001 -1.649277e+002 -2.171718e+000 9.762759e+001
28687937500 -4.210630e+000 7.712022e+001 -4.449669e+001 -1.666247e+002 -4.460546e+001 -1.643288e+002 -2.187222e+000 9.731683e+001
28706681250 -4.225389e+000 7.684964e+001 -4.466299e+001 -1.675710e+002 -4.477255e+001 -1.642544e+002 -2.193315e+000 9.699907e+001
28725425000 -4.234459e+000 7.658568e+001 -4.478596e+001 -1.665741e+002 -4.485021e+001 -1.637973e+002 -2.201320e+000 9.672339e+001
28744168750 -4.243871e+000 7.634416e+001 -4.503379e+001 -1.672036e+002 -4.499213e+001 -1.622197e+002 -2.215243e+000 9.640069e+001
28762912500 -4.254399e+000 7.609290e+001 -4.529016e+001 -1.666484e+002 -4.517674e+001 -1.613839e+002 -2.217377e+000 9.608736e+001
28781656250 -4.261905e+000 7.582863e+001 -4.551881e+001 -1.658459e+002 -4.543127e+001 -1.603688e+002 -2.220523e+000 9.582089e+001
28800400000 -4.267446e+000 7.557047e+001 -4.596368e+001 -1.659535e+002 -4.574118e+001 -1.588153e+002 -2.233145e+000 9.554599e+001
28819143750 -4.279890e+000 7.530089e+001 -4.603029e+001 -1.638837e+002 -4.580185e+001 -1.584999e+002 -2.234493e+000 9.523370e+001
28837887500 -4.287322e+000 7.502919e+001 -4.611535e+001 -1.638386e+002 -4.587185e+001 -1.565486e+002 -2.239573e+000 9.497116e+001
28856631250 -4.298851e+000 7.475344e+001 -4.625514e+001 -1.635527e+002 -4.588919e+001 -1.566301e+002 -2.256816e+000 9.465411e+001
28875375000 -4.307917e+000 7.451669e+001 -4.644252e+001 -1.626860e+002 -4.607010e+001 -1.547577e+002 -2.258918e+000 9.432191e+001
28894118750 -4.318908e+000 7.424923e+001 -4.657034e+001 -1.619962e+002 -4.647377e+001 -1.525829e+002 -2.273345e+000 9.404756e+001
28912862500 -4.329329e+000 7.397334e+001 -4.635281e+001 -1.608447e+002 -4.634455e+001 -1.508582e+002 -2.287239e+000 9.373274e+001
28931606250 -4.340858e+000 7.370034e+001 -4.653416e+001 -1.596575e+002 -4.648041e+001 -1.505472e+002 -2.293712e+000 9.336083e+001
28950350000 -4.351230e+000 7.343758e+001 -4.658556e+001 -1.585343e+002 -4.657654e+001 -1.506797e+002 -2.307425e+000 9.307844e+001
28969093750 -4.362332e+000 7.320074e+001 -4.665730e+001 -1.575595e+002 -4.673510e+001 -1.502565e+002 -2.316837e+000 9.272548e+001
28987837500 -4.370187e+000 7.294117e+001 -4.671109e+001 -1.573911e+002 -4.646838e+001 -1.501299e+002 -2.321945e+000 9.244011e+001
29006581250 -4.384935e+000 7.269278e+001 -4.659672e+001 -1.562034e+002 -4.629806e+001 -1.482103e+002 -2.337333e+000 9.219893e+001
29025325000 -4.397848e+000 7.246701e+001 -4.647862e+001 -1.536992e+002 -4.619787e+001 -1.456937e+002 -2.358152e+000 9.182441e+001
29044068750 -4.407967e+000 7.221828e+001 -4.627835e+001 -1.531794e+002 -4.607661e+001 -1.457709e+002 -2.368291e+000 9.148444e+001
29062812500 -4.420545e+000 7.195948e+001 -4.597472e+001 -1.527386e+002 -4.570779e+001 -1.468481e+002 -2.387695e+000 9.117847e+001
29081556250 -4.433767e+000 7.173255e+001 -4.575707e+001 -1.527134e+002 -4.552112e+001 -1.457417e+002 -2.399098e+000 9.078564e+001
29100300000 -4.449850e+000 7.150589e+001 -4.558041e+001 -1.528986e+002 -4.520720e+001 -1.446260e+002 -2.404510e+000 9.045835e+001
29119043750 -4.470320e+000 7.130240e+001 -4.548635e+001 -1.521660e+002 -4.515126e+001 -1.447027e+002 -2.421165e+000 9.015279e+001
29137787500 -4.482338e+000 7.105691e+001 -4.522250e+001 -1.511910e+002 -4.505182e+001 -1.445475e+002 -2.435528e+000 8.976309e+001
29156531250 -4.493252e+000 7.081255e+001 -4.520176e+001 -1.513493e+002 -4.491605e+001 -1.439906e+002 -2.441525e+000 8.943985e+001
29175275000 -4.499685e+000 7.058411e+001 -4.511913e+001 -1.509597e+002 -4.470690e+001 -1.453537e+002 -2.461335e+000 8.911850e+001
29194018750 -4.506688e+000 7.038793e+001 -4.489756e+001 -1.509808e+002 -4.462170e+001 -1.459412e+002 -2.479260e+000 8.871062e+001
29212762500 -4.518584e+000 7.020757e+001 -4.485507e+001 -1.514213e+002 -4.433880e+001 -1.464538e+002 -2.488551e+000 8.838089e+001
29231506250 -4.527971e+000 6.999943e+001 -4.455824e+001 -1.510165e+002 -4.414328e+001 -1.465969e+002 -2.511165e+000 8.803551e+001
29250250000 -4.538630e+000 6.979291e+001 -4.448130e+001 -1.516836e+002 -4.402696e+001 -1.463919e+002 -2.525093e+000 8.759199e+001
29268993750 -4.548505e+000 6.957544e+001 -4.445868e+001 -1.512333e+002 -4.395898e+001 -1.477262e+002 -2.533328e+000 8.723381e+001
29287737500 -4.554514e+000 6.936365e+001 -4.425016e+001 -1.498596e+002 -4.380936e+001 -1.477763e+002 -2.553169e+000 8.689359e+001
29306481250 -4.562119e+000 6.917790e+001 -4.403094e+001 -1.503406e+002 -4.362150e+001 -1.480223e+002 -2.559354e+000 8.650107e+001
29325225000 -4.568009e+000 6.900635e+001 -4.394950e+001 -1.501922e+002 -4.319306e+001 -1.492935e+002 -2.564503e+000 8.619109e+001
29343968750 -4.582439e+000 6.882223e+001 -4.385713e+001 -1.507424e+002 -4.311990e+001 -1.503452e+002 -2.587842e+000 8.582086e+001
29362712500 -4.592705e+000 6.862457e+001 -4.378827e+001 -1.503595e+002 -4.287816e+001 -1.502245e+002 -2.599429e+000 8.541195e+001
29381456250 -4.595825e+000 6.840662e+001 -4.365750e+001 -1.500572e+002 -4.264087e+001 -1.500075e+002 -2.609499e+000 8.503310e+001
29400200000 -4.599432e+000 6.819776e+001 -4.349467e+001 -1.508934e+002 -4.241176e+001 -1.505135e+002 -2.636551e+000 8.463403e+001
29418943750 -4.604952e+000 6.802609e+001 -4.333694e+001 -1.507813e+002 -4.242695e+001 -1.508038e+002 -2.643565e+000 8.419808e+001
29437687500 -4.609665e+000 6.787637e+001 -4.328717e+001 -1.519697e+002 -4.238940e+001 -1.517569e+002 -2.651841e+000 8.383256e+001
29456431250 -4.618317e+000 6.768713e+001 -4.309537e+001 -1.533949e+002 -4.234499e+001 -1.536881e+002 -2.674129e+000 8.346844e+001
29475175000 -4.625945e+000 6.748750e+001 -4.317215e+001 -1.542006e+002 -4.225759e+001 -1.540751e+002 -2.683471e+000 8.307204e+001
29493918750 -4.625502e+000 6.727693e+001 -4.306734e+001 -1.550824e+002 -4.217597e+001 -1.554579e+002 -2.695295e+000 8.269994e+001
29512662500 -4.623790e+000 6.709475e+001 -4.299848e+001 -1.566168e+002 -4.213958e+001 -1.565625e+002 -2.719910e+000 8.229087e+001
29531406250 -4.622129e+000 6.694537e+001 -4.296314e+001 -1.572776e+002 -4.194034e+001 -1.585202e+002 -2.723868e+000 8.186213e+001
29550150000 -4.623642e+000 6.677770e+001 -4.276149e+001 -1.574745e+002 -4.184103e+001 -1.593824e+002 -2.738503e+000 8.152843e+001
29568893750 -4.628985e+000 6.661723e+001 -4.277399e+001 -1.587462e+002 -4.165836e+001 -1.604789e+002 -2.760790e+000 8.112606e+001
29587637500 -4.631547e+000 6.640611e+001 -4.256743e+001 -1.594836e+002 -4.153381e+001 -1.607381e+002 -2.770565e+000 8.069531e+001
29606381250 -4.627715e+000 6.621906e+001 -4.257936e+001 -1.596200e+002 -4.153454e+001 -1.615013e+002 -2.783145e+000 8.032548e+001
29625125000 -4.624101e+000 6.603217e+001 -4.253399e+001 -1.606561e+002 -4.144359e+001 -1.625574e+002 -2.797615e+000 7.990551e+001
29643868750 -4.618224e+000 6.587798e+001 -4.229181e+001 -1.631133e+002 -4.134698e+001 -1.638163e+002 -2.802459e+000 7.950073e+001
29662612500 -4.621866e+000 6.572317e+001 -4.216060e+001 -1.642947e+002 -4.114241e+001 -1.657828e+002 -2.818851e+000 7.913362e+001
29681356250 -4.628184e+000 6.550932e+001 -4.198048e+001 -1.653699e+002 -4.102994e+001 -1.675317e+002 -2.836739e+000 7.872351e+001
29700100000 -4.629850e+000 6.527886e+001 -4.188556e+001 -1.672629e+002 -4.087486e+001 -1.700842e+002 -2.849301e+000 7.829660e+001
29718843750 -4.629692e+000 6.508182e+001 -4.193760e+001 -1.694111e+002 -4.098293e+001 -1.717437e+002 -2.860282e+000 7.793062e+001
29737587500 -4.625447e+000 6.488519e+001 -4.186472e+001 -1.710457e+002 -4.089274e+001 -1.731648e+002 -2.881710e+000 7.746306e+001
29756331250 -4.625962e+000 6.472742e+001 -4.172965e+001 -1.725313e+002 -4.093835e+001 -1.754492e+002 -2.884775e+000 7.704482e+001
29775075000 -4.627038e+000 6.457023e+001 -4.167423e+001 -1.741997e+002 -4.093671e+001 -1.775945e+002 -2.900003e+000 7.675259e+001
29793818750 -4.631684e+000 6.435313e+001 -4.144175e+001 -1.776257e+002 -4.107203e+001 -1.794682e+002 -2.923681e+000 7.639014e+001
29812562500 -4.639017e+000 6.414246e+001 -4.134339e+001 1.788323e+002 -4.117627e+001 1.784858e+002 -2.934560e+000 7.601878e+001
29831306250 -4.645818e+000 6.392420e+001 -4.123463e+001 1.761467e+002 -4.126492e+001 1.765928e+002 -2.946046e+000 7.572234e+001
29850050000 -4.650804e+000 6.370016e+001 -4.119621e+001 1.740592e+002 -4.133834e+001 1.744421e+002 -2.972465e+000 7.536078e+001
29868793750 -4.651341e+000 6.349310e+001 -4.115199e+001 1.715019e+002 -4.145201e+001 1.726923e+002 -2.980638e+000 7.501202e+001
29887537500 -4.652377e+000 6.333047e+001 -4.110702e+001 1.693317e+002 -4.143245e+001 1.710507e+002 -2.985859e+000 7.475474e+001
29906281250 -4.657998e+000 6.318196e+001 -4.096359e+001 1.671154e+002 -4.152052e+001 1.692640e+002 -3.004436e+000 7.445213e+001
29925025000 -4.668903e+000 6.302809e+001 -4.095008e+001 1.646352e+002 -4.160388e+001 1.680262e+002 -3.010591e+000 7.419916e+001
29943768750 -4.678777e+000 6.284995e+001 -4.082907e+001 1.624317e+002 -4.170648e+001 1.660918e+002 -3.020692e+000 7.400806e+001
29962512500 -4.683035e+000 6.264871e+001 -4.073960e+001 1.594344e+002 -4.191953e+001 1.648800e+002 -3.043370e+000 7.374062e+001
29981256250 -4.682288e+000 6.248813e+001 -4.069723e+001 1.568124e+002 -4.198862e+001 1.634603e+002 -3.046080e+000 7.350200e+001
30000000000 -4.683242e+000 6.237112e+001 -4.065399e+001 1.550817e+002 -4.215388e+001 1.622797e+002 -3.052933e+000 7.335629e+001
