!Agilent Technologies,E8364B,MY43040894,A.07.50.67
!Agilent E8364B: A.07.50.67
!Date: Wednesday, May 13, 2020 06:21:00
!Correction: S11(Full 2 Port(1,2)) 
!S21(Full 2 Port(1,2)) 
!S12(Full 2 Port(1,2)) 
!S22(Full 2 Port(1,2)) 
!S2P File: Measurements: S11, S21, S12, S22:
# Hz S  dB   R 50
10000000 -9.626039e-002 -2.002743e+000 -5.346619e+001 6.224408e+001 -4.713853e+001 -9.865603e+001 -9.719694e-002 -4.780834e+000
28743750 -9.483706e-002 -2.281469e+000 -5.385368e+001 6.042034e+001 -4.768066e+001 -1.124690e+002 -1.097973e-001 -5.553288e+000
47487500 -9.179661e-002 -2.591225e+000 -5.428264e+001 5.436110e+001 -4.837305e+001 -1.286661e+002 -1.226474e-001 -6.394897e+000
66231250 -8.939898e-002 -2.921687e+000 -5.463611e+001 4.288555e+001 -4.909195e+001 -1.376731e+002 -1.362145e-001 -7.277304e+000
84975000 -8.789382e-002 -3.289446e+000 -5.498634e+001 2.849245e+001 -5.040921e+001 -1.480308e+002 -1.517569e-001 -8.241405e+000
103718750 -8.812436e-002 -3.679170e+000 -5.549940e+001 1.735170e+001 -5.176211e+001 -1.565251e+002 -1.666794e-001 -9.264935e+000
122462500 -8.921836e-002 -4.074816e+000 -5.591808e+001 4.294685e-001 -5.257603e+001 -1.694983e+002 -1.792602e-001 -1.032694e+001
141206250 -8.931183e-002 -4.499853e+000 -5.646617e+001 -2.356780e+001 -5.353503e+001 -1.786917e+002 -1.945186e-001 -1.144914e+001
159950000 -8.937189e-002 -4.951724e+000 -5.703274e+001 -4.522899e+001 -5.448933e+001 1.670758e+002 -2.108016e-001 -1.263092e+001
178693750 -8.827385e-002 -5.419284e+000 -5.738298e+001 -6.510387e+001 -5.528088e+001 1.527495e+002 -2.266618e-001 -1.386003e+001
197437500 -8.811747e-002 -5.920926e+000 -5.788923e+001 -8.668613e+001 -5.660006e+001 1.424883e+002 -2.425214e-001 -1.516705e+001
216181250 -9.027360e-002 -6.446156e+000 -5.849480e+001 -1.060471e+002 -5.744087e+001 1.306672e+002 -2.594530e-001 -1.651549e+001
234925000 -8.976052e-002 -7.004319e+000 -5.909875e+001 -1.238031e+002 -5.835490e+001 1.202363e+002 -2.760255e-001 -1.793539e+001
253668750 -9.169397e-002 -7.542411e+000 -5.924830e+001 -1.388196e+002 -5.827894e+001 9.994179e+001 -2.865644e-001 -1.928908e+001
272412500 -9.515318e-002 -8.090488e+000 -5.943206e+001 -1.564828e+002 -5.877002e+001 7.760089e+001 -2.983653e-001 -2.063499e+001
291156250 -9.850402e-002 -8.638256e+000 -6.008167e+001 -1.688178e+002 -5.904451e+001 6.067942e+001 -3.099185e-001 -2.196727e+001
309900000 -1.018357e-001 -9.174172e+000 -6.081105e+001 1.712720e+002 -5.946182e+001 4.098316e+001 -3.224090e-001 -2.333495e+001
328643750 -1.029304e-001 -9.695735e+000 -6.105635e+001 1.441989e+002 -5.971864e+001 2.955070e+001 -3.333539e-001 -2.466029e+001
347387500 -1.035000e-001 -1.023710e+001 -6.170474e+001 1.138559e+002 -6.001361e+001 1.493643e+001 -3.435177e-001 -2.600262e+001
366131250 -1.035434e-001 -1.078224e+001 -6.208698e+001 9.119970e+001 -6.016104e+001 2.887610e+000 -3.561860e-001 -2.733031e+001
384875000 -1.069766e-001 -1.131782e+001 -6.236231e+001 7.172380e+001 -6.051521e+001 -4.623927e+000 -3.684446e-001 -2.864726e+001
403618750 -1.102190e-001 -1.186614e+001 -6.223970e+001 6.183379e+001 -6.043017e+001 -6.132334e+000 -3.839667e-001 -2.997593e+001
422362500 -1.104062e-001 -1.240139e+001 -6.253801e+001 3.826124e+001 -6.080875e+001 -4.510255e+000 -3.973005e-001 -3.128995e+001
441106250 -1.136443e-001 -1.293066e+001 -6.237854e+001 2.064830e+001 -6.158846e+001 -3.489646e+000 -4.107229e-001 -3.259178e+001
459850000 -1.165438e-001 -1.347610e+001 -6.252415e+001 4.452448e+000 -6.187278e+001 -4.115804e+000 -4.240911e-001 -3.390593e+001
478593750 -1.209883e-001 -1.401857e+001 -6.287277e+001 -1.049638e+000 -6.240771e+001 1.214319e+000 -4.385608e-001 -3.519906e+001
497337500 -1.254625e-001 -1.455992e+001 -6.320724e+001 6.305585e+000 -6.267790e+001 1.152658e+000 -4.532314e-001 -3.650354e+001
516081250 -1.284131e-001 -1.508709e+001 -6.334917e+001 1.717208e+001 -6.215850e+001 -3.688713e+000 -4.687000e-001 -3.778236e+001
534825000 -1.295107e-001 -1.562300e+001 -6.360020e+001 2.591309e+001 -6.190577e+001 -7.113329e+000 -4.853116e-001 -3.906282e+001
553568750 -1.300821e-001 -1.616648e+001 -6.363154e+001 3.673545e+001 -6.208237e+001 -7.997302e+000 -5.035164e-001 -4.035655e+001
572312500 -1.316830e-001 -1.669297e+001 -6.402232e+001 5.412533e+001 -6.211559e+001 -1.238364e+001 -5.201650e-001 -4.163819e+001
591056250 -1.315515e-001 -1.723533e+001 -6.392934e+001 6.907775e+001 -6.198914e+001 -1.319671e+001 -5.369795e-001 -4.291561e+001
609800000 -1.337814e-001 -1.777949e+001 -6.432438e+001 8.340410e+001 -6.212090e+001 -1.669437e+001 -5.555315e-001 -4.421894e+001
628543750 -1.358602e-001 -1.830832e+001 -6.447063e+001 1.036205e+002 -6.167346e+001 -2.222283e+001 -5.743641e-001 -4.548152e+001
647287500 -1.357162e-001 -1.885242e+001 -6.482384e+001 1.152937e+002 -6.180754e+001 -2.403028e+001 -5.949312e-001 -4.676996e+001
666031250 -1.361632e-001 -1.938594e+001 -6.455016e+001 1.270773e+002 -6.187160e+001 -2.619472e+001 -6.154613e-001 -4.803685e+001
684775000 -1.388026e-001 -1.990982e+001 -6.513712e+001 1.447636e+002 -6.231205e+001 -2.599910e+001 -6.370482e-001 -4.930453e+001
703518750 -1.386150e-001 -2.044792e+001 -6.546582e+001 1.687966e+002 -6.251478e+001 -2.304389e+001 -6.587065e-001 -5.056980e+001
722262500 -1.416380e-001 -2.099863e+001 -6.571894e+001 -1.629874e+002 -6.270633e+001 -1.914471e+001 -6.811020e-001 -5.182718e+001
741006250 -1.416698e-001 -2.153182e+001 -6.552386e+001 -1.380050e+002 -6.274642e+001 -1.166564e+001 -7.030599e-001 -5.308211e+001
759750000 -1.421991e-001 -2.208308e+001 -6.562402e+001 -9.917824e+001 -6.289814e+001 -1.386401e+001 -7.259619e-001 -5.434636e+001
778493750 -1.432388e-001 -2.262002e+001 -6.545191e+001 -6.442070e+001 -6.270928e+001 -1.410226e+001 -7.504684e-001 -5.559860e+001
797237500 -1.446948e-001 -2.315177e+001 -6.553363e+001 -2.675553e+001 -6.274963e+001 -1.618950e+001 -7.722794e-001 -5.684740e+001
815981250 -1.454566e-001 -2.368391e+001 -6.611099e+001 1.026896e+001 -6.286130e+001 -1.063048e+001 -7.942545e-001 -5.808994e+001
834725000 -1.469204e-001 -2.421107e+001 -6.595599e+001 3.298834e+001 -6.333931e+001 -1.443953e+001 -8.148711e-001 -5.931669e+001
853468750 -1.488801e-001 -2.474738e+001 -6.574628e+001 6.594708e+001 -6.343818e+001 -1.574132e+001 -8.382400e-001 -6.057038e+001
872212500 -1.481801e-001 -2.529156e+001 -6.622389e+001 9.630987e+001 -6.314748e+001 -1.083548e+001 -8.632683e-001 -6.182923e+001
890956250 -1.493700e-001 -2.582861e+001 -6.660055e+001 1.255410e+002 -6.322248e+001 -1.064922e+001 -8.865694e-001 -6.307164e+001
909700000 -1.503745e-001 -2.636342e+001 -6.693114e+001 1.515413e+002 -6.295147e+001 -1.090764e+001 -9.097967e-001 -6.431422e+001
928443750 -1.515695e-001 -2.690479e+001 -6.733892e+001 1.772324e+002 -6.311183e+001 -1.943856e+001 -9.325534e-001 -6.552964e+001
947187500 -1.538518e-001 -2.744321e+001 -6.753635e+001 -1.538931e+002 -6.329343e+001 -1.847723e+001 -9.533203e-001 -6.675266e+001
965931250 -1.558453e-001 -2.798004e+001 -6.746992e+001 -1.233907e+002 -6.325504e+001 -2.043953e+001 -9.755775e-001 -6.796800e+001
984675000 -1.576902e-001 -2.852300e+001 -6.849200e+001 -9.359602e+001 -6.328343e+001 -2.046450e+001 -9.988875e-001 -6.918915e+001
1003418750 -1.587738e-001 -2.906419e+001 -6.860294e+001 -6.239197e+001 -6.325973e+001 -2.041262e+001 -1.020969e+000 -7.041871e+001
1022162500 -1.616598e-001 -2.958755e+001 -6.907334e+001 -2.943358e+001 -6.319439e+001 -1.997699e+001 -1.042483e+000 -7.164268e+001
1040906250 -1.640963e-001 -3.011994e+001 -6.903819e+001 4.355340e+000 -6.339668e+001 -1.798430e+001 -1.064973e+000 -7.283680e+001
1059650000 -1.641411e-001 -3.065660e+001 -6.911162e+001 3.392111e+001 -6.347338e+001 -1.718214e+001 -1.088694e+000 -7.404077e+001
1078393750 -1.657669e-001 -3.118442e+001 -6.864965e+001 6.983122e+001 -6.356451e+001 -2.003489e+001 -1.109865e+000 -7.522581e+001
1097137500 -1.696938e-001 -3.170463e+001 -6.939846e+001 9.746282e+001 -6.380740e+001 -1.967979e+001 -1.129836e+000 -7.641319e+001
1115881250 -1.701779e-001 -3.225190e+001 -6.960526e+001 1.265587e+002 -6.391683e+001 -2.018073e+001 -1.150645e+000 -7.759922e+001
1134625000 -1.731470e-001 -3.278431e+001 -7.092291e+001 1.437973e+002 -6.413243e+001 -1.771012e+001 -1.169049e+000 -7.879689e+001
1153368750 -1.747524e-001 -3.331295e+001 -7.062027e+001 1.583013e+002 -6.413690e+001 -1.709197e+001 -1.185628e+000 -7.999063e+001
1172112500 -1.784765e-001 -3.384105e+001 -7.047030e+001 1.783825e+002 -6.422372e+001 -1.472250e+001 -1.205932e+000 -8.116521e+001
1190856250 -1.807014e-001 -3.436767e+001 -7.027058e+001 -1.734232e+002 -6.402516e+001 -1.319588e+001 -1.224232e+000 -8.234011e+001
1209600000 -1.825187e-001 -3.489396e+001 -7.015464e+001 -1.559048e+002 -6.444740e+001 -1.213709e+001 -1.241502e+000 -8.350760e+001
1228343750 -1.824781e-001 -3.542865e+001 -7.018333e+001 -1.411876e+002 -6.446723e+001 -1.421617e+001 -1.259696e+000 -8.466253e+001
1247087500 -1.834645e-001 -3.595206e+001 -6.949101e+001 -1.309488e+002 -6.437680e+001 -2.141476e+001 -1.277011e+000 -8.582468e+001
1265831250 -1.844173e-001 -3.648521e+001 -6.969276e+001 -1.142770e+002 -6.405851e+001 -2.065132e+001 -1.292144e+000 -8.697395e+001
1284575000 -1.864015e-001 -3.700415e+001 -6.963763e+001 -1.013721e+002 -6.395809e+001 -2.362630e+001 -1.309056e+000 -8.811169e+001
1303318750 -1.895560e-001 -3.752219e+001 -6.919510e+001 -8.730928e+001 -6.414989e+001 -1.782751e+001 -1.323211e+000 -8.924519e+001
1322062500 -1.913511e-001 -3.804696e+001 -6.856741e+001 -7.091792e+001 -6.417744e+001 -1.892643e+001 -1.338261e+000 -9.037106e+001
1340806250 -1.946636e-001 -3.857119e+001 -6.803252e+001 -5.777061e+001 -6.396223e+001 -2.075850e+001 -1.352617e+000 -9.148811e+001
1359550000 -1.962929e-001 -3.907956e+001 -6.807771e+001 -4.484188e+001 -6.462692e+001 -1.438094e+001 -1.366170e+000 -9.261365e+001
1378293750 -1.966749e-001 -3.960804e+001 -6.810558e+001 -4.191235e+001 -6.505996e+001 -4.337922e+000 -1.380175e+000 -9.375584e+001
1397037500 -1.965587e-001 -4.011214e+001 -6.827488e+001 -4.525020e+001 -6.490479e+001 9.856352e+000 -1.392449e+000 -9.489985e+001
1415781250 -1.965887e-001 -4.063651e+001 -6.753323e+001 -4.688797e+001 -6.470093e+001 2.301110e+001 -1.407435e+000 -9.602050e+001
1434525000 -1.977110e-001 -4.116438e+001 -6.708855e+001 -4.554181e+001 -6.503983e+001 3.973016e+001 -1.421609e+000 -9.713634e+001
1453268750 -1.996220e-001 -4.168332e+001 -6.679662e+001 -4.407984e+001 -6.488478e+001 5.554732e+001 -1.435291e+000 -9.821684e+001
1472012500 -2.006044e-001 -4.219706e+001 -6.685557e+001 -5.142024e+001 -6.453918e+001 7.176774e+001 -1.446313e+000 -9.929034e+001
1490756250 -2.040398e-001 -4.271610e+001 -6.675872e+001 -5.439127e+001 -6.464034e+001 8.357391e+001 -1.456875e+000 -1.003871e+002
1509500000 -2.053905e-001 -4.323246e+001 -6.679087e+001 -5.409553e+001 -6.436021e+001 1.030370e+002 -1.468259e+000 -1.014859e+002
1528243750 -2.050916e-001 -4.377322e+001 -6.640832e+001 -5.317808e+001 -6.417255e+001 1.155926e+002 -1.482207e+000 -1.026068e+002
1546987500 -2.053251e-001 -4.429084e+001 -6.589120e+001 -5.413916e+001 -6.385056e+001 1.284762e+002 -1.495394e+000 -1.037026e+002
1565731250 -2.064178e-001 -4.481532e+001 -6.447496e+001 -4.663441e+001 -6.333768e+001 1.395982e+002 -1.510761e+000 -1.047719e+002
1584475000 -2.062189e-001 -4.533550e+001 -6.465061e+001 -4.863528e+001 -6.329084e+001 1.554940e+002 -1.522161e+000 -1.058209e+002
1603218750 -2.072511e-001 -4.586203e+001 -6.468638e+001 -5.177125e+001 -6.387871e+001 1.660952e+002 -1.532799e+000 -1.068796e+002
1621962500 -2.115574e-001 -4.639098e+001 -6.432237e+001 -5.171700e+001 -6.391331e+001 -1.774898e+002 -1.545309e+000 -1.079552e+002
1640706250 -2.140613e-001 -4.692868e+001 -6.431519e+001 -4.896323e+001 -6.355396e+001 -1.617020e+002 -1.558925e+000 -1.090371e+002
1659450000 -2.159240e-001 -4.745843e+001 -6.497696e+001 -4.892061e+001 -6.360234e+001 -1.444268e+002 -1.572305e+000 -1.101170e+002
1678193750 -2.170825e-001 -4.799637e+001 -6.527122e+001 -5.252242e+001 -6.354551e+001 -1.245996e+002 -1.587446e+000 -1.111880e+002
1696937500 -2.176708e-001 -4.852777e+001 -6.495207e+001 -5.497740e+001 -6.412685e+001 -1.031655e+002 -1.601099e+000 -1.122342e+002
1715681250 -2.187843e-001 -4.906818e+001 -6.487675e+001 -5.179279e+001 -6.401518e+001 -8.932806e+001 -1.614305e+000 -1.132599e+002
1734425000 -2.212961e-001 -4.960559e+001 -6.485313e+001 -4.896791e+001 -6.394768e+001 -7.615610e+001 -1.628195e+000 -1.142835e+002
1753168750 -2.239046e-001 -5.013098e+001 -6.508845e+001 -5.077597e+001 -6.410813e+001 -5.207472e+001 -1.642747e+000 -1.153381e+002
1771912500 -2.244612e-001 -5.065953e+001 -6.560812e+001 -5.799987e+001 -6.413792e+001 -2.637006e+001 -1.659100e+000 -1.163934e+002
1790656250 -2.256143e-001 -5.120059e+001 -6.507069e+001 -6.738448e+001 -6.407504e+001 2.482190e+000 -1.676854e+000 -1.174546e+002
1809400000 -2.271854e-001 -5.171236e+001 -6.496373e+001 -6.988412e+001 -6.364838e+001 2.683397e+001 -1.692989e+000 -1.184715e+002
1828143750 -2.317759e-001 -5.224805e+001 -6.487170e+001 -6.809482e+001 -6.356716e+001 4.163301e+001 -1.709237e+000 -1.194697e+002
1846887500 -2.352394e-001 -5.276530e+001 -6.461303e+001 -6.507714e+001 -6.366049e+001 6.269691e+001 -1.723281e+000 -1.204843e+002
1865631250 -2.368863e-001 -5.329160e+001 -6.456231e+001 -6.376881e+001 -6.305872e+001 7.703303e+001 -1.737570e+000 -1.215042e+002
1884375000 -2.365013e-001 -5.382080e+001 -6.433752e+001 -6.507077e+001 -6.327643e+001 9.631649e+001 -1.754593e+000 -1.225479e+002
1903118750 -2.373189e-001 -5.434921e+001 -6.426087e+001 -6.416858e+001 -6.340374e+001 1.157007e+002 -1.772215e+000 -1.235906e+002
1921862500 -2.384952e-001 -5.486731e+001 -6.391254e+001 -6.283565e+001 -6.314451e+001 1.349091e+002 -1.790258e+000 -1.245983e+002
1940606250 -2.389425e-001 -5.539125e+001 -6.495938e+001 -5.778440e+001 -6.303009e+001 1.466617e+002 -1.807596e+000 -1.256033e+002
1959350000 -2.440804e-001 -5.589114e+001 -6.495833e+001 -5.210103e+001 -6.294772e+001 1.645397e+002 -1.825236e+000 -1.265830e+002
1978093750 -2.492377e-001 -5.640807e+001 -6.465549e+001 -5.356701e+001 -6.314254e+001 -1.780006e+002 -1.842258e+000 -1.275824e+002
1996837500 -2.505859e-001 -5.691324e+001 -6.427706e+001 -5.795574e+001 -6.367576e+001 -1.702622e+002 -1.857896e+000 -1.286097e+002
2015581250 -2.510410e-001 -5.742914e+001 -6.384617e+001 -5.740538e+001 -6.359732e+001 -1.586226e+002 -1.878801e+000 -1.296299e+002
2034325000 -2.504046e-001 -5.794135e+001 -6.385427e+001 -5.668525e+001 -6.282874e+001 -1.474842e+002 -1.899435e+000 -1.306383e+002
2053068750 -2.500555e-001 -5.844033e+001 -6.389391e+001 -5.405595e+001 -6.284374e+001 -1.358666e+002 -1.917792e+000 -1.316205e+002
2071812500 -2.510199e-001 -5.894191e+001 -6.356003e+001 -5.815910e+001 -6.306734e+001 -1.325518e+002 -1.935982e+000 -1.325787e+002
2090556250 -2.548296e-001 -5.944041e+001 -6.284647e+001 -5.940661e+001 -6.286116e+001 -1.319884e+002 -1.954149e+000 -1.335551e+002
2109300000 -2.591798e-001 -5.994905e+001 -6.250026e+001 -5.678399e+001 -6.346209e+001 -1.328416e+002 -1.971445e+000 -1.345318e+002
2128043750 -2.633284e-001 -6.044669e+001 -6.242055e+001 -5.374184e+001 -6.328644e+001 -1.403318e+002 -1.990548e+000 -1.355369e+002
2146787500 -2.643470e-001 -6.094195e+001 -6.248492e+001 -5.755025e+001 -6.403551e+001 -1.368274e+002 -2.008224e+000 -1.365462e+002
2165531250 -2.626317e-001 -6.145607e+001 -6.305465e+001 -6.063257e+001 -6.450549e+001 -1.368328e+002 -2.026798e+000 -1.375152e+002
2184275000 -2.623379e-001 -6.197733e+001 -6.288185e+001 -5.931607e+001 -6.489763e+001 -1.472252e+002 -2.044281e+000 -1.384838e+002
2203018750 -2.636840e-001 -6.247893e+001 -6.217548e+001 -5.343960e+001 -6.508081e+001 -1.593740e+002 -2.060388e+000 -1.394437e+002
2221762500 -2.660631e-001 -6.297364e+001 -6.189130e+001 -5.175720e+001 -6.418406e+001 -1.782875e+002 -2.073930e+000 -1.404078e+002
2240506250 -2.677992e-001 -6.348085e+001 -6.188308e+001 -4.943079e+001 -6.404383e+001 1.558431e+002 -2.088897e+000 -1.413756e+002
2259250000 -2.675424e-001 -6.399520e+001 -6.159280e+001 -4.947374e+001 -6.389502e+001 1.399457e+002 -2.105302e+000 -1.423580e+002
2277993750 -2.657483e-001 -6.451318e+001 -6.166911e+001 -4.830766e+001 -6.387189e+001 1.238487e+002 -2.123195e+000 -1.433161e+002
2296737500 -2.686494e-001 -6.502998e+001 -6.173198e+001 -5.080685e+001 -6.419261e+001 1.134866e+002 -2.141891e+000 -1.442740e+002
2315481250 -2.744209e-001 -6.555283e+001 -6.180800e+001 -4.664536e+001 -6.480995e+001 9.998672e+001 -2.155361e+000 -1.452202e+002
2334225000 -2.779025e-001 -6.607140e+001 -6.169001e+001 -4.285947e+001 -6.518154e+001 8.003297e+001 -2.170575e+000 -1.461750e+002
2352968750 -2.798410e-001 -6.658737e+001 -6.220318e+001 -4.819405e+001 -6.540279e+001 5.663142e+001 -2.184308e+000 -1.471371e+002
2371712500 -2.826325e-001 -6.710152e+001 -6.150422e+001 -5.622002e+001 -6.607179e+001 4.110994e+001 -2.198575e+000 -1.480955e+002
2390456250 -2.816577e-001 -6.762150e+001 -6.162338e+001 -5.182815e+001 -6.641357e+001 1.626478e+001 -2.212601e+000 -1.490408e+002
2409200000 -2.831049e-001 -6.813087e+001 -6.208173e+001 -5.066872e+001 -6.672378e+001 -9.476928e+000 -2.228571e+000 -1.499914e+002
2427943750 -2.874023e-001 -6.866361e+001 -6.233978e+001 -5.206896e+001 -6.670289e+001 -3.536391e+001 -2.244637e+000 -1.509229e+002
2446687500 -2.915677e-001 -6.916253e+001 -6.242298e+001 -5.291376e+001 -6.648445e+001 -6.411980e+001 -2.258203e+000 -1.518684e+002
2465431250 -2.972972e-001 -6.965949e+001 -6.238743e+001 -5.410394e+001 -6.697365e+001 -9.348904e+001 -2.268060e+000 -1.528050e+002
2484175000 -3.007911e-001 -7.017202e+001 -6.262309e+001 -5.663973e+001 -6.712597e+001 -1.231459e+002 -2.281781e+000 -1.537491e+002
2502918750 -3.028553e-001 -7.069832e+001 -6.336354e+001 -6.108185e+001 -6.694542e+001 -1.482830e+002 -2.295242e+000 -1.546996e+002
2521662500 -3.045183e-001 -7.122907e+001 -6.320428e+001 -6.402480e+001 -6.730060e+001 -1.667418e+002 -2.307370e+000 -1.556468e+002
2540406250 -3.053405e-001 -7.175529e+001 -6.356765e+001 -6.717587e+001 -6.665182e+001 1.742394e+002 -2.321795e+000 -1.565941e+002
2559150000 -3.085020e-001 -7.227679e+001 -6.407397e+001 -6.631085e+001 -6.640560e+001 1.570502e+002 -2.334985e+000 -1.575255e+002
2577893750 -3.118555e-001 -7.276136e+001 -6.459750e+001 -6.689173e+001 -6.588928e+001 1.391992e+002 -2.347303e+000 -1.584377e+002
2596637500 -3.178686e-001 -7.324613e+001 -6.411491e+001 -6.352891e+001 -6.496953e+001 1.202785e+002 -2.359517e+000 -1.593820e+002
2615381250 -3.202938e-001 -7.373725e+001 -6.412653e+001 -6.436378e+001 -6.459178e+001 1.087444e+002 -2.372717e+000 -1.602914e+002
2634125000 -3.208854e-001 -7.425537e+001 -6.430847e+001 -6.241320e+001 -6.474826e+001 9.170213e+001 -2.386829e+000 -1.612112e+002
2652868750 -3.232129e-001 -7.477347e+001 -6.434917e+001 -6.157145e+001 -6.462627e+001 7.589948e+001 -2.402552e+000 -1.621451e+002
2671612500 -3.288115e-001 -7.528656e+001 -6.473595e+001 -6.191362e+001 -6.461591e+001 6.423872e+001 -2.417859e+000 -1.630626e+002
2690356250 -3.312959e-001 -7.577300e+001 -6.479881e+001 -5.960089e+001 -6.480392e+001 5.278137e+001 -2.431170e+000 -1.639672e+002
2709100000 -3.404865e-001 -7.624572e+001 -6.492393e+001 -5.973251e+001 -6.500697e+001 2.902610e+001 -2.442502e+000 -1.648933e+002
2727843750 -3.419045e-001 -7.673601e+001 -6.485904e+001 -5.268766e+001 -6.506250e+001 6.387173e+000 -2.451758e+000 -1.657809e+002
2746587500 -3.422025e-001 -7.722533e+001 -6.505617e+001 -5.711193e+001 -6.442474e+001 -1.709339e+001 -2.466249e+000 -1.666936e+002
2765331250 -3.436263e-001 -7.772482e+001 -6.510901e+001 -5.895220e+001 -6.381347e+001 -3.374123e+001 -2.479381e+000 -1.676053e+002
2784075000 -3.478046e-001 -7.824042e+001 -6.501124e+001 -5.642787e+001 -6.372520e+001 -3.628952e+001 -2.493324e+000 -1.685211e+002
2802818750 -3.524948e-001 -7.873157e+001 -6.466553e+001 -5.909114e+001 -6.341944e+001 -5.295478e+001 -2.506676e+000 -1.694107e+002
2821562500 -3.559371e-001 -7.922488e+001 -6.460238e+001 -6.530154e+001 -6.309278e+001 -5.728028e+001 -2.519635e+000 -1.703155e+002
2840306250 -3.580630e-001 -7.973531e+001 -6.455464e+001 -7.128397e+001 -6.308535e+001 -6.568385e+001 -2.531025e+000 -1.712129e+002
2859050000 -3.595427e-001 -8.022652e+001 -6.462476e+001 -7.209305e+001 -6.297578e+001 -6.543022e+001 -2.541873e+000 -1.721038e+002
2877793750 -3.574216e-001 -8.076845e+001 -6.473978e+001 -7.561626e+001 -6.375851e+001 -7.310883e+001 -2.551978e+000 -1.730113e+002
2896537500 -3.594433e-001 -8.125195e+001 -6.493295e+001 -7.835678e+001 -6.323295e+001 -7.598608e+001 -2.564830e+000 -1.738979e+002
2915281250 -3.653101e-001 -8.177275e+001 -6.570357e+001 -7.857087e+001 -6.276112e+001 -8.003147e+001 -2.581365e+000 -1.747902e+002
2934025000 -3.669432e-001 -8.228600e+001 -6.600021e+001 -7.462365e+001 -6.296757e+001 -7.678622e+001 -2.589803e+000 -1.756891e+002
2952768750 -3.682748e-001 -8.272014e+001 -6.599667e+001 -7.263364e+001 -6.316121e+001 -7.183661e+001 -2.601730e+000 -1.765454e+002
2971512500 -3.753193e-001 -8.323370e+001 -6.574220e+001 -7.056976e+001 -6.345008e+001 -6.817267e+001 -2.616993e+000 -1.774315e+002
2990256250 -3.709231e-001 -8.376072e+001 -6.552367e+001 -7.586957e+001 -6.330441e+001 -6.765197e+001 -2.624967e+000 -1.783228e+002
3009000000 -3.745408e-001 -8.423288e+001 -6.493024e+001 -7.375051e+001 -6.325409e+001 -7.006149e+001 -2.639300e+000 -1.791913e+002
3027743750 -3.810810e-001 -8.476749e+001 -6.524392e+001 -7.144346e+001 -6.365752e+001 -7.103571e+001 -2.656830e+000 1.799082e+002
3046487500 -3.808026e-001 -8.528683e+001 -6.555865e+001 -7.323154e+001 -6.320822e+001 -7.628819e+001 -2.664434e+000 1.790121e+002
3065231250 -3.853773e-001 -8.572894e+001 -6.563067e+001 -7.463193e+001 -6.290224e+001 -7.785753e+001 -2.675231e+000 1.781319e+002
3083975000 -3.918118e-001 -8.625177e+001 -6.567609e+001 -7.701542e+001 -6.323440e+001 -7.656009e+001 -2.690297e+000 1.772491e+002
3102718750 -3.894992e-001 -8.675865e+001 -6.512180e+001 -8.090733e+001 -6.313417e+001 -7.670531e+001 -2.696186e+000 1.763714e+002
3121462500 -3.953766e-001 -8.724209e+001 -6.510477e+001 -8.572616e+001 -6.359155e+001 -8.399918e+001 -2.709811e+000 1.755101e+002
3140206250 -3.977786e-001 -8.775648e+001 -6.646271e+001 -8.435735e+001 -6.402980e+001 -8.548196e+001 -2.724202e+000 1.746132e+002
3158950000 -3.993549e-001 -8.827801e+001 -6.641553e+001 -8.945996e+001 -6.415675e+001 -8.970099e+001 -2.733031e+000 1.737307e+002
3177693750 -4.056916e-001 -8.875471e+001 -6.641871e+001 -9.128024e+001 -6.455383e+001 -8.731834e+001 -2.749300e+000 1.728573e+002
3196437500 -4.081859e-001 -8.925721e+001 -6.613597e+001 -9.100742e+001 -6.523133e+001 -8.631586e+001 -2.763971e+000 1.719466e+002
3215181250 -4.101764e-001 -8.975069e+001 -6.641132e+001 -8.399137e+001 -6.582417e+001 -9.510859e+001 -2.770658e+000 1.710983e+002
3233925000 -4.114722e-001 -9.023093e+001 -6.653167e+001 -8.076936e+001 -6.557178e+001 -9.449104e+001 -2.786150e+000 1.702156e+002
3252668750 -4.142799e-001 -9.072244e+001 -6.632019e+001 -8.263127e+001 -6.535587e+001 -9.966205e+001 -2.797370e+000 1.693042e+002
3271412500 -4.191064e-001 -9.119882e+001 -6.618742e+001 -8.017056e+001 -6.543375e+001 -9.735248e+001 -2.802438e+000 1.684600e+002
3290156250 -4.241275e-001 -9.169963e+001 -6.632555e+001 -7.681338e+001 -6.525243e+001 -9.759626e+001 -2.819155e+000 1.675927e+002
3308900000 -4.271661e-001 -9.215816e+001 -6.664818e+001 -7.781914e+001 -6.437801e+001 -9.297646e+001 -2.829775e+000 1.667152e+002
3327643750 -4.316853e-001 -9.265371e+001 -6.681857e+001 -7.501158e+001 -6.460214e+001 -1.012464e+002 -2.836280e+000 1.658478e+002
3346387500 -4.340095e-001 -9.312457e+001 -6.628810e+001 -7.614202e+001 -6.526611e+001 -1.124512e+002 -2.848995e+000 1.649995e+002
3365131250 -4.354400e-001 -9.360538e+001 -6.561623e+001 -7.493724e+001 -6.514117e+001 -1.309256e+002 -2.860661e+000 1.641162e+002
3383875000 -4.413921e-001 -9.410574e+001 -6.582308e+001 -7.529955e+001 -6.455650e+001 -1.494263e+002 -2.867515e+000 1.632666e+002
3402618750 -4.419622e-001 -9.457965e+001 -6.564391e+001 -7.621335e+001 -6.464053e+001 -1.714002e+002 -2.877709e+000 1.623953e+002
3421362500 -4.484878e-001 -9.504524e+001 -6.557510e+001 -7.850752e+001 -6.469630e+001 1.747897e+002 -2.891194e+000 1.615227e+002
3440106250 -4.528071e-001 -9.552134e+001 -6.600236e+001 -8.219463e+001 -6.524792e+001 1.642196e+002 -2.895982e+000 1.606587e+002
3458850000 -4.557398e-001 -9.600736e+001 -6.580464e+001 -8.700736e+001 -6.529649e+001 1.487180e+002 -2.907031e+000 1.598108e+002
3477593750 -4.614675e-001 -9.650452e+001 -6.631197e+001 -8.377857e+001 -6.528453e+001 1.342228e+002 -2.915892e+000 1.589451e+002
3496337500 -4.673706e-001 -9.698919e+001 -6.631976e+001 -8.769547e+001 -6.539317e+001 1.191220e+002 -2.923403e+000 1.581142e+002
3515081250 -4.698611e-001 -9.748574e+001 -6.640350e+001 -8.871119e+001 -6.542674e+001 9.790616e+001 -2.933231e+000 1.572580e+002
3533825000 -4.731586e-001 -9.797597e+001 -6.630774e+001 -8.807168e+001 -6.571152e+001 8.125282e+001 -2.941966e+000 1.563823e+002
3552568750 -4.742871e-001 -9.844330e+001 -6.649998e+001 -8.185025e+001 -6.547642e+001 6.326195e+001 -2.950078e+000 1.555155e+002
3571312500 -4.820633e-001 -9.896429e+001 -6.481516e+001 -8.492385e+001 -6.482623e+001 5.335687e+001 -2.961227e+000 1.546563e+002
3590056250 -4.885013e-001 -9.942241e+001 -6.503345e+001 -8.721657e+001 -6.488396e+001 3.856036e+001 -2.974766e+000 1.538020e+002
3608800000 -4.904290e-001 -9.992800e+001 -6.500453e+001 -9.034363e+001 -6.446072e+001 1.853431e+001 -2.979356e+000 1.529390e+002
3627543750 -4.956883e-001 -1.004010e+002 -6.546770e+001 -8.952682e+001 -6.409852e+001 3.086382e+000 -2.984153e+000 1.521202e+002
3646287500 -4.994133e-001 -1.008659e+002 -6.622289e+001 -8.966799e+001 -6.466206e+001 -4.336163e+000 -2.997855e+000 1.512534e+002
3665031250 -5.020952e-001 -1.013729e+002 -6.616048e+001 -9.209421e+001 -6.509740e+001 -6.943493e+000 -3.002658e+000 1.503985e+002
3683775000 -5.037169e-001 -1.018057e+002 -6.665846e+001 -9.334344e+001 -6.543937e+001 -4.621634e+000 -3.007010e+000 1.495579e+002
3702518750 -5.124062e-001 -1.023081e+002 -6.671595e+001 -9.614177e+001 -6.497525e+001 3.087012e+000 -3.018460e+000 1.487226e+002
3721262500 -5.102050e-001 -1.028176e+002 -6.633915e+001 -1.003036e+002 -6.501698e+001 1.697911e+001 -3.024505e+000 1.478300e+002
3740006250 -5.141594e-001 -1.032457e+002 -6.605954e+001 -9.794860e+001 -6.521454e+001 3.259058e+001 -3.030769e+000 1.469824e+002
3758750000 -5.232223e-001 -1.037689e+002 -6.588984e+001 -9.945769e+001 -6.554052e+001 6.135881e+001 -3.042216e+000 1.461528e+002
3777493750 -5.188398e-001 -1.042798e+002 -6.559091e+001 -9.978964e+001 -6.563737e+001 9.372489e+001 -3.052105e+000 1.452726e+002
3796237500 -5.225406e-001 -1.046942e+002 -6.548306e+001 -1.026503e+002 -6.598892e+001 1.353218e+002 -3.058807e+000 1.444178e+002
3814981250 -5.320388e-001 -1.052146e+002 -6.544382e+001 -1.015290e+002 -6.628541e+001 1.685786e+002 -3.072721e+000 1.435605e+002
3833725000 -5.286187e-001 -1.056904e+002 -6.554237e+001 -1.028511e+002 -6.635030e+001 -1.561670e+002 -3.081356e+000 1.426971e+002
3852468750 -5.321797e-001 -1.061142e+002 -6.596046e+001 -9.525899e+001 -6.643875e+001 -1.329415e+002 -3.088088e+000 1.418262e+002
3871212500 -5.415732e-001 -1.066612e+002 -6.606572e+001 -8.265222e+001 -6.564089e+001 -1.050936e+002 -3.099104e+000 1.409743e+002
3889956250 -5.383309e-001 -1.071248e+002 -6.590330e+001 -6.995291e+001 -6.544169e+001 -7.570950e+001 -3.105699e+000 1.400854e+002
3908700000 -5.405279e-001 -1.075273e+002 -6.546831e+001 -5.777895e+001 -6.570932e+001 -4.704884e+001 -3.116307e+000 1.392188e+002
3927443750 -5.490850e-001 -1.080492e+002 -6.547630e+001 -3.817532e+001 -6.565692e+001 -2.083285e+001 -3.126056e+000 1.383563e+002
3946187500 -5.468017e-001 -1.084998e+002 -6.556160e+001 -1.981760e+001 -6.573797e+001 1.671811e+001 -3.132545e+000 1.374691e+002
3964931250 -5.517171e-001 -1.089249e+002 -6.627247e+001 -6.791400e+000 -6.556501e+001 5.575317e+001 -3.144425e+000 1.366215e+002
3983675000 -5.608209e-001 -1.094336e+002 -6.642184e+001 -3.469371e+000 -6.555106e+001 9.671552e+001 -3.155764e+000 1.357713e+002
4002418750 -5.563803e-001 -1.098812e+002 -6.698960e+001 6.062088e+000 -6.600533e+001 1.258712e+002 -3.160624e+000 1.348856e+002
4021162500 -5.587299e-001 -1.103329e+002 -6.677750e+001 2.182305e+001 -6.566278e+001 1.517616e+002 -3.168028e+000 1.340180e+002
4039906250 -5.647014e-001 -1.108207e+002 -6.679143e+001 3.832299e+001 -6.623082e+001 1.761543e+002 -3.180530e+000 1.331543e+002
4058650000 -5.652069e-001 -1.112977e+002 -6.640071e+001 5.158474e+001 -6.592398e+001 -1.567331e+002 -3.191171e+000 1.322423e+002
4077393750 -5.692151e-001 -1.117496e+002 -6.514814e+001 5.973117e+001 -6.463000e+001 -1.312945e+002 -3.196833e+000 1.314085e+002
4096137500 -5.777442e-001 -1.122320e+002 -6.508680e+001 7.245210e+001 -6.453791e+001 -1.104563e+002 -3.209809e+000 1.305492e+002
4114881250 -5.807577e-001 -1.127614e+002 -6.608227e+001 7.869214e+001 -6.411350e+001 -9.817131e+001 -3.224269e+000 1.296622e+002
4133625000 -5.801042e-001 -1.132070e+002 -6.603461e+001 9.521308e+001 -6.437096e+001 -8.756818e+001 -3.232526e+000 1.287899e+002
4152368750 -5.877004e-001 -1.136774e+002 -6.628301e+001 1.086222e+002 -6.457540e+001 -7.759905e+001 -3.243926e+000 1.279457e+002
4171112500 -5.910375e-001 -1.141908e+002 -6.644043e+001 1.280428e+002 -6.475352e+001 -6.197902e+001 -3.258468e+000 1.270400e+002
4189856250 -5.909799e-001 -1.146261e+002 -6.614312e+001 1.404818e+002 -6.429536e+001 -5.669297e+001 -3.266799e+000 1.261485e+002
4208600000 -5.995513e-001 -1.151074e+002 -6.677431e+001 1.571716e+002 -6.406334e+001 -4.679920e+001 -3.274104e+000 1.252681e+002
4227343750 -6.040412e-001 -1.155939e+002 -6.714920e+001 1.696544e+002 -6.362138e+001 -4.191541e+001 -3.287000e+000 1.243762e+002
4246087500 -6.067555e-001 -1.160553e+002 -6.735152e+001 -1.787177e+002 -6.368638e+001 -3.207169e+001 -3.291000e+000 1.234862e+002
4264831250 -6.149684e-001 -1.165443e+002 -6.761345e+001 -1.641321e+002 -6.323812e+001 -1.805583e+001 -3.302052e+000 1.226265e+002
4283575000 -6.164104e-001 -1.170292e+002 -6.720219e+001 -1.526823e+002 -6.304270e+001 4.145494e+000 -3.310511e+000 1.217391e+002
4302318750 -6.138932e-001 -1.174848e+002 -6.650636e+001 -1.496510e+002 -6.324048e+001 1.688088e+001 -3.322229e+000 1.208286e+002
4321062500 -6.201167e-001 -1.179415e+002 -6.668700e+001 -1.503786e+002 -6.344938e+001 2.990519e+001 -3.326777e+000 1.199780e+002
4339806250 -6.271395e-001 -1.184599e+002 -6.658289e+001 -1.538446e+002 -6.371681e+001 4.344655e+001 -3.340175e+000 1.190987e+002
4358550000 -6.258839e-001 -1.189358e+002 -6.636892e+001 -1.575512e+002 -6.398780e+001 6.616985e+001 -3.350748e+000 1.181700e+002
4377293750 -6.360006e-001 -1.194223e+002 -6.664432e+001 -1.631474e+002 -6.423733e+001 7.711404e+001 -3.361115e+000 1.173034e+002
4396037500 -6.350684e-001 -1.199193e+002 -6.650755e+001 -1.655044e+002 -6.418554e+001 8.695592e+001 -3.369098e+000 1.163911e+002
4414781250 -6.386588e-001 -1.203561e+002 -6.687624e+001 -1.692357e+002 -6.409981e+001 9.286791e+001 -3.372151e+000 1.154954e+002
4433525000 -6.454374e-001 -1.208403e+002 -6.656290e+001 -1.795813e+002 -6.410687e+001 1.045632e+002 -3.383913e+000 1.146259e+002
4452268750 -6.436954e-001 -1.213129e+002 -6.683689e+001 1.607659e+002 -6.478781e+001 1.210812e+002 -3.392159e+000 1.137065e+002
4471012500 -6.497455e-001 -1.217295e+002 -7.270161e+001 1.402094e+002 -6.455858e+001 1.416055e+002 -3.396117e+000 1.128274e+002
4489756250 -6.587057e-001 -1.222263e+002 -7.310024e+001 1.246193e+002 -6.465350e+001 1.543295e+002 -3.404245e+000 1.119365e+002
4508500000 -6.580325e-001 -1.226991e+002 -7.318964e+001 1.059287e+002 -6.482384e+001 1.688376e+002 -3.410982e+000 1.110070e+002
4527243750 -6.640055e-001 -1.231181e+002 -7.336537e+001 8.947820e+001 -6.484759e+001 -1.782950e+002 -3.414572e+000 1.101097e+002
4545987500 -6.735772e-001 -1.236100e+002 -7.210605e+001 8.236924e+001 -6.544875e+001 -1.658509e+002 -3.423684e+000 1.092094e+002
4564731250 -6.718395e-001 -1.240747e+002 -7.223812e+001 6.741831e+001 -6.540820e+001 -1.575863e+002 -3.431283e+000 1.082697e+002
4583475000 -6.823330e-001 -1.244933e+002 -7.230462e+001 4.947710e+001 -6.506413e+001 -1.516336e+002 -3.435007e+000 1.073760e+002
4602218750 -6.914965e-001 -1.249612e+002 -7.214300e+001 2.508841e+001 -6.564349e+001 -1.552184e+002 -3.439611e+000 1.065078e+002
4620962500 -6.934175e-001 -1.254384e+002 -7.240974e+001 1.083931e+001 -6.600250e+001 -1.536453e+002 -3.449921e+000 1.055677e+002
4639706250 -7.002828e-001 -1.258456e+002 -7.167265e+001 -8.021803e+000 -6.633884e+001 -1.563409e+002 -3.449663e+000 1.046618e+002
4658450000 -7.090806e-001 -1.263265e+002 -7.161156e+001 -2.312203e+001 -6.640209e+001 -1.565307e+002 -3.456994e+000 1.037828e+002
4677193750 -7.054620e-001 -1.267661e+002 -7.122854e+001 -3.877757e+001 -6.643640e+001 -1.579693e+002 -3.463293e+000 1.028377e+002
4695937500 -7.167734e-001 -1.271949e+002 -7.145695e+001 -5.580113e+001 -6.682607e+001 -1.606022e+002 -3.465763e+000 1.019272e+002
4714681250 -7.264722e-001 -1.276928e+002 -7.170865e+001 -7.430829e+001 -6.680322e+001 -1.633437e+002 -3.475421e+000 1.010319e+002
4733425000 -7.305123e-001 -1.281152e+002 -7.263939e+001 -9.744174e+001 -6.688415e+001 -1.635554e+002 -3.474976e+000 1.001076e+002
4752168750 -7.390578e-001 -1.285967e+002 -7.318073e+001 -1.117493e+002 -6.670535e+001 -1.636793e+002 -3.484850e+000 9.920015e+001
4770912500 -7.412544e-001 -1.290604e+002 -7.318281e+001 -1.302097e+002 -6.714339e+001 -1.595647e+002 -3.492016e+000 9.826749e+001
4789656250 -7.455601e-001 -1.294802e+002 -7.356242e+001 -1.515552e+002 -6.703777e+001 -1.695109e+002 -3.491668e+000 9.732551e+001
4808400000 -7.532690e-001 -1.299178e+002 -7.331942e+001 -1.677867e+002 -6.642518e+001 -1.694112e+002 -3.496248e+000 9.641788e+001
4827143750 -7.604393e-001 -1.303922e+002 -7.349755e+001 1.762603e+002 -6.638915e+001 -1.733525e+002 -3.506021e+000 9.546936e+001
4845887500 -7.624033e-001 -1.308490e+002 -7.280817e+001 1.663345e+002 -6.635535e+001 -1.705057e+002 -3.510320e+000 9.449500e+001
4864631250 -7.704575e-001 -1.313064e+002 -7.306587e+001 1.629978e+002 -6.604548e+001 -1.608917e+002 -3.514788e+000 9.359025e+001
4883375000 -7.760284e-001 -1.318075e+002 -7.347688e+001 1.624431e+002 -6.568560e+001 -1.453056e+002 -3.524965e+000 9.263213e+001
4902118750 -7.765784e-001 -1.322594e+002 -6.807455e+001 1.683596e+002 -6.551273e+001 -1.296832e+002 -3.528308e+000 9.165503e+001
4920862500 -7.863722e-001 -1.327093e+002 -6.801113e+001 1.622546e+002 -6.648723e+001 -1.154574e+002 -3.533688e+000 9.073444e+001
4939606250 -7.886468e-001 -1.331939e+002 -6.833836e+001 1.608440e+002 -6.646919e+001 -1.090180e+002 -3.544867e+000 8.976688e+001
4958350000 -7.912930e-001 -1.336235e+002 -6.805518e+001 1.594098e+002 -6.613039e+001 -1.002699e+002 -3.547213e+000 8.878014e+001
4977093750 -7.988495e-001 -1.340810e+002 -6.791268e+001 1.571679e+002 -6.595470e+001 -8.811885e+001 -3.551296e+000 8.786935e+001
4995837500 -8.000597e-001 -1.345667e+002 -6.793479e+001 1.558411e+002 -6.616792e+001 -7.228381e+001 -3.561027e+000 8.688824e+001
5014581250 -8.025097e-001 -1.349957e+002 -6.794365e+001 1.628018e+002 -6.647900e+001 -5.998217e+001 -3.564160e+000 8.591515e+001
5033325000 -8.115655e-001 -1.354887e+002 -6.835123e+001 1.770970e+002 -6.613131e+001 -4.865812e+001 -3.570124e+000 8.495105e+001
5052068750 -8.077695e-001 -1.359641e+002 -6.846746e+001 -1.692488e+002 -6.586378e+001 -3.622418e+001 -3.575196e+000 8.398849e+001
5070812500 -8.149530e-001 -1.363845e+002 -6.882114e+001 -1.589082e+002 -6.511372e+001 -2.059120e+001 -3.583016e+000 8.301019e+001
5089556250 -8.236298e-001 -1.368889e+002 -6.847559e+001 -1.563223e+002 -6.562450e+001 -1.471055e+001 -3.587698e+000 8.202164e+001
5108300000 -8.250245e-001 -1.373572e+002 -6.866073e+001 -1.601873e+002 -6.530451e+001 1.030964e+000 -3.597061e+000 8.104349e+001
5127043750 -8.277279e-001 -1.377814e+002 -6.830821e+001 -1.613057e+002 -6.476785e+001 1.401811e+001 -3.601074e+000 8.005499e+001
5145787500 -8.359107e-001 -1.382522e+002 -6.815007e+001 -1.639690e+002 -6.533420e+001 2.989344e+001 -3.602100e+000 7.906651e+001
5164531250 -8.350217e-001 -1.387287e+002 -6.758326e+001 -1.584877e+002 -7.126865e+001 4.047640e+001 -3.613067e+000 7.808009e+001
5183275000 -8.410605e-001 -1.391484e+002 -6.715411e+001 -1.628281e+002 -7.115083e+001 5.212283e+001 -3.617004e+000 7.705850e+001
5202018750 -8.502687e-001 -1.396158e+002 -6.730698e+001 -1.569126e+002 -7.066302e+001 6.418194e+001 -3.620017e+000 7.605212e+001
5220762500 -8.506832e-001 -1.400866e+002 -6.716219e+001 -1.570057e+002 -7.143698e+001 8.847289e+001 -3.629735e+000 7.506470e+001
5239506250 -8.569415e-001 -1.405287e+002 -6.723400e+001 -1.585627e+002 -7.176308e+001 1.031504e+002 -3.634322e+000 7.403656e+001
5258250000 -8.651875e-001 -1.409875e+002 -6.702029e+001 -1.601541e+002 -7.244141e+001 1.170921e+002 -3.635807e+000 7.303637e+001
5276993750 -8.659675e-001 -1.414565e+002 -6.733788e+001 -1.597691e+002 -7.216022e+001 1.310836e+002 -3.642896e+000 7.203026e+001
5295737500 -8.733769e-001 -1.418903e+002 -6.723436e+001 -1.609379e+002 -7.243099e+001 1.409159e+002 -3.647440e+000 7.099699e+001
5314481250 -8.823481e-001 -1.423438e+002 -6.660555e+001 -1.615037e+002 -7.258077e+001 1.448701e+002 -3.649696e+000 6.998336e+001
5333225000 -8.837405e-001 -1.428029e+002 -6.591676e+001 -1.648693e+002 -7.276800e+001 1.382730e+002 -3.656376e+000 6.895325e+001
5351968750 -8.889563e-001 -1.432336e+002 -6.581397e+001 -1.630391e+002 -7.176456e+001 1.383435e+002 -3.661026e+000 6.791113e+001
5370712500 -8.956695e-001 -1.436949e+002 -6.572898e+001 -1.609648e+002 -7.197828e+001 1.337444e+002 -3.662313e+000 6.686592e+001
5389456250 -8.973660e-001 -1.441695e+002 -6.629107e+001 -1.553166e+002 -7.220689e+001 1.327028e+002 -3.670796e+000 6.583292e+001
5408200000 -9.067447e-001 -1.446029e+002 -6.653481e+001 -1.543496e+002 -7.186501e+001 1.339856e+002 -3.672351e+000 6.476716e+001
5426943750 -9.124542e-001 -1.450667e+002 -6.651829e+001 -1.547746e+002 -7.125081e+001 1.324291e+002 -3.676576e+000 6.371777e+001
5445687500 -9.156656e-001 -1.455136e+002 -6.641975e+001 -1.599125e+002 -7.101371e+001 1.302411e+002 -3.682537e+000 6.264046e+001
5464431250 -9.241022e-001 -1.459340e+002 -6.650185e+001 -1.704280e+002 -7.082397e+001 1.332932e+002 -3.685263e+000 6.156393e+001
5483175000 -9.301071e-001 -1.464109e+002 -6.662164e+001 1.734607e+002 -7.081808e+001 1.367118e+002 -3.690471e+000 6.049754e+001
5501918750 -9.347332e-001 -1.468707e+002 -6.707397e+001 1.583946e+002 -7.157801e+001 1.386097e+002 -3.696120e+000 5.942124e+001
5520662500 -9.420809e-001 -1.473088e+002 -6.724714e+001 1.503032e+002 -7.125689e+001 1.468731e+002 -3.695821e+000 5.834034e+001
5539406250 -9.482700e-001 -1.477951e+002 -6.804129e+001 1.481255e+002 -7.149304e+001 1.426697e+002 -3.701013e+000 5.726572e+001
5558150000 -9.507914e-001 -1.482363e+002 -6.794775e+001 1.464933e+002 -7.176574e+001 1.472623e+002 -3.705918e+000 5.614717e+001
5576893750 -9.605319e-001 -1.486746e+002 -6.811938e+001 1.458234e+002 -7.121339e+001 1.460964e+002 -3.706323e+000 5.503495e+001
5595637500 -9.656771e-001 -1.491600e+002 -6.827742e+001 1.454935e+002 -6.558057e+001 1.431705e+002 -3.709749e+000 5.393801e+001
5614381250 -9.683045e-001 -1.496042e+002 -6.825163e+001 1.462481e+002 -6.562844e+001 1.441929e+002 -3.715290e+000 5.282265e+001
5633125000 -9.778820e-001 -1.500493e+002 -6.852825e+001 1.426141e+002 -6.535116e+001 1.426514e+002 -3.712003e+000 5.169813e+001
5651868750 -9.816249e-001 -1.505266e+002 -6.842332e+001 1.455883e+002 -6.438770e+001 1.326362e+002 -3.719642e+000 5.059492e+001
5670612500 -9.838139e-001 -1.509370e+002 -6.836439e+001 1.491337e+002 -6.424113e+001 1.287501e+002 -3.723353e+000 4.944263e+001
5689356250 -9.948764e-001 -1.513861e+002 -6.815394e+001 1.549486e+002 -6.356970e+001 1.267152e+002 -3.721973e+000 4.829232e+001
5708100000 -9.982793e-001 -1.518563e+002 -6.828089e+001 1.527442e+002 -6.369020e+001 1.260113e+002 -3.726165e+000 4.716483e+001
5726843750 -1.000835e+000 -1.522814e+002 -6.835259e+001 1.498395e+002 -6.338671e+001 1.220776e+002 -3.727289e+000 4.599002e+001
5745587500 -1.011454e+000 -1.527203e+002 -6.824125e+001 1.456082e+002 -6.289847e+001 1.229945e+002 -3.723649e+000 4.483178e+001
5764331250 -1.016483e+000 -1.531927e+002 -6.849442e+001 1.432176e+002 -6.246502e+001 1.288456e+002 -3.728217e+000 4.369722e+001
5783075000 -1.022338e+000 -1.536147e+002 -6.877908e+001 1.450344e+002 -6.256310e+001 1.269031e+002 -3.730995e+000 4.251175e+001
5801818750 -1.033657e+000 -1.540382e+002 -6.868852e+001 1.405419e+002 -6.223899e+001 1.332766e+002 -3.733139e+000 4.132721e+001
5820562500 -1.040079e+000 -1.545129e+002 -6.834091e+001 1.349275e+002 -6.218890e+001 1.335317e+002 -3.731737e+000 4.014263e+001
5839306250 -1.037732e+000 -1.549373e+002 -6.812455e+001 1.306610e+002 -6.221754e+001 1.340650e+002 -3.733653e+000 3.895622e+001
5858050000 -1.050984e+000 -1.553512e+002 -6.799751e+001 1.282284e+002 -6.243046e+001 1.340915e+002 -3.732902e+000 3.776107e+001
5876793750 -1.060982e+000 -1.558275e+002 -6.786956e+001 1.265268e+002 -6.231969e+001 1.326012e+002 -3.726189e+000 3.654796e+001
5895537500 -1.055534e+000 -1.563080e+002 -6.759181e+001 1.207390e+002 -6.232356e+001 1.325380e+002 -3.728301e+000 3.537725e+001
5914281250 -1.068928e+000 -1.566875e+002 -6.726974e+001 1.195493e+002 -6.249321e+001 1.281837e+002 -3.730883e+000 3.414347e+001
5933025000 -1.074487e+000 -1.571830e+002 -6.708578e+001 1.214093e+002 -6.246617e+001 1.247272e+002 -3.722903e+000 3.288847e+001
5951768750 -1.070690e+000 -1.576402e+002 -6.746473e+001 1.258198e+002 -6.258053e+001 1.202964e+002 -3.726423e+000 3.169711e+001
5970512500 -1.080846e+000 -1.580191e+002 -6.675083e+001 1.257427e+002 -6.278601e+001 1.166259e+002 -3.728442e+000 3.043471e+001
5989256250 -1.089378e+000 -1.585055e+002 -6.686517e+001 1.240904e+002 -6.311523e+001 1.123004e+002 -3.720707e+000 2.918321e+001
6008000000 -1.085101e+000 -1.589826e+002 -6.701474e+001 1.233585e+002 -6.434644e+001 1.096880e+002 -3.728123e+000 2.798392e+001
6026743750 -1.100076e+000 -1.593773e+002 -6.669369e+001 1.204472e+002 -6.447815e+001 1.176768e+002 -3.727469e+000 2.669322e+001
6045487500 -1.107238e+000 -1.598561e+002 -6.645950e+001 1.207727e+002 -6.446159e+001 1.132872e+002 -3.715789e+000 2.539377e+001
6064231250 -1.106488e+000 -1.603233e+002 -6.636677e+001 1.196779e+002 -6.519424e+001 1.085433e+002 -3.723648e+000 2.417253e+001
6082975000 -1.118715e+000 -1.607133e+002 -6.643214e+001 1.163694e+002 -6.528448e+001 1.052394e+002 -3.716295e+000 2.284321e+001
6101718750 -1.123859e+000 -1.612256e+002 -6.632231e+001 1.094856e+002 -6.558548e+001 9.212228e+001 -3.707090e+000 2.156032e+001
6120462500 -1.123342e+000 -1.616800e+002 -6.604710e+001 1.025690e+002 -6.612587e+001 7.729501e+001 -3.714728e+000 2.033378e+001
6139206250 -1.135303e+000 -1.620927e+002 -6.624326e+001 9.808699e+001 -6.694437e+001 5.641618e+001 -3.711993e+000 1.898448e+001
6157950000 -1.139952e+000 -1.625998e+002 -6.616225e+001 9.578391e+001 -6.702088e+001 3.819872e+001 -3.702713e+000 1.768032e+001
6176693750 -1.139131e+000 -1.630534e+002 -6.636314e+001 9.104038e+001 -6.699448e+001 1.503354e+001 -3.711756e+000 1.642905e+001
6195437500 -1.149791e+000 -1.635098e+002 -6.631709e+001 9.096706e+001 -6.713618e+001 -5.855955e+000 -3.704441e+000 1.508516e+001
6214181250 -1.149378e+000 -1.639843e+002 -6.605121e+001 8.680087e+001 -6.729122e+001 -2.314650e+001 -3.697290e+000 1.378698e+001
6232925000 -1.154641e+000 -1.644380e+002 -6.613196e+001 8.300423e+001 -6.762669e+001 -3.820321e+001 -3.691926e+000 1.247107e+001
6251668750 -1.160788e+000 -1.648896e+002 -6.660050e+001 8.079585e+001 -6.756441e+001 -5.251160e+001 -3.687098e+000 1.113808e+001
6270412500 -1.166705e+000 -1.653859e+002 -6.652279e+001 7.983900e+001 -6.787453e+001 -6.198783e+001 -3.677589e+000 9.805046e+000
6289156250 -1.170768e+000 -1.658254e+002 -6.673253e+001 7.433569e+001 -6.799599e+001 -7.455218e+001 -3.676939e+000 8.480132e+000
6307900000 -1.173754e+000 -1.662579e+002 -6.716395e+001 6.076052e+001 -6.842661e+001 -8.743837e+001 -3.675833e+000 7.092950e+000
6326643750 -1.184609e+000 -1.667171e+002 -6.771767e+001 5.357513e+001 -6.816746e+001 -1.052960e+002 -3.665940e+000 5.717416e+000
6345387500 -1.189210e+000 -1.671697e+002 -6.791292e+001 5.197159e+001 -6.806467e+001 -1.225904e+002 -3.658754e+000 4.364451e+000
6364131250 -1.196437e+000 -1.675867e+002 -6.729201e+001 5.068364e+001 -6.778017e+001 -1.418869e+002 -3.657665e+000 2.978221e+000
6382875000 -1.206524e+000 -1.680457e+002 -6.672855e+001 4.456584e+001 -6.766183e+001 -1.577189e+002 -3.647033e+000 1.598354e+000
6401618750 -1.212956e+000 -1.685086e+002 -6.657951e+001 4.700519e+001 -6.819853e+001 -1.721993e+002 -3.639442e+000 2.257442e-001
6420362500 -1.218921e+000 -1.689467e+002 -6.686037e+001 4.726651e+001 -6.803561e+001 1.696878e+002 -3.635681e+000 -1.181918e+000
6439106250 -1.230149e+000 -1.693875e+002 -6.653141e+001 4.324474e+001 -6.720016e+001 1.507847e+002 -3.624500e+000 -2.581939e+000
6457850000 -1.232324e+000 -1.698290e+002 -6.634967e+001 4.269014e+001 -6.665507e+001 1.293655e+002 -3.618628e+000 -3.983667e+000
6476593750 -1.240283e+000 -1.702669e+002 -6.650755e+001 4.019528e+001 -6.694971e+001 1.139867e+002 -3.613119e+000 -5.389339e+000
6495337500 -1.247228e+000 -1.707039e+002 -6.671912e+001 3.821844e+001 -6.635943e+001 1.000108e+002 -3.598172e+000 -6.797717e+000
6514081250 -1.251522e+000 -1.711638e+002 -6.668687e+001 3.830804e+001 -6.704852e+001 9.487333e+001 -3.593713e+000 -8.205072e+000
6532825000 -1.260079e+000 -1.715940e+002 -6.666294e+001 3.576974e+001 -6.690447e+001 9.035294e+001 -3.584162e+000 -9.628985e+000
6551568750 -1.267097e+000 -1.720465e+002 -6.691589e+001 3.427458e+001 -6.687154e+001 8.615319e+001 -3.571656e+000 -1.105956e+001
6570312500 -1.272095e+000 -1.724879e+002 -6.660335e+001 3.043578e+001 -6.628570e+001 8.587250e+001 -3.564411e+000 -1.248570e+001
6589056250 -1.280350e+000 -1.729160e+002 -6.660319e+001 3.019177e+001 -6.609699e+001 8.321287e+001 -3.553892e+000 -1.393426e+001
6607800000 -1.288980e+000 -1.733746e+002 -6.655506e+001 2.626168e+001 -6.622378e+001 8.348823e+001 -3.537692e+000 -1.538551e+001
6626543750 -1.296916e+000 -1.737896e+002 -6.658307e+001 7.815540e+000 -6.653247e+001 8.058107e+001 -3.530386e+000 -1.686060e+001
6645287500 -1.307703e+000 -1.742496e+002 -6.668459e+001 -9.383190e+000 -6.649659e+001 7.894033e+001 -3.516166e+000 -1.833268e+001
6664031250 -1.311442e+000 -1.747186e+002 -6.689915e+001 -2.334621e+001 -6.610568e+001 7.519830e+001 -3.509624e+000 -1.976317e+001
6682775000 -1.319889e+000 -1.751277e+002 -6.654338e+001 -4.233891e+001 -6.607423e+001 6.906986e+001 -3.501702e+000 -2.126356e+001
6701518750 -1.330340e+000 -1.755588e+002 -6.670853e+001 -6.501709e+001 -6.607916e+001 5.884349e+001 -3.491086e+000 -2.276035e+001
6720262500 -1.335867e+000 -1.760324e+002 -6.663256e+001 -8.052615e+001 -6.607225e+001 5.597789e+001 -3.477712e+000 -2.422713e+001
6739006250 -1.341622e+000 -1.764688e+002 -6.656942e+001 -9.557404e+001 -6.577438e+001 5.207328e+001 -3.468257e+000 -2.568291e+001
6757750000 -1.351683e+000 -1.769047e+002 -6.603273e+001 -1.097276e+002 -6.582249e+001 4.811137e+001 -3.457193e+000 -2.717813e+001
6776493750 -1.355988e+000 -1.773729e+002 -6.578651e+001 -1.277420e+002 -6.620995e+001 4.518203e+001 -3.445925e+000 -2.866303e+001
6795237500 -1.360390e+000 -1.778092e+002 -6.601581e+001 -1.497859e+002 -6.605425e+001 4.137527e+001 -3.434069e+000 -3.013346e+001
6813981250 -1.369645e+000 -1.782525e+002 -6.650285e+001 -1.764620e+002 -6.595110e+001 3.576434e+001 -3.422674e+000 -3.165605e+001
6832725000 -1.375182e+000 -1.787218e+002 -6.669675e+001 1.478231e+002 -6.591196e+001 3.415330e+001 -3.408490e+000 -3.316125e+001
6851468750 -1.382562e+000 -1.791587e+002 -6.626142e+001 1.211099e+002 -6.609274e+001 2.759258e+001 -3.395638e+000 -3.463910e+001
6870212500 -1.388783e+000 -1.796136e+002 -6.614702e+001 1.013469e+002 -6.628455e+001 2.716971e+001 -3.382910e+000 -3.616706e+001
6888956250 -1.396121e+000 1.799265e+002 -6.638308e+001 7.376431e+001 -6.709873e+001 3.045051e+001 -3.368118e+000 -3.768175e+001
6907700000 -1.401143e+000 1.794970e+002 -6.663464e+001 4.405877e+001 -6.682088e+001 3.724289e+001 -3.357009e+000 -3.916897e+001
6926443750 -1.411334e+000 1.790319e+002 -6.600330e+001 6.991449e+000 -6.674212e+001 3.686649e+001 -3.347365e+000 -4.071505e+001
6945187500 -1.418842e+000 1.785864e+002 -6.615674e+001 -2.993419e+001 -6.666315e+001 3.001361e+001 -3.331365e+000 -4.225215e+001
6963931250 -1.425817e+000 1.781424e+002 -6.615359e+001 -6.413428e+001 -6.708817e+001 2.545215e+001 -3.321436e+000 -4.374945e+001
6982675000 -1.435237e+000 1.776831e+002 -6.646148e+001 -9.717948e+001 -6.725180e+001 1.623218e+001 -3.310477e+000 -4.530856e+001
7001418750 -1.442351e+000 1.772485e+002 -6.608478e+001 -1.279173e+002 -6.722098e+001 1.041542e+001 -3.294261e+000 -4.685935e+001
7020162500 -1.448920e+000 1.768204e+002 -6.592057e+001 -1.656225e+002 -6.736172e+001 2.861014e+000 -3.284499e+000 -4.836114e+001
7038906250 -1.458967e+000 1.763826e+002 -6.625102e+001 1.675641e+002 -6.726597e+001 -6.939794e+000 -3.272610e+000 -4.994116e+001
7057650000 -1.464647e+000 1.759463e+002 -6.638306e+001 1.447063e+002 -6.729546e+001 -1.143186e+001 -3.258347e+000 -5.149214e+001
7076393750 -1.471142e+000 1.755038e+002 -6.632410e+001 1.200209e+002 -6.736854e+001 -9.485481e+000 -3.248490e+000 -5.300811e+001
7095137500 -1.480603e+000 1.750524e+002 -6.606670e+001 9.832285e+001 -6.800214e+001 -4.921323e+000 -3.234800e+000 -5.459048e+001
7113881250 -1.486004e+000 1.746083e+002 -6.585867e+001 7.245280e+001 -6.843330e+001 8.201585e+000 -3.220567e+000 -5.615665e+001
7132625000 -1.494234e+000 1.741766e+002 -6.556062e+001 5.515598e+001 -6.854290e+001 1.653847e+001 -3.208653e+000 -5.769414e+001
7151368750 -1.504303e+000 1.737231e+002 -6.556536e+001 3.740440e+001 -6.881194e+001 2.104150e+001 -3.194821e+000 -5.928718e+001
7170112500 -1.511381e+000 1.732811e+002 -6.555560e+001 2.021165e+001 -6.913428e+001 2.712728e+001 -3.181413e+000 -6.083924e+001
7188856250 -1.518944e+000 1.728473e+002 -6.565732e+001 -6.742534e+000 -6.934609e+001 3.294186e+001 -3.170869e+000 -6.239007e+001
7207600000 -1.527446e+000 1.723896e+002 -6.599390e+001 -3.338071e+001 -6.887368e+001 4.062636e+001 -3.157124e+000 -6.397663e+001
7226343750 -1.534281e+000 1.719547e+002 -6.629192e+001 -6.130426e+001 -6.938210e+001 5.016682e+001 -3.143927e+000 -6.553964e+001
7245087500 -1.544037e+000 1.715419e+002 -6.605445e+001 -7.562797e+001 -6.950562e+001 5.794887e+001 -3.133606e+000 -6.710681e+001
7263831250 -1.551795e+000 1.710847e+002 -6.588958e+001 -8.791255e+001 -6.879514e+001 6.426843e+001 -3.119658e+000 -6.870284e+001
7282575000 -1.559393e+000 1.706411e+002 -6.610520e+001 -1.064322e+002 -6.843011e+001 7.433158e+001 -3.107167e+000 -7.026574e+001
7301318750 -1.568353e+000 1.702114e+002 -6.678648e+001 -1.319272e+002 -6.828069e+001 7.214835e+001 -3.096877e+000 -7.184209e+001
7320062500 -1.573668e+000 1.697341e+002 -6.674639e+001 -1.477468e+002 -6.756174e+001 7.035484e+001 -3.083380e+000 -7.344350e+001
7338806250 -1.582088e+000 1.693012e+002 -6.659082e+001 -1.679990e+002 -6.773352e+001 6.117715e+001 -3.071579e+000 -7.500890e+001
7357550000 -1.591488e+000 1.688793e+002 -6.752112e+001 1.767818e+002 -6.837548e+001 6.445897e+001 -3.058805e+000 -7.659834e+001
7376293750 -1.596842e+000 1.684184e+002 -6.747894e+001 1.571836e+002 -6.765459e+001 6.641601e+001 -3.046365e+000 -7.818295e+001
7395037500 -1.601730e+000 1.679756e+002 -6.766542e+001 1.321741e+002 -6.701880e+001 7.742179e+001 -3.034932e+000 -7.978157e+001
7413781250 -1.610342e+000 1.675541e+002 -6.732274e+001 9.858494e+001 -6.674151e+001 9.665292e+001 -3.020047e+000 -8.137281e+001
7432525000 -1.619140e+000 1.670473e+002 -6.724657e+001 7.233682e+001 -6.694370e+001 1.048319e+002 -3.007092e+000 -8.292116e+001
7451268750 -1.624100e+000 1.666000e+002 -6.754496e+001 5.249344e+001 -6.813269e+001 1.077622e+002 -2.996258e+000 -8.452110e+001
7470012500 -1.627064e+000 1.661684e+002 -6.786057e+001 2.892576e+001 -6.850737e+001 1.148308e+002 -2.986163e+000 -8.610528e+001
7488756250 -1.641232e+000 1.656857e+002 -6.757585e+001 2.595035e+000 -6.864346e+001 1.223884e+002 -2.972688e+000 -8.768929e+001
7507500000 -1.646466e+000 1.652232e+002 -6.734263e+001 -1.813987e+001 -6.849809e+001 1.224215e+002 -2.961240e+000 -8.927020e+001
7526243750 -1.651213e+000 1.647866e+002 -6.779923e+001 -4.366661e+001 -6.851488e+001 1.197886e+002 -2.952273e+000 -9.084708e+001
7544987500 -1.664690e+000 1.643091e+002 -6.795461e+001 -6.129342e+001 -6.838872e+001 1.068806e+002 -2.940061e+000 -9.241971e+001
7563731250 -1.668077e+000 1.638454e+002 -6.848267e+001 -8.482965e+001 -6.820036e+001 9.675209e+001 -2.932304e+000 -9.398638e+001
7582475000 -1.672605e+000 1.634178e+002 -6.829902e+001 -1.137962e+002 -6.805725e+001 8.894705e+001 -2.922024e+000 -9.556018e+001
7601218750 -1.685827e+000 1.629377e+002 -6.834419e+001 -1.373014e+002 -6.793977e+001 8.276875e+001 -2.910641e+000 -9.715002e+001
7619962500 -1.690648e+000 1.624726e+002 -6.809254e+001 -1.561619e+002 -6.782883e+001 7.783054e+001 -2.900748e+000 -9.871418e+001
7638706250 -1.697117e+000 1.620290e+002 -6.802520e+001 -1.785981e+002 -6.775983e+001 6.908874e+001 -2.891390e+000 -1.002831e+002
7657450000 -1.708416e+000 1.615586e+002 -6.789741e+001 1.645757e+002 -6.705067e+001 6.132971e+001 -2.882459e+000 -1.018699e+002
7676193750 -1.711857e+000 1.610990e+002 -6.787846e+001 1.423575e+002 -6.708270e+001 4.939051e+001 -2.873361e+000 -1.034196e+002
7694937500 -1.719539e+000 1.606617e+002 -6.792619e+001 1.203581e+002 -6.748001e+001 4.510009e+001 -2.865163e+000 -1.049832e+002
7713681250 -1.729259e+000 1.602003e+002 -6.787135e+001 1.024371e+002 -6.821330e+001 3.605392e+001 -2.856736e+000 -1.065633e+002
7732425000 -1.735603e+000 1.597342e+002 -6.732127e+001 9.554874e+001 -6.832600e+001 3.945679e+001 -2.845344e+000 -1.081097e+002
7751168750 -1.744311e+000 1.592944e+002 -6.739064e+001 8.559953e+001 -6.856952e+001 3.274264e+001 -2.837824e+000 -1.096629e+002
7769912500 -1.753551e+000 1.588297e+002 -6.732764e+001 8.427464e+001 -6.834794e+001 3.044760e+001 -2.830571e+000 -1.112399e+002
7788656250 -1.758149e+000 1.583718e+002 -6.657705e+001 8.935424e+001 -6.769211e+001 2.633896e+001 -2.821059e+000 -1.127731e+002
7807400000 -1.769011e+000 1.579294e+002 -6.650592e+001 9.356387e+001 -6.797088e+001 2.854480e+001 -2.814781e+000 -1.143225e+002
7826143750 -1.780780e+000 1.574745e+002 -6.644541e+001 1.044537e+002 -6.812140e+001 2.054490e+001 -2.805865e+000 -1.158465e+002
7844887500 -1.787681e+000 1.570006e+002 -6.657307e+001 1.240442e+002 -6.846336e+001 1.423859e+001 -2.799484e+000 -1.173662e+002
7863631250 -1.795404e+000 1.565653e+002 -6.663219e+001 1.338381e+002 -6.853112e+001 8.032667e+000 -2.795440e+000 -1.189357e+002
7882375000 -1.806411e+000 1.561106e+002 -6.681328e+001 1.386715e+002 -6.725329e+001 1.012877e+001 -2.787367e+000 -1.204502e+002
7901118750 -1.818150e+000 1.556340e+002 -6.626750e+001 1.376439e+002 -6.695551e+001 4.255863e+000 -2.778722e+000 -1.219670e+002
7919862500 -1.821180e+000 1.551958e+002 -6.616689e+001 1.461562e+002 -6.689272e+001 1.166537e+000 -2.773096e+000 -1.234943e+002
7938606250 -1.834536e+000 1.547594e+002 -6.663094e+001 1.502267e+002 -6.695219e+001 1.294628e+000 -2.766719e+000 -1.250098e+002
7957350000 -1.846466e+000 1.542721e+002 -6.606353e+001 1.622966e+002 -6.690350e+001 3.208453e+000 -2.759327e+000 -1.265080e+002
7976093750 -1.850698e+000 1.538265e+002 -6.610245e+001 1.668220e+002 -6.716676e+001 1.306675e+001 -2.755733e+000 -1.280195e+002
7994837500 -1.863132e+000 1.533902e+002 -6.611734e+001 1.674933e+002 -6.703680e+001 2.632057e+001 -2.750154e+000 -1.295081e+002
8013581250 -1.872807e+000 1.529130e+002 -6.636816e+001 1.692632e+002 -6.721717e+001 2.999883e+001 -2.745302e+000 -1.310134e+002
8032325000 -1.876246e+000 1.524753e+002 -6.636673e+001 1.736933e+002 -6.748230e+001 3.912770e+001 -2.743451e+000 -1.324904e+002
8051068750 -1.890068e+000 1.520355e+002 -6.640828e+001 1.732657e+002 -6.758296e+001 5.317140e+001 -2.738354e+000 -1.339754e+002
8069812500 -1.899517e+000 1.515403e+002 -6.701657e+001 1.779379e+002 -6.771900e+001 6.676643e+001 -2.735648e+000 -1.354494e+002
8088556250 -1.906189e+000 1.510782e+002 -6.698098e+001 -1.708425e+002 -6.832892e+001 7.995921e+001 -2.732037e+000 -1.369073e+002
8107300000 -1.917702e+000 1.506193e+002 -6.683124e+001 -1.600637e+002 -6.800453e+001 9.948019e+001 -2.726498e+000 -1.383907e+002
8126043750 -1.926045e+000 1.501437e+002 -6.675745e+001 -1.421691e+002 -6.833477e+001 1.051281e+002 -2.724319e+000 -1.398373e+002
8144787500 -1.931315e+000 1.496986e+002 -6.717514e+001 -1.219854e+002 -6.777975e+001 1.176410e+002 -2.722650e+000 -1.412792e+002
8163531250 -1.944677e+000 1.492475e+002 -6.708565e+001 -1.024341e+002 -6.729825e+001 1.319126e+002 -2.721134e+000 -1.427377e+002
8182275000 -1.953714e+000 1.487540e+002 -6.714947e+001 -8.480386e+001 -6.690231e+001 1.452912e+002 -2.719092e+000 -1.441545e+002
8201018750 -1.958845e+000 1.482777e+002 -6.718630e+001 -7.108568e+001 -6.683266e+001 1.512269e+002 -2.717139e+000 -1.455883e+002
8219762500 -1.970033e+000 1.478207e+002 -6.753385e+001 -6.276665e+001 -6.683997e+001 1.485858e+002 -2.716511e+000 -1.470311e+002
8238506250 -1.977982e+000 1.473290e+002 -6.736382e+001 -4.427924e+001 -6.649158e+001 1.377866e+002 -2.714443e+000 -1.484278e+002
8257250000 -1.984632e+000 1.468920e+002 -6.777544e+001 -2.986018e+001 -6.667172e+001 1.347120e+002 -2.715174e+000 -1.498489e+002
8275993750 -1.996225e+000 1.464411e+002 -6.846690e+001 -1.509986e+001 -6.637016e+001 1.274346e+002 -2.714436e+000 -1.512733e+002
8294737500 -2.003578e+000 1.459475e+002 -6.865367e+001 -1.075410e+000 -6.600135e+001 1.285821e+002 -2.712754e+000 -1.526488e+002
8313481250 -2.011922e+000 1.454881e+002 -6.824015e+001 1.576572e+001 -6.579532e+001 1.263274e+002 -2.714926e+000 -1.540563e+002
8332225000 -2.022002e+000 1.450301e+002 -6.820355e+001 3.699260e+001 -6.591713e+001 1.263604e+002 -2.714405e+000 -1.554491e+002
8350968750 -2.028814e+000 1.445591e+002 -6.840414e+001 5.645778e+001 -6.611029e+001 1.235157e+002 -2.715971e+000 -1.567960e+002
8369712500 -2.037254e+000 1.441159e+002 -6.801778e+001 8.338132e+001 -6.619726e+001 1.164734e+002 -2.718897e+000 -1.581737e+002
8388456250 -2.048529e+000 1.436576e+002 -6.781495e+001 9.720246e+001 -6.587173e+001 1.079322e+002 -2.720776e+000 -1.595644e+002
8407200000 -2.056118e+000 1.431749e+002 -6.810302e+001 1.147921e+002 -6.536829e+001 9.745568e+001 -2.721111e+000 -1.608907e+002
8425943750 -2.063352e+000 1.427151e+002 -6.779558e+001 1.379433e+002 -6.552802e+001 8.828525e+001 -2.723182e+000 -1.622716e+002
8444687500 -2.073546e+000 1.422387e+002 -6.771584e+001 1.625500e+002 -6.526309e+001 8.054409e+001 -2.724166e+000 -1.636207e+002
8463431250 -2.080607e+000 1.417602e+002 -6.742543e+001 -1.726169e+002 -6.538636e+001 6.402107e+001 -2.722062e+000 -1.649342e+002
8482175000 -2.089778e+000 1.413108e+002 -6.743414e+001 -1.461689e+002 -6.519116e+001 4.466882e+001 -2.728109e+000 -1.662786e+002
8500918750 -2.101604e+000 1.408427e+002 -6.720251e+001 -1.245491e+002 -6.525692e+001 2.787420e+001 -2.729266e+000 -1.676180e+002
8519662500 -2.108736e+000 1.403527e+002 -6.696437e+001 -1.068238e+002 -6.508814e+001 9.423243e+000 -2.730754e+000 -1.689089e+002
8538406250 -2.119112e+000 1.398963e+002 -6.680274e+001 -9.531027e+001 -6.524282e+001 -1.282868e+001 -2.739454e+000 -1.702362e+002
8557150000 -2.129842e+000 1.394015e+002 -6.704561e+001 -8.856908e+001 -6.460019e+001 -2.449383e+001 -2.742681e+000 -1.715479e+002
8575893750 -2.139370e+000 1.389232e+002 -6.631304e+001 -8.529301e+001 -6.446955e+001 -3.797132e+001 -2.745972e+000 -1.728210e+002
8594637500 -2.149133e+000 1.384790e+002 -6.644166e+001 -9.037640e+001 -6.482264e+001 -5.829636e+001 -2.754759e+000 -1.741301e+002
8613381250 -2.160484e+000 1.379896e+002 -6.628757e+001 -9.678283e+001 -6.478984e+001 -7.516808e+001 -2.757872e+000 -1.754138e+002
8632125000 -2.170905e+000 1.375098e+002 -6.601820e+001 -9.996712e+001 -6.488904e+001 -8.338631e+001 -2.762442e+000 -1.766678e+002
8650868750 -2.180825e+000 1.370441e+002 -6.568386e+001 -1.041943e+002 -6.484334e+001 -8.642640e+001 -2.770667e+000 -1.779607e+002
8669612500 -2.190118e+000 1.365576e+002 -6.599991e+001 -1.174878e+002 -6.523943e+001 -9.405028e+001 -2.773813e+000 -1.792262e+002
8688356250 -2.198431e+000 1.360740e+002 -6.584839e+001 -1.214557e+002 -6.494710e+001 -1.007085e+002 -2.780150e+000 1.795345e+002
8707100000 -2.209510e+000 1.356062e+002 -6.540866e+001 -1.290581e+002 -6.463419e+001 -1.029593e+002 -2.790674e+000 1.782718e+002
8725843750 -2.219524e+000 1.351164e+002 -6.527641e+001 -1.292355e+002 -6.503713e+001 -1.097640e+002 -2.796024e+000 1.770313e+002
8744587500 -2.227392e+000 1.346343e+002 -6.503404e+001 -1.313369e+002 -6.510629e+001 -1.137055e+002 -2.806479e+000 1.758121e+002
8763331250 -2.236621e+000 1.341621e+002 -6.491321e+001 -1.336031e+002 -6.508686e+001 -1.142217e+002 -2.817039e+000 1.745486e+002
8782075000 -2.245423e+000 1.336549e+002 -6.472411e+001 -1.344980e+002 -6.446519e+001 -1.182225e+002 -2.822580e+000 1.733281e+002
8800818750 -2.252253e+000 1.331767e+002 -6.468397e+001 -1.418163e+002 -6.429847e+001 -1.170277e+002 -2.832750e+000 1.721164e+002
8819562500 -2.262829e+000 1.327130e+002 -6.495938e+001 -1.419091e+002 -6.417471e+001 -1.202520e+002 -2.841846e+000 1.708837e+002
8838306250 -2.274133e+000 1.322034e+002 -6.444854e+001 -1.424926e+002 -6.416713e+001 -1.260604e+002 -2.849766e+000 1.696823e+002
8857050000 -2.283494e+000 1.317190e+002 -6.455180e+001 -1.453023e+002 -6.454359e+001 -1.423806e+002 -2.863088e+000 1.684813e+002
8875793750 -2.293673e+000 1.312382e+002 -6.445719e+001 -1.452767e+002 -6.426630e+001 -1.479704e+002 -2.874553e+000 1.672500e+002
8894537500 -2.303459e+000 1.307417e+002 -6.455047e+001 -1.513208e+002 -6.386580e+001 -1.483480e+002 -2.883832e+000 1.660679e+002
8913281250 -2.310303e+000 1.302734e+002 -6.476841e+001 -1.568245e+002 -6.432755e+001 -1.452513e+002 -2.898363e+000 1.648753e+002
8932025000 -2.320436e+000 1.298055e+002 -6.463357e+001 -1.584335e+002 -6.454851e+001 -1.461406e+002 -2.909496e+000 1.636626e+002
8950768750 -2.330731e+000 1.293074e+002 -6.498294e+001 -1.630012e+002 -6.456519e+001 -1.471422e+002 -2.918974e+000 1.624953e+002
8969512500 -2.339400e+000 1.288245e+002 -6.502594e+001 -1.610410e+002 -6.441930e+001 -1.445785e+002 -2.932367e+000 1.613185e+002
8988256250 -2.348570e+000 1.283347e+002 -6.467393e+001 -1.583456e+002 -6.418897e+001 -1.464018e+002 -2.941080e+000 1.601224e+002
9007000000 -2.357236e+000 1.278491e+002 -6.481446e+001 -1.613270e+002 -6.416975e+001 -1.511889e+002 -2.950231e+000 1.589736e+002
9025743750 -2.366219e+000 1.273724e+002 -6.495503e+001 -1.661948e+002 -6.470598e+001 -1.491539e+002 -2.965495e+000 1.578170e+002
9044487500 -2.377133e+000 1.269007e+002 -6.509882e+001 -1.635852e+002 -6.558296e+001 -1.428217e+002 -2.976397e+000 1.566361e+002
9063231250 -2.386036e+000 1.264069e+002 -6.507099e+001 -1.675343e+002 -6.547573e+001 -1.328476e+002 -2.989465e+000 1.555005e+002
9081975000 -2.396868e+000 1.259292e+002 -6.493246e+001 -1.667943e+002 -6.545496e+001 -1.199973e+002 -3.005968e+000 1.543408e+002
9100718750 -2.407772e+000 1.254266e+002 -6.487825e+001 -1.633122e+002 -6.528731e+001 -1.020985e+002 -3.017210e+000 1.531641e+002
9119462500 -2.416267e+000 1.249303e+002 -6.481231e+001 -1.606452e+002 -6.551196e+001 -8.597481e+001 -3.028639e+000 1.520442e+002
9138206250 -2.425634e+000 1.244684e+002 -6.461252e+001 -1.626868e+002 -6.570161e+001 -7.544881e+001 -3.042946e+000 1.508934e+002
9156950000 -2.437045e+000 1.239840e+002 -6.448180e+001 -1.638456e+002 -6.546814e+001 -6.186760e+001 -3.054151e+000 1.497456e+002
9175693750 -2.447913e+000 1.234757e+002 -6.466077e+001 -1.656283e+002 -6.580200e+001 -4.961568e+001 -3.064343e+000 1.486348e+002
9194437500 -2.458886e+000 1.229942e+002 -6.465498e+001 -1.685000e+002 -6.586161e+001 -3.776447e+001 -3.078392e+000 1.474974e+002
9213181250 -2.469139e+000 1.224936e+002 -6.477725e+001 -1.691105e+002 -6.616392e+001 -1.983806e+001 -3.090006e+000 1.463692e+002
9231925000 -2.478644e+000 1.219968e+002 -6.476595e+001 -1.734967e+002 -6.634457e+001 -9.617755e+000 -3.103431e+000 1.452628e+002
9250668750 -2.486937e+000 1.215267e+002 -6.456500e+001 -1.775677e+002 -6.631544e+001 8.836050e+000 -3.119920e+000 1.441421e+002
9269412500 -2.498399e+000 1.210381e+002 -6.480907e+001 1.778685e+002 -6.633924e+001 2.549923e+001 -3.129398e+000 1.430249e+002
9288156250 -2.508188e+000 1.205269e+002 -6.464407e+001 1.781350e+002 -6.611549e+001 4.505047e+001 -3.142608e+000 1.419388e+002
9306900000 -2.518543e+000 1.200387e+002 -6.489410e+001 -1.785482e+002 -6.618934e+001 5.904749e+001 -3.156041e+000 1.408271e+002
9325643750 -2.530838e+000 1.195344e+002 -6.513596e+001 -1.686846e+002 -6.604710e+001 6.870926e+001 -3.168309e+000 1.397227e+002
9344387500 -2.539546e+000 1.190328e+002 -6.533003e+001 -1.581626e+002 -6.586153e+001 7.778574e+001 -3.180747e+000 1.386484e+002
9363131250 -2.549319e+000 1.185510e+002 -6.584081e+001 -1.542455e+002 -6.592694e+001 8.761616e+001 -3.194942e+000 1.375437e+002
9381875000 -2.561815e+000 1.180668e+002 -6.546309e+001 -1.561996e+002 -6.658288e+001 1.045671e+002 -3.207227e+000 1.364598e+002
9400618750 -2.569990e+000 1.175595e+002 -6.546880e+001 -1.579922e+002 -6.662230e+001 1.161118e+002 -3.221722e+000 1.353936e+002
9419362500 -2.581331e+000 1.170713e+002 -6.569772e+001 -1.608967e+002 -6.662429e+001 1.286679e+002 -3.237453e+000 1.342870e+002
9438106250 -2.592726e+000 1.165459e+002 -6.570713e+001 -1.658033e+002 -6.655843e+001 1.429186e+002 -3.247596e+000 1.331962e+002
9456850000 -2.599892e+000 1.160400e+002 -6.566652e+001 -1.702523e+002 -6.576659e+001 1.487868e+002 -3.261191e+000 1.321286e+002
9475593750 -2.609183e+000 1.155550e+002 -6.612833e+001 1.794507e+002 -6.516084e+001 1.497176e+002 -3.276553e+000 1.310334e+002
9494337500 -2.622258e+000 1.150450e+002 -6.633779e+001 1.715154e+002 -6.606955e+001 1.409672e+002 -3.285255e+000 1.299682e+002
9513081250 -2.630144e+000 1.145357e+002 -6.652258e+001 1.688856e+002 -6.623984e+001 1.226416e+002 -3.298620e+000 1.289262e+002
9531825000 -2.640245e+000 1.140211e+002 -6.651031e+001 1.614090e+002 -6.665680e+001 1.104024e+002 -3.313941e+000 1.278521e+002
9550568750 -2.650932e+000 1.134968e+002 -6.651136e+001 1.443098e+002 -6.694493e+001 9.372482e+001 -3.325117e+000 1.267883e+002
9569312500 -2.658704e+000 1.129913e+002 -6.611533e+001 1.335543e+002 -6.668324e+001 8.004853e+001 -3.341728e+000 1.257574e+002
9588056250 -2.669552e+000 1.124919e+002 -6.645139e+001 1.153259e+002 -6.665882e+001 6.280001e+001 -3.357615e+000 1.246772e+002
9606800000 -2.682144e+000 1.119988e+002 -6.686402e+001 1.036086e+002 -6.651881e+001 5.241508e+001 -3.368018e+000 1.236257e+002
9625543750 -2.691644e+000 1.114863e+002 -6.714394e+001 8.931743e+001 -6.641605e+001 3.759245e+001 -3.384324e+000 1.225900e+002
9644287500 -2.703617e+000 1.109687e+002 -6.698016e+001 7.167400e+001 -6.659202e+001 2.186572e+001 -3.398195e+000 1.215148e+002
9663031250 -2.712721e+000 1.104510e+002 -6.709451e+001 5.937983e+001 -6.652172e+001 5.744110e+000 -3.407132e+000 1.204788e+002
9681775000 -2.721744e+000 1.099340e+002 -6.711760e+001 4.483517e+001 -6.641924e+001 -1.629438e+001 -3.421630e+000 1.194643e+002
9700518750 -2.732995e+000 1.094371e+002 -6.670065e+001 3.117595e+001 -6.644433e+001 -3.817285e+001 -3.437735e+000 1.184023e+002
9719262500 -2.744596e+000 1.089281e+002 -6.692554e+001 1.396891e+001 -6.644061e+001 -5.480683e+001 -3.449872e+000 1.173827e+002
9738006250 -2.755137e+000 1.084244e+002 -6.652573e+001 -9.178245e+000 -6.655350e+001 -7.099449e+001 -3.468316e+000 1.163679e+002
9756750000 -2.766253e+000 1.078892e+002 -6.636243e+001 -3.501143e+001 -6.629879e+001 -8.608048e+001 -3.483745e+000 1.153108e+002
9775493750 -2.778044e+000 1.073645e+002 -6.581747e+001 -5.644579e+001 -6.637949e+001 -1.003456e+002 -3.494230e+000 1.142970e+002
9794237500 -2.789624e+000 1.068556e+002 -6.496102e+001 -7.499086e+001 -6.635529e+001 -1.146239e+002 -3.506116e+000 1.133272e+002
9812981250 -2.798362e+000 1.063436e+002 -6.526258e+001 -9.042791e+001 -6.526728e+001 -1.341466e+002 -3.525435e+000 1.122731e+002
9831725000 -2.809437e+000 1.058287e+002 -6.539498e+001 -1.069564e+002 -6.571192e+001 -1.501450e+002 -3.534788e+000 1.112377e+002
9850468750 -2.821166e+000 1.053138e+002 -6.553518e+001 -1.266811e+002 -6.593205e+001 -1.651037e+002 -3.549451e+000 1.102825e+002
9869212500 -2.828914e+000 1.047788e+002 -6.534020e+001 -1.419725e+002 -6.561264e+001 1.777863e+002 -3.569803e+000 1.092749e+002
9887956250 -2.837893e+000 1.042657e+002 -6.491792e+001 -1.497229e+002 -6.559927e+001 1.660710e+002 -3.584583e+000 1.082509e+002
9906700000 -2.850194e+000 1.037624e+002 -6.454288e+001 -1.626384e+002 -6.563021e+001 1.553465e+002 -3.595563e+000 1.072632e+002
9925443750 -2.859067e+000 1.032461e+002 -6.464133e+001 -1.670494e+002 -6.523809e+001 1.488285e+002 -3.616275e+000 1.062677e+002
9944187500 -2.871515e+000 1.027394e+002 -6.452330e+001 -1.792039e+002 -6.500446e+001 1.455814e+002 -3.632955e+000 1.052568e+002
9962931250 -2.885502e+000 1.022437e+002 -6.436626e+001 1.720320e+002 -6.450648e+001 1.399888e+002 -3.646167e+000 1.042679e+002
9981675000 -2.893792e+000 1.017102e+002 -6.414574e+001 1.671543e+002 -6.408506e+001 1.376188e+002 -3.664205e+000 1.032579e+002
10000418750 -2.904140e+000 1.011950e+002 -6.454492e+001 1.562348e+002 -6.432294e+001 1.391908e+002 -3.677207e+000 1.022479e+002
10019162500 -2.914657e+000 1.006956e+002 -6.442595e+001 1.570304e+002 -6.432333e+001 1.368104e+002 -3.690354e+000 1.012721e+002
10037906250 -2.921576e+000 1.001470e+002 -6.385444e+001 1.514911e+002 -6.458773e+001 1.298470e+002 -3.711333e+000 1.002722e+002
10056650000 -2.932136e+000 9.965741e+001 -6.398208e+001 1.511989e+002 -6.436530e+001 1.291734e+002 -3.725245e+000 9.927934e+001
10075393750 -2.946622e+000 9.914185e+001 -6.426934e+001 1.506880e+002 -6.422665e+001 1.203689e+002 -3.742855e+000 9.829803e+001
10094137500 -2.957639e+000 9.859412e+001 -6.473556e+001 1.417384e+002 -6.444943e+001 1.176353e+002 -3.763372e+000 9.728826e+001
10112881250 -2.967952e+000 9.809497e+001 -6.534852e+001 1.328797e+002 -6.461488e+001 1.125395e+002 -3.775155e+000 9.629300e+001
10131625000 -2.979818e+000 9.756521e+001 -6.560588e+001 1.289323e+002 -6.471620e+001 1.015041e+002 -3.793539e+000 9.533615e+001
10150368750 -2.988177e+000 9.701719e+001 -6.554073e+001 1.264345e+002 -6.449146e+001 9.333305e+001 -3.812133e+000 9.432005e+001
10169112500 -2.999937e+000 9.651517e+001 -6.605455e+001 1.281697e+002 -6.460909e+001 8.945231e+001 -3.821515e+000 9.332417e+001
10187856250 -3.015500e+000 9.598611e+001 -6.609716e+001 1.217508e+002 -6.522772e+001 9.155802e+001 -3.839141e+000 9.235753e+001
10206600000 -3.021722e+000 9.542889e+001 -6.647321e+001 1.185452e+002 -6.527966e+001 9.428816e+001 -3.858453e+000 9.134389e+001
10225343750 -3.031368e+000 9.493294e+001 -6.642208e+001 1.138140e+002 -6.507114e+001 9.439652e+001 -3.872521e+000 9.033906e+001
10244087500 -3.046244e+000 9.438316e+001 -6.595930e+001 1.137908e+002 -6.566489e+001 9.123730e+001 -3.885384e+000 8.938861e+001
10262831250 -3.056892e+000 9.384386e+001 -6.586985e+001 1.150448e+002 -6.543511e+001 8.950943e+001 -3.906188e+000 8.842018e+001
10281575000 -3.067457e+000 9.334711e+001 -6.597285e+001 1.135142e+002 -6.544975e+001 8.280510e+001 -3.919789e+000 8.740715e+001
10300318750 -3.084180e+000 9.279618e+001 -6.606115e+001 1.152930e+002 -6.574622e+001 8.546967e+001 -3.935178e+000 8.642371e+001
10319062500 -3.092370e+000 9.225072e+001 -6.628618e+001 1.144407e+002 -6.585884e+001 7.920410e+001 -3.949335e+000 8.544843e+001
10337806250 -3.100478e+000 9.172938e+001 -6.610732e+001 1.146211e+002 -6.578477e+001 8.052714e+001 -3.967827e+000 8.448039e+001
10356550000 -3.114480e+000 9.118596e+001 -6.602971e+001 1.089146e+002 -6.549554e+001 7.747313e+001 -3.982952e+000 8.347963e+001
10375293750 -3.123987e+000 9.063836e+001 -6.587961e+001 1.054582e+002 -6.565498e+001 8.431779e+001 -3.996012e+000 8.250496e+001
10394037500 -3.136477e+000 9.010416e+001 -6.594309e+001 1.049060e+002 -6.580028e+001 8.739306e+001 -4.013578e+000 8.153667e+001
10412781250 -3.149832e+000 8.954073e+001 -6.625345e+001 1.075005e+002 -6.597062e+001 8.727377e+001 -4.030714e+000 8.056137e+001
10431525000 -3.158101e+000 8.898090e+001 -6.633542e+001 1.145990e+002 -6.590467e+001 8.617281e+001 -4.044881e+000 7.960397e+001
10450268750 -3.169492e+000 8.844751e+001 -6.647527e+001 1.106585e+002 -6.577141e+001 9.037907e+001 -4.062115e+000 7.863924e+001
10469012500 -3.182041e+000 8.791487e+001 -6.664892e+001 1.094810e+002 -6.553804e+001 8.845470e+001 -4.075991e+000 7.765423e+001
10487756250 -3.194446e+000 8.736035e+001 -6.675129e+001 1.133792e+002 -6.555573e+001 9.079049e+001 -4.090114e+000 7.670904e+001
10506500000 -3.207551e+000 8.683331e+001 -6.664883e+001 1.093328e+002 -6.538002e+001 9.713857e+001 -4.105290e+000 7.574139e+001
10525243750 -3.217487e+000 8.625932e+001 -6.625707e+001 1.105944e+002 -6.543301e+001 1.070022e+002 -4.118707e+000 7.477585e+001
10543987500 -3.227802e+000 8.570572e+001 -6.573711e+001 1.205709e+002 -6.547898e+001 1.138524e+002 -4.132016e+000 7.382861e+001
10562731250 -3.239053e+000 8.517269e+001 -6.598383e+001 1.308314e+002 -6.548413e+001 1.253966e+002 -4.148232e+000 7.286107e+001
10581475000 -3.249726e+000 8.463499e+001 -6.587682e+001 1.471474e+002 -6.537729e+001 1.277675e+002 -4.160171e+000 7.189493e+001
10600218750 -3.261095e+000 8.408710e+001 -6.603886e+001 1.516726e+002 -6.510532e+001 1.295421e+002 -4.176854e+000 7.097490e+001
10618962500 -3.272142e+000 8.353008e+001 -6.585688e+001 1.599180e+002 -6.505187e+001 1.337883e+002 -4.193661e+000 7.000710e+001
10637706250 -3.281661e+000 8.295795e+001 -6.602545e+001 1.684949e+002 -6.531010e+001 1.308655e+002 -4.204010e+000 6.903722e+001
10656450000 -3.291576e+000 8.239552e+001 -6.605232e+001 -1.741404e+002 -6.518920e+001 1.329868e+002 -4.221139e+000 6.811272e+001
10675193750 -3.302256e+000 8.184867e+001 -6.621528e+001 -1.598055e+002 -6.485604e+001 1.331226e+002 -4.239351e+000 6.715151e+001
10693937500 -3.311522e+000 8.128583e+001 -6.661683e+001 -1.410664e+002 -6.502267e+001 1.314809e+002 -4.251194e+000 6.617537e+001
10712681250 -3.321747e+000 8.075641e+001 -6.658447e+001 -1.116687e+002 -6.482284e+001 1.363945e+002 -4.266864e+000 6.525451e+001
10731425000 -3.336333e+000 8.019621e+001 -6.675783e+001 -8.092320e+001 -6.522327e+001 1.287063e+002 -4.283760e+000 6.429153e+001
10750168750 -3.346724e+000 7.960166e+001 -6.673993e+001 -4.898696e+001 -6.548902e+001 1.274341e+002 -4.294123e+000 6.335632e+001
10768912500 -3.357066e+000 7.902941e+001 -6.654405e+001 -1.531496e+001 -6.542124e+001 1.268816e+002 -4.309711e+000 6.242831e+001
10787656250 -3.368076e+000 7.847497e+001 -6.666928e+001 1.493633e+001 -6.563096e+001 1.307913e+002 -4.326011e+000 6.147190e+001
10806400000 -3.375762e+000 7.790561e+001 -6.666854e+001 4.892189e+001 -6.557748e+001 1.297213e+002 -4.338072e+000 6.053249e+001
10825143750 -3.383403e+000 7.736265e+001 -6.653401e+001 7.823400e+001 -6.584956e+001 1.302264e+002 -4.354669e+000 5.961551e+001
10843887500 -3.398403e+000 7.679092e+001 -6.623708e+001 1.111457e+002 -6.551264e+001 1.360188e+002 -4.369227e+000 5.865495e+001
10862631250 -3.408700e+000 7.619016e+001 -6.639443e+001 1.406542e+002 -6.537761e+001 1.340578e+002 -4.381251e+000 5.770913e+001
10881375000 -3.418220e+000 7.561658e+001 -6.613311e+001 1.748373e+002 -6.555801e+001 1.329929e+002 -4.398140e+000 5.678239e+001
10900118750 -3.430570e+000 7.504276e+001 -6.647414e+001 -1.523768e+002 -6.668383e+001 1.380292e+002 -4.414766e+000 5.582395e+001
10918862500 -3.440050e+000 7.445428e+001 -6.600663e+001 -1.251091e+002 -6.691055e+001 1.372253e+002 -4.428538e+000 5.486581e+001
10937606250 -3.449839e+000 7.389008e+001 -6.639478e+001 -9.292301e+001 -6.713156e+001 1.387240e+002 -4.446449e+000 5.394939e+001
10956350000 -3.462763e+000 7.330853e+001 -6.616949e+001 -5.717248e+001 -6.680814e+001 1.313548e+002 -4.462825e+000 5.298513e+001
10975093750 -3.473048e+000 7.271298e+001 -6.599720e+001 -2.568293e+001 -6.735934e+001 1.341151e+002 -4.478662e+000 5.204557e+001
10993837500 -3.482132e+000 7.212049e+001 -6.570551e+001 -3.632140e+000 -6.729422e+001 1.438102e+002 -4.497266e+000 5.111300e+001
11012581250 -3.494146e+000 7.152995e+001 -6.602003e+001 1.094803e+001 -6.733462e+001 1.527850e+002 -4.513293e+000 5.015983e+001
11031325000 -3.501986e+000 7.093914e+001 -6.533228e+001 3.767049e+001 -6.724899e+001 1.537579e+002 -4.528365e+000 4.921919e+001
11050068750 -3.513678e+000 7.038824e+001 -6.576022e+001 6.716679e+001 -6.696356e+001 1.504744e+002 -4.546021e+000 4.829279e+001
11068812500 -3.528436e+000 6.980252e+001 -6.558820e+001 9.329099e+001 -6.655700e+001 1.504444e+002 -4.560486e+000 4.733492e+001
11087556250 -3.537184e+000 6.920052e+001 -6.588368e+001 1.105221e+002 -6.650629e+001 1.500619e+002 -4.575261e+000 4.640871e+001
11106300000 -3.548331e+000 6.863097e+001 -6.618768e+001 1.293808e+002 -6.624154e+001 1.472910e+002 -4.593190e+000 4.545858e+001
11125043750 -3.559492e+000 6.804067e+001 -6.593490e+001 1.389544e+002 -6.604048e+001 1.381597e+002 -4.607061e+000 4.450680e+001
11143787500 -3.569953e+000 6.743333e+001 -6.540958e+001 1.474647e+002 -6.620641e+001 1.244644e+002 -4.623362e+000 4.357135e+001
11162531250 -3.582025e+000 6.687613e+001 -6.544503e+001 1.516571e+002 -6.608177e+001 1.156589e+002 -4.641083e+000 4.262526e+001
11181275000 -3.594736e+000 6.626371e+001 -6.587762e+001 1.489776e+002 -6.579246e+001 1.038432e+002 -4.655284e+000 4.164906e+001
11200018750 -3.605011e+000 6.567662e+001 -6.615230e+001 1.480947e+002 -6.583260e+001 8.400379e+001 -4.671701e+000 4.072816e+001
11218762500 -3.617974e+000 6.507932e+001 -6.574726e+001 1.503476e+002 -6.532366e+001 6.517029e+001 -4.690671e+000 3.978566e+001
11237506250 -3.628521e+000 6.447116e+001 -6.555921e+001 1.474066e+002 -6.529411e+001 4.824775e+001 -4.705116e+000 3.881625e+001
11256250000 -3.638283e+000 6.389289e+001 -6.550196e+001 1.473897e+002 -6.502789e+001 3.123763e+001 -4.721046e+000 3.788083e+001
11274993750 -3.654274e+000 6.333383e+001 -6.554987e+001 1.410891e+002 -6.497443e+001 1.160446e+001 -4.741466e+000 3.693792e+001
11293737500 -3.665240e+000 6.270607e+001 -6.516601e+001 1.394962e+002 -6.518488e+001 -8.251093e+000 -4.754067e+000 3.597355e+001
11312481250 -3.675303e+000 6.210714e+001 -6.522491e+001 1.386190e+002 -6.555618e+001 -2.400790e+001 -4.770514e+000 3.507251e+001
11331225000 -3.690853e+000 6.151634e+001 -6.519724e+001 1.371886e+002 -6.452581e+001 -4.189991e+001 -4.789463e+000 3.412009e+001
11349968750 -3.698896e+000 6.088897e+001 -6.526414e+001 1.366412e+002 -6.468783e+001 -6.228643e+001 -4.802949e+000 3.316224e+001
11368712500 -3.707728e+000 6.030619e+001 -6.495851e+001 1.390306e+002 -6.442748e+001 -8.254617e+001 -4.818523e+000 3.222570e+001
11387456250 -3.722159e+000 5.970820e+001 -6.481911e+001 1.381301e+002 -6.428485e+001 -1.005490e+002 -4.836414e+000 3.127090e+001
11406200000 -3.733698e+000 5.906132e+001 -6.533960e+001 1.355898e+002 -6.393727e+001 -1.207087e+002 -4.851351e+000 3.031272e+001
11424943750 -3.743281e+000 5.847337e+001 -6.573658e+001 1.378827e+002 -6.376449e+001 -1.442609e+002 -4.865507e+000 2.938876e+001
11443687500 -3.756378e+000 5.787241e+001 -6.540609e+001 1.418929e+002 -6.389138e+001 -1.632575e+002 -4.883465e+000 2.843216e+001
11462431250 -3.766457e+000 5.724069e+001 -6.555789e+001 1.395008e+002 -6.422576e+001 -1.732247e+002 -4.896513e+000 2.747288e+001
11481175000 -3.775631e+000 5.664512e+001 -6.519410e+001 1.431348e+002 -6.406062e+001 -1.771831e+002 -4.910368e+000 2.652494e+001
11499918750 -3.789901e+000 5.601781e+001 -6.511185e+001 1.506913e+002 -6.389642e+001 1.764422e+002 -4.929523e+000 2.556888e+001
11518662500 -3.800419e+000 5.537473e+001 -6.471309e+001 1.655574e+002 -6.475055e+001 1.648930e+002 -4.943631e+000 2.458828e+001
11537406250 -3.811995e+000 5.475359e+001 -6.448365e+001 1.783579e+002 -6.574837e+001 1.551912e+002 -4.957448e+000 2.366047e+001
11556150000 -3.824912e+000 5.411049e+001 -6.410899e+001 -1.668141e+002 -6.561902e+001 1.517753e+002 -4.974953e+000 2.269612e+001
11574893750 -3.831686e+000 5.346236e+001 -6.436160e+001 -1.552034e+002 -6.589274e+001 1.515665e+002 -4.987919e+000 2.171802e+001
11593637500 -3.841256e+000 5.286851e+001 -6.429080e+001 -1.395844e+002 -6.658231e+001 1.476302e+002 -5.000984e+000 2.076789e+001
11612381250 -3.855229e+000 5.224575e+001 -6.379205e+001 -1.233140e+002 -6.644556e+001 1.501584e+002 -5.018050e+000 1.978755e+001
11631125000 -3.864671e+000 5.158847e+001 -6.351987e+001 -1.060747e+002 -6.643330e+001 1.549123e+002 -5.031080e+000 1.883064e+001
11649868750 -3.874385e+000 5.100206e+001 -6.374404e+001 -9.306375e+001 -6.649730e+001 1.569650e+002 -5.045976e+000 1.789110e+001
11668612500 -3.887887e+000 5.033755e+001 -6.444010e+001 -7.340707e+001 -6.663580e+001 1.582688e+002 -5.063822e+000 1.690911e+001
11687356250 -3.896978e+000 4.968121e+001 -6.501225e+001 -4.728877e+001 -6.725494e+001 1.536879e+002 -5.076376e+000 1.594945e+001
11706100000 -3.906859e+000 4.908700e+001 -6.496700e+001 -1.383816e+001 -6.742908e+001 1.502407e+002 -5.089935e+000 1.498129e+001
11724843750 -3.922573e+000 4.844020e+001 -6.526675e+001 1.941712e+001 -6.723446e+001 1.538074e+002 -5.105097e+000 1.398400e+001
11743587500 -3.931774e+000 4.779830e+001 -6.533090e+001 4.590879e+001 -6.647351e+001 1.522231e+002 -5.115889e+000 1.300362e+001
11762331250 -3.940283e+000 4.718333e+001 -6.488108e+001 7.737968e+001 -6.724048e+001 1.551722e+002 -5.129781e+000 1.206726e+001
11781075000 -3.956287e+000 4.651398e+001 -6.470677e+001 1.099472e+002 -6.731011e+001 1.592119e+002 -5.146890e+000 1.106761e+001
11799818750 -3.966141e+000 4.583619e+001 -6.483500e+001 1.455567e+002 -6.735151e+001 1.592016e+002 -5.161213e+000 1.007971e+001
11818562500 -3.974490e+000 4.523232e+001 -6.503777e+001 1.778867e+002 -6.761987e+001 1.672110e+002 -5.172451e+000 9.115986e+000
11837306250 -3.991781e+000 4.460983e+001 -6.471678e+001 -1.534181e+002 -6.736744e+001 1.799241e+002 -5.185829e+000 8.150890e+000
11856050000 -4.003876e+000 4.392638e+001 -6.437903e+001 -1.236675e+002 -6.787115e+001 -1.734373e+002 -5.199518e+000 7.146970e+000
11874793750 -4.013294e+000 4.333385e+001 -6.416410e+001 -9.569022e+001 -6.778427e+001 -1.727876e+002 -5.210632e+000 6.210755e+000
11893537500 -4.035639e+000 4.265519e+001 -6.465808e+001 -6.150734e+001 -6.787212e+001 1.779816e+002 -5.234101e+000 5.237333e+000
11912281250 -4.036929e+000 4.197745e+001 -6.463686e+001 -2.807203e+001 -6.804897e+001 1.665233e+002 -5.243694e+000 4.202664e+000
11931025000 -4.048205e+000 4.142259e+001 -6.414623e+001 -6.908468e+000 -6.822234e+001 1.517649e+002 -5.255183e+000 3.268389e+000
11949768750 -4.072624e+000 4.073640e+001 -6.440797e+001 7.043472e+000 -6.717654e+001 1.443848e+002 -5.275400e+000 2.301120e+000
11968512500 -4.070193e+000 4.003914e+001 -6.435120e+001 1.881695e+001 -6.685726e+001 1.463136e+002 -5.281958e+000 1.269274e+000
11987256250 -4.082368e+000 3.945546e+001 -6.438587e+001 3.195574e+001 -6.664655e+001 1.458059e+002 -5.296948e+000 3.531213e-001
12006000000 -4.105233e+000 3.876809e+001 -6.422384e+001 5.087621e+001 -6.666448e+001 1.400704e+002 -5.318927e+000 -6.307918e-001
12024743750 -4.104584e+000 3.807070e+001 -6.406471e+001 6.191131e+001 -6.564881e+001 1.427406e+002 -5.327134e+000 -1.666596e+000
12043487500 -4.120910e+000 3.748110e+001 -6.415221e+001 7.441077e+001 -6.585880e+001 1.387273e+002 -5.341861e+000 -2.569151e+000
12062231250 -4.141217e+000 3.679620e+001 -6.433347e+001 8.252696e+001 -6.599239e+001 1.322297e+002 -5.360022e+000 -3.585162e+000
12080975000 -4.140213e+000 3.608209e+001 -6.406479e+001 1.002296e+002 -6.639140e+001 1.275318e+002 -5.364712e+000 -4.622396e+000
12099718750 -4.154479e+000 3.549210e+001 -6.359955e+001 1.048251e+002 -6.669979e+001 1.183598e+002 -5.379649e+000 -5.531728e+000
12118462500 -4.170132e+000 3.478981e+001 -6.293425e+001 1.105333e+002 -6.601657e+001 1.223225e+002 -5.400384e+000 -6.568273e+000
12137206250 -4.168202e+000 3.410879e+001 -6.279272e+001 1.112708e+002 -6.582347e+001 1.255572e+002 -5.405365e+000 -7.592994e+000
12155950000 -4.185168e+000 3.352602e+001 -6.242783e+001 1.114580e+002 -6.577415e+001 1.259576e+002 -5.423330e+000 -8.518435e+000
12174693750 -4.202460e+000 3.280908e+001 -6.236761e+001 1.170699e+002 -6.596594e+001 1.213154e+002 -5.440784e+000 -9.558929e+000
12193437500 -4.204334e+000 3.211942e+001 -6.233302e+001 1.176204e+002 -6.527919e+001 1.056142e+002 -5.445351e+000 -1.059877e+001
12212181250 -4.221712e+000 3.150846e+001 -6.272569e+001 1.152051e+002 -6.535678e+001 9.289680e+001 -5.462374e+000 -1.151483e+001
12230925000 -4.229760e+000 3.080638e+001 -6.233400e+001 1.105649e+002 -6.549701e+001 7.460561e+001 -5.476604e+000 -1.254108e+001
12249668750 -4.237156e+000 3.015734e+001 -6.247927e+001 1.116087e+002 -6.546132e+001 5.076279e+001 -5.486154e+000 -1.356063e+001
12268412500 -4.254112e+000 2.950819e+001 -6.229546e+001 1.104877e+002 -6.546855e+001 1.291316e+001 -5.501130e+000 -1.453098e+001
12287156250 -4.261479e+000 2.879817e+001 -6.211295e+001 1.124020e+002 -6.503687e+001 -2.671852e+001 -5.511323e+000 -1.558009e+001
12305900000 -4.269737e+000 2.811663e+001 -6.260380e+001 1.126491e+002 -6.517294e+001 -6.705402e+001 -5.519337e+000 -1.660211e+001
12324643750 -4.281141e+000 2.746721e+001 -6.209775e+001 1.036887e+002 -6.497160e+001 -1.088085e+002 -5.529621e+000 -1.759434e+001
12343387500 -4.293661e+000 2.677260e+001 -6.254054e+001 8.456410e+001 -6.507835e+001 -1.558096e+002 -5.545387e+000 -1.861292e+001
12362131250 -4.301950e+000 2.609641e+001 -6.289989e+001 7.593154e+001 -6.600233e+001 1.549759e+002 -5.553584e+000 -1.963314e+001
12380875000 -4.315097e+000 2.546327e+001 -6.300983e+001 7.394339e+001 -6.611047e+001 1.097621e+002 -5.564746e+000 -2.064260e+001
12399618750 -4.329321e+000 2.477550e+001 -6.299765e+001 8.353347e+001 -6.568868e+001 5.708786e+001 -5.578408e+000 -2.167232e+001
12418362500 -4.339579e+000 2.410269e+001 -6.298241e+001 8.794704e+001 -6.597319e+001 1.440157e+001 -5.585716e+000 -2.268888e+001
12437106250 -4.353303e+000 2.343833e+001 -6.351482e+001 8.604628e+001 -6.577536e+001 -3.066470e+001 -5.596475e+000 -2.369744e+001
12455850000 -4.364452e+000 2.274108e+001 -6.390917e+001 8.778123e+001 -6.570752e+001 -7.950023e+001 -5.608725e+000 -2.473263e+001
12474593750 -4.373828e+000 2.206885e+001 -6.416106e+001 9.345358e+001 -6.573180e+001 -1.206595e+002 -5.615949e+000 -2.576611e+001
12493337500 -4.389555e+000 2.140090e+001 -6.408735e+001 1.094077e+002 -6.545219e+001 -1.635989e+002 -5.625518e+000 -2.678909e+001
12512081250 -4.403187e+000 2.071441e+001 -6.419630e+001 1.280091e+002 -6.557002e+001 1.550923e+002 -5.634304e+000 -2.781562e+001
12530825000 -4.413566e+000 2.003213e+001 -6.416379e+001 1.493718e+002 -6.513409e+001 1.160849e+002 -5.642050e+000 -2.883358e+001
12549568750 -4.429148e+000 1.934582e+001 -6.421282e+001 1.643393e+002 -6.493954e+001 7.015747e+001 -5.651501e+000 -2.985243e+001
12568312500 -4.439179e+000 1.863134e+001 -6.423480e+001 1.792998e+002 -6.544102e+001 2.048783e+001 -5.661396e+000 -3.090419e+001
12587056250 -4.445977e+000 1.791918e+001 -6.447285e+001 -1.713801e+002 -6.649582e+001 -3.222781e+001 -5.664181e+000 -3.197494e+001
12605800000 -4.456314e+000 1.725778e+001 -6.429401e+001 -1.573926e+002 -6.633338e+001 -7.359328e+001 -5.668248e+000 -3.297774e+001
12624543750 -4.473022e+000 1.656508e+001 -6.461311e+001 -1.379863e+002 -6.606654e+001 -1.079016e+002 -5.680695e+000 -3.397758e+001
12643287500 -4.477510e+000 1.586124e+001 -6.433370e+001 -1.189512e+002 -6.584844e+001 -1.432796e+002 -5.683734e+000 -3.503241e+001
12662031250 -4.491552e+000 1.520655e+001 -6.475529e+001 -1.050097e+002 -6.592254e+001 -1.683753e+002 -5.691249e+000 -3.603693e+001
12680775000 -4.505332e+000 1.453077e+001 -6.454350e+001 -8.811694e+001 -6.594194e+001 1.620192e+002 -5.702178e+000 -3.709927e+001
12699518750 -4.516993e+000 1.381293e+001 -6.458303e+001 -6.964723e+001 -6.577452e+001 1.408367e+002 -5.702456e+000 -3.814553e+001
12718262500 -4.526793e+000 1.314833e+001 -6.500324e+001 -5.317801e+001 -6.568173e+001 1.268544e+002 -5.715058e+000 -3.913770e+001
12737006250 -4.539251e+000 1.245538e+001 -6.482217e+001 -3.531547e+001 -6.545764e+001 1.172137e+002 -5.724063e+000 -4.020575e+001
12755750000 -4.548693e+000 1.174234e+001 -6.466003e+001 -1.367727e+001 -6.524009e+001 1.117186e+002 -5.724546e+000 -4.122499e+001
12774493750 -4.560844e+000 1.106952e+001 -6.444614e+001 1.645310e+001 -6.527853e+001 1.129934e+002 -5.736874e+000 -4.222296e+001
12793237500 -4.571908e+000 1.036232e+001 -6.413621e+001 3.808027e+001 -6.399806e+001 1.178984e+002 -5.744025e+000 -4.331372e+001
12811981250 -4.580008e+000 9.627028e+000 -6.405645e+001 5.501529e+001 -6.438091e+001 1.153143e+002 -5.743608e+000 -4.432397e+001
12830725000 -4.590329e+000 8.964066e+000 -6.375105e+001 6.499887e+001 -6.434498e+001 1.176136e+002 -5.757671e+000 -4.533293e+001
12849468750 -4.601616e+000 8.244620e+000 -6.405918e+001 7.950761e+001 -6.451574e+001 1.161198e+002 -5.763141e+000 -4.640912e+001
12868212500 -4.610592e+000 7.527898e+000 -6.384063e+001 9.161880e+001 -6.460979e+001 1.171262e+002 -5.765588e+000 -4.742187e+001
12886956250 -4.621650e+000 6.855155e+000 -6.355070e+001 1.055439e+002 -6.472137e+001 1.169957e+002 -5.780313e+000 -4.845312e+001
12905700000 -4.633422e+000 6.146178e+000 -6.314968e+001 1.199720e+002 -6.463801e+001 1.163164e+002 -5.781709e+000 -4.954258e+001
12924443750 -4.640744e+000 5.417127e+000 -6.345095e+001 1.197312e+002 -6.477610e+001 1.185517e+002 -5.782536e+000 -5.056545e+001
12943187500 -4.652047e+000 4.752826e+000 -6.323435e+001 1.176724e+002 -6.467390e+001 1.175252e+002 -5.793416e+000 -5.159387e+001
12961931250 -4.665260e+000 4.036105e+000 -6.350664e+001 1.160570e+002 -6.465443e+001 1.173727e+002 -5.791544e+000 -5.265820e+001
12980675000 -4.673108e+000 3.327820e+000 -6.362679e+001 1.106658e+002 -6.498061e+001 1.173623e+002 -5.792925e+000 -5.367181e+001
12999418750 -4.687712e+000 2.637041e+000 -6.372208e+001 1.105665e+002 -6.459365e+001 1.233305e+002 -5.803534e+000 -5.469441e+001
13018162500 -4.702787e+000 1.931744e+000 -6.376112e+001 1.145887e+002 -6.365372e+001 1.272972e+002 -5.806782e+000 -5.571565e+001
13036906250 -4.715081e+000 1.191418e+000 -6.390517e+001 1.156841e+002 -6.377544e+001 1.292213e+002 -5.814415e+000 -5.675527e+001
13055650000 -4.721747e+000 4.902064e-001 -6.365777e+001 1.115130e+002 -6.397646e+001 1.311241e+002 -5.818383e+000 -5.781003e+001
13074393750 -4.737820e+000 -2.214476e-001 -6.340159e+001 1.081803e+002 -6.390077e+001 1.319755e+002 -5.818593e+000 -5.883353e+001
13093137500 -4.749996e+000 -9.642575e-001 -6.298337e+001 1.103785e+002 -6.325518e+001 1.292513e+002 -5.826848e+000 -5.987481e+001
13111881250 -4.757857e+000 -1.710043e+000 -6.309520e+001 1.064247e+002 -6.294600e+001 1.300235e+002 -5.830101e+000 -6.089459e+001
13130625000 -4.765296e+000 -2.406223e+000 -6.305979e+001 1.056713e+002 -6.288650e+001 1.309743e+002 -5.836491e+000 -6.195191e+001
13149368750 -4.778932e+000 -3.127137e+000 -6.281491e+001 1.050051e+002 -6.283720e+001 1.297994e+002 -5.839123e+000 -6.299456e+001
13168112500 -4.788098e+000 -3.858510e+000 -6.253288e+001 1.039853e+002 -6.256822e+001 1.299576e+002 -5.842192e+000 -6.402148e+001
13186856250 -4.800633e+000 -4.541124e+000 -6.245375e+001 1.034813e+002 -6.243692e+001 1.324012e+002 -5.847987e+000 -6.507276e+001
13205600000 -4.814612e+000 -5.275718e+000 -6.208804e+001 9.861845e+001 -6.198008e+001 1.275220e+002 -5.852489e+000 -6.613778e+001
13224343750 -4.826576e+000 -6.009989e+000 -6.204398e+001 9.996035e+001 -6.192548e+001 1.267480e+002 -5.857430e+000 -6.718363e+001
13243087500 -4.834854e+000 -6.703246e+000 -6.168608e+001 9.890348e+001 -6.132016e+001 1.289600e+002 -5.863143e+000 -6.826834e+001
13261831250 -4.849088e+000 -7.444683e+000 -6.197953e+001 9.527892e+001 -6.112049e+001 1.292302e+002 -5.864408e+000 -6.931703e+001
13280575000 -4.857960e+000 -8.156929e+000 -6.161348e+001 9.546922e+001 -6.068866e+001 1.254273e+002 -5.868807e+000 -7.036932e+001
13299318750 -4.867238e+000 -8.855135e+000 -6.119156e+001 9.823040e+001 -6.013416e+001 1.261259e+002 -5.874739e+000 -7.142934e+001
13318062500 -4.881626e+000 -9.603766e+000 -6.083317e+001 9.789017e+001 -5.976720e+001 1.277346e+002 -5.878345e+000 -7.246658e+001
13336806250 -4.890979e+000 -1.032956e+001 -6.083005e+001 9.469687e+001 -5.948113e+001 1.232870e+002 -5.887056e+000 -7.353738e+001
13355550000 -4.900509e+000 -1.103380e+001 -6.048794e+001 1.000984e+002 -5.917643e+001 1.196323e+002 -5.896187e+000 -7.461448e+001
13374293750 -4.912220e+000 -1.177661e+001 -6.040142e+001 9.913777e+001 -5.845458e+001 1.180724e+002 -5.902612e+000 -7.567664e+001
13393037500 -4.920127e+000 -1.249278e+001 -5.967173e+001 1.005985e+002 -5.826539e+001 1.160679e+002 -5.913551e+000 -7.676823e+001
13411781250 -4.932721e+000 -1.320987e+001 -5.927541e+001 1.052114e+002 -5.775264e+001 1.139600e+002 -5.923289e+000 -7.784502e+001
13430525000 -4.945324e+000 -1.394403e+001 -5.895059e+001 1.049904e+002 -5.741636e+001 1.097067e+002 -5.933637e+000 -7.892992e+001
13449268750 -4.952328e+000 -1.466686e+001 -5.830034e+001 1.048767e+002 -5.713587e+001 1.085908e+002 -5.945495e+000 -8.002793e+001
13468012500 -4.962088e+000 -1.537769e+001 -5.795382e+001 1.022641e+002 -5.706201e+001 1.066454e+002 -5.957054e+000 -8.113063e+001
13486756250 -4.971834e+000 -1.610277e+001 -5.779493e+001 1.010525e+002 -5.669091e+001 1.043984e+002 -5.967667e+000 -8.221673e+001
13505500000 -4.979527e+000 -1.680394e+001 -5.763883e+001 9.956097e+001 -5.616613e+001 1.030375e+002 -5.984663e+000 -8.333251e+001
13524243750 -4.990264e+000 -1.753120e+001 -5.751226e+001 9.648307e+001 -5.621358e+001 1.015153e+002 -5.998623e+000 -8.445105e+001
13542987500 -5.002438e+000 -1.827977e+001 -5.698098e+001 9.505317e+001 -5.606092e+001 9.987534e+001 -6.011691e+000 -8.557468e+001
13561731250 -5.009027e+000 -1.902722e+001 -5.669494e+001 9.385786e+001 -5.597828e+001 9.580296e+001 -6.027729e+000 -8.671088e+001
13580475000 -5.020739e+000 -1.975699e+001 -5.638637e+001 8.982682e+001 -5.565960e+001 9.450387e+001 -6.042575e+000 -8.784814e+001
13599218750 -5.029167e+000 -2.049968e+001 -5.611385e+001 8.777303e+001 -5.553918e+001 9.248916e+001 -6.061284e+000 -8.896918e+001
13617962500 -5.033696e+000 -2.122267e+001 -5.588816e+001 8.582050e+001 -5.542006e+001 9.130404e+001 -6.083292e+000 -9.010454e+001
13636706250 -5.047204e+000 -2.195533e+001 -5.542396e+001 8.494351e+001 -5.508820e+001 9.085884e+001 -6.102947e+000 -9.123989e+001
13655450000 -5.054788e+000 -2.271591e+001 -5.501134e+001 8.212603e+001 -5.483849e+001 8.789799e+001 -6.126195e+000 -9.237024e+001
13674193750 -5.061958e+000 -2.344437e+001 -5.454808e+001 8.101615e+001 -5.469502e+001 8.432404e+001 -6.151136e+000 -9.353412e+001
13692937500 -5.073525e+000 -2.418979e+001 -5.396048e+001 8.206078e+001 -5.435398e+001 8.147157e+001 -6.178449e+000 -9.469692e+001
13711681250 -5.081416e+000 -2.494578e+001 -5.365534e+001 7.971162e+001 -5.410612e+001 8.018048e+001 -6.207550e+000 -9.585488e+001
13730425000 -5.087244e+000 -2.566450e+001 -5.341790e+001 7.729159e+001 -5.380485e+001 7.749876e+001 -6.241205e+000 -9.703365e+001
13749168750 -5.100265e+000 -2.639159e+001 -5.320274e+001 7.539742e+001 -5.363530e+001 7.460278e+001 -6.274817e+000 -9.821219e+001
13767912500 -5.107146e+000 -2.717197e+001 -5.281936e+001 7.407225e+001 -5.334919e+001 7.256544e+001 -6.310696e+000 -9.937931e+001
13786656250 -5.113710e+000 -2.791962e+001 -5.223127e+001 7.096053e+001 -5.317653e+001 7.045672e+001 -6.350408e+000 -1.005604e+002
13805400000 -5.125989e+000 -2.869682e+001 -5.212359e+001 6.831628e+001 -5.324850e+001 6.838334e+001 -6.391969e+000 -1.017499e+002
13824143750 -5.131500e+000 -2.946077e+001 -5.202411e+001 6.577168e+001 -5.294304e+001 6.554278e+001 -6.436700e+000 -1.029267e+002
13842887500 -5.137665e+000 -3.018918e+001 -5.193167e+001 6.449412e+001 -5.277153e+001 6.276123e+001 -6.488714e+000 -1.041191e+002
13861631250 -5.149333e+000 -3.095104e+001 -5.165973e+001 6.065866e+001 -5.254786e+001 6.045281e+001 -6.537971e+000 -1.053033e+002
13880375000 -5.156896e+000 -3.171624e+001 -5.139281e+001 5.755232e+001 -5.225090e+001 5.832569e+001 -6.591331e+000 -1.064915e+002
13899118750 -5.164325e+000 -3.248646e+001 -5.119258e+001 5.598608e+001 -5.180822e+001 5.578288e+001 -6.652432e+000 -1.076733e+002
13917862500 -5.175543e+000 -3.326580e+001 -5.080885e+001 5.269649e+001 -5.132089e+001 5.310193e+001 -6.715474e+000 -1.088719e+002
13936606250 -5.179273e+000 -3.403789e+001 -5.055151e+001 5.062704e+001 -5.101693e+001 4.908051e+001 -6.782797e+000 -1.100611e+002
13955350000 -5.188252e+000 -3.478191e+001 -5.010319e+001 4.812215e+001 -5.078244e+001 4.600525e+001 -6.854587e+000 -1.112235e+002
13974093750 -5.200213e+000 -3.553809e+001 -4.996448e+001 4.572421e+001 -5.046554e+001 4.320137e+001 -6.933983e+000 -1.123835e+002
13992837500 -5.208198e+000 -3.632133e+001 -4.963810e+001 4.276846e+001 -5.005094e+001 4.183535e+001 -7.017448e+000 -1.135376e+002
14011581250 -5.214848e+000 -3.710792e+001 -4.919165e+001 4.118599e+001 -4.979306e+001 3.968822e+001 -7.106984e+000 -1.146542e+002
14030325000 -5.227184e+000 -3.789922e+001 -4.884370e+001 3.843733e+001 -4.949391e+001 3.794137e+001 -7.199834e+000 -1.157633e+002
14049068750 -5.232279e+000 -3.870026e+001 -4.854867e+001 3.606966e+001 -4.913244e+001 3.540219e+001 -7.296101e+000 -1.168732e+002
14067812500 -5.239887e+000 -3.947634e+001 -4.825972e+001 3.392255e+001 -4.901132e+001 3.385858e+001 -7.398201e+000 -1.179333e+002
14086556250 -5.252435e+000 -4.026271e+001 -4.805398e+001 3.191653e+001 -4.864516e+001 3.237082e+001 -7.505838e+000 -1.190003e+002
14105300000 -5.260901e+000 -4.108253e+001 -4.784721e+001 2.937471e+001 -4.829332e+001 3.079998e+001 -7.617872e+000 -1.200296e+002
14124043750 -5.272609e+000 -4.187641e+001 -4.756245e+001 2.766144e+001 -4.799994e+001 2.886521e+001 -7.732150e+000 -1.210192e+002
14142787500 -5.282796e+000 -4.268634e+001 -4.730664e+001 2.558842e+001 -4.764299e+001 2.678260e+001 -7.853180e+000 -1.219607e+002
14161531250 -5.290345e+000 -4.351385e+001 -4.696380e+001 2.382203e+001 -4.737407e+001 2.500251e+001 -7.976539e+000 -1.228610e+002
14180275000 -5.300659e+000 -4.430771e+001 -4.667669e+001 2.146899e+001 -4.708450e+001 2.302658e+001 -8.103629e+000 -1.237252e+002
14199018750 -5.311974e+000 -4.510902e+001 -4.627034e+001 1.890248e+001 -4.676220e+001 2.139921e+001 -8.234509e+000 -1.245536e+002
14217762500 -5.322460e+000 -4.592948e+001 -4.596642e+001 1.679195e+001 -4.630173e+001 1.932923e+001 -8.367642e+000 -1.253191e+002
14236506250 -5.334797e+000 -4.673814e+001 -4.556469e+001 1.482407e+001 -4.569994e+001 1.725899e+001 -8.500562e+000 -1.260287e+002
14255250000 -5.346893e+000 -4.757123e+001 -4.519085e+001 1.272622e+001 -4.533869e+001 1.473341e+001 -8.635754e+000 -1.266844e+002
14273993750 -5.354225e+000 -4.841202e+001 -4.477996e+001 1.049875e+001 -4.490476e+001 1.284897e+001 -8.769478e+000 -1.272639e+002
14292737500 -5.368803e+000 -4.923154e+001 -4.440522e+001 8.311351e+000 -4.446812e+001 1.050069e+001 -8.906338e+000 -1.277787e+002
14311481250 -5.381478e+000 -5.006870e+001 -4.403030e+001 6.451608e+000 -4.405323e+001 8.879223e+000 -9.039452e+000 -1.282603e+002
14330225000 -5.393891e+000 -5.090878e+001 -4.360256e+001 4.250071e+000 -4.363857e+001 6.561775e+000 -9.165021e+000 -1.286852e+002
14348968750 -5.409118e+000 -5.175507e+001 -4.319012e+001 2.607878e+000 -4.328531e+001 4.081705e+000 -9.288481e+000 -1.290354e+002
14367712500 -5.424406e+000 -5.262719e+001 -4.278640e+001 1.092611e+000 -4.292189e+001 2.140028e+000 -9.408364e+000 -1.293218e+002
14386456250 -5.436129e+000 -5.348796e+001 -4.246973e+001 -1.020988e+000 -4.245550e+001 1.186546e-001 -9.521548e+000 -1.295347e+002
14405200000 -5.451927e+000 -5.433292e+001 -4.203094e+001 -3.303899e+000 -4.205429e+001 -1.616130e+000 -9.629996e+000 -1.297005e+002
14423943750 -5.469541e+000 -5.519326e+001 -4.163533e+001 -5.424046e+000 -4.164608e+001 -3.765692e+000 -9.729486e+000 -1.298547e+002
14442687500 -5.487918e+000 -5.605070e+001 -4.124612e+001 -7.730349e+000 -4.125039e+001 -6.196427e+000 -9.816979e+000 -1.299596e+002
14461431250 -5.507295e+000 -5.692551e+001 -4.083305e+001 -9.649610e+000 -4.090181e+001 -8.634327e+000 -9.896294e+000 -1.300419e+002
14480175000 -5.527634e+000 -5.782533e+001 -4.042667e+001 -1.216980e+001 -4.049535e+001 -1.081406e+001 -9.966027e+000 -1.300741e+002
14498918750 -5.544637e+000 -5.869529e+001 -4.002230e+001 -1.426114e+001 -4.004638e+001 -1.362214e+001 -1.002647e+001 -1.300713e+002
14517662500 -5.566161e+000 -5.956393e+001 -3.959875e+001 -1.682126e+001 -3.965062e+001 -1.608091e+001 -1.008095e+001 -1.300601e+002
14536406250 -5.587220e+000 -6.045405e+001 -3.919611e+001 -1.904655e+001 -3.927359e+001 -1.828161e+001 -1.012182e+001 -1.300503e+002
14555150000 -5.607313e+000 -6.132436e+001 -3.884090e+001 -2.189230e+001 -3.882467e+001 -2.078422e+001 -1.015194e+001 -1.300238e+002
14573893750 -5.631866e+000 -6.220533e+001 -3.841482e+001 -2.434116e+001 -3.844610e+001 -2.332093e+001 -1.016983e+001 -1.300075e+002
14592637500 -5.655098e+000 -6.311643e+001 -3.799070e+001 -2.684136e+001 -3.803383e+001 -2.580026e+001 -1.017584e+001 -1.299808e+002
14611381250 -5.679876e+000 -6.400485e+001 -3.759460e+001 -2.918639e+001 -3.761679e+001 -2.815039e+001 -1.017379e+001 -1.299547e+002
14630125000 -5.708840e+000 -6.489992e+001 -3.718484e+001 -3.144636e+001 -3.721208e+001 -3.063732e+001 -1.016546e+001 -1.299683e+002
14648868750 -5.735427e+000 -6.580911e+001 -3.682623e+001 -3.404081e+001 -3.682665e+001 -3.324856e+001 -1.014385e+001 -1.300213e+002
14667612500 -5.763544e+000 -6.669503e+001 -3.643505e+001 -3.657811e+001 -3.647324e+001 -3.581824e+001 -1.011447e+001 -1.301034e+002
14686356250 -5.797294e+000 -6.760182e+001 -3.607055e+001 -3.898357e+001 -3.609393e+001 -3.835501e+001 -1.007512e+001 -1.302487e+002
14705100000 -5.830327e+000 -6.852085e+001 -3.569371e+001 -4.158009e+001 -3.570435e+001 -4.078180e+001 -1.002736e+001 -1.304189e+002
14723843750 -5.862537e+000 -6.940178e+001 -3.530300e+001 -4.401033e+001 -3.534752e+001 -4.318204e+001 -9.973815e+000 -1.306603e+002
14742587500 -5.899903e+000 -7.032020e+001 -3.492748e+001 -4.646543e+001 -3.498039e+001 -4.561819e+001 -9.918108e+000 -1.309370e+002
14761331250 -5.936324e+000 -7.122323e+001 -3.455133e+001 -4.888317e+001 -3.461279e+001 -4.815966e+001 -9.854611e+000 -1.312564e+002
14780075000 -5.976581e+000 -7.211549e+001 -3.416270e+001 -5.137891e+001 -3.423793e+001 -5.054540e+001 -9.790816e+000 -1.316574e+002
14798818750 -6.018480e+000 -7.302451e+001 -3.379936e+001 -5.395575e+001 -3.387116e+001 -5.302086e+001 -9.718774e+000 -1.321016e+002
14817562500 -6.058911e+000 -7.393330e+001 -3.340900e+001 -5.662731e+001 -3.347681e+001 -5.545901e+001 -9.646362e+000 -1.326040e+002
14836306250 -6.103856e+000 -7.483396e+001 -3.306657e+001 -5.916692e+001 -3.311681e+001 -5.806248e+001 -9.573961e+000 -1.331758e+002
14855050000 -6.147470e+000 -7.574696e+001 -3.271219e+001 -6.164131e+001 -3.275846e+001 -6.070003e+001 -9.502831e+000 -1.337730e+002
14873793750 -6.193365e+000 -7.665154e+001 -3.234760e+001 -6.413770e+001 -3.239276e+001 -6.320295e+001 -9.430028e+000 -1.344372e+002
14892537500 -6.242180e+000 -7.753078e+001 -3.198090e+001 -6.662258e+001 -3.202309e+001 -6.574603e+001 -9.360994e+000 -1.351543e+002
14911281250 -6.293104e+000 -7.843303e+001 -3.162395e+001 -6.904061e+001 -3.165390e+001 -6.834938e+001 -9.292042e+000 -1.359045e+002
14930025000 -6.343570e+000 -7.932673e+001 -3.127007e+001 -7.162701e+001 -3.129368e+001 -7.084616e+001 -9.226501e+000 -1.367046e+002
14948768750 -6.398721e+000 -8.019241e+001 -3.092093e+001 -7.412887e+001 -3.095066e+001 -7.347193e+001 -9.163033e+000 -1.375284e+002
14967512500 -6.456796e+000 -8.107503e+001 -3.056956e+001 -7.666233e+001 -3.059872e+001 -7.613241e+001 -9.102314e+000 -1.383864e+002
14986256250 -6.517277e+000 -8.196105e+001 -3.021680e+001 -7.915273e+001 -3.024539e+001 -7.860445e+001 -9.042532e+000 -1.392910e+002
15005000000 -6.577089e+000 -8.285610e+001 -2.987366e+001 -8.170129e+001 -2.988332e+001 -8.107069e+001 -8.991027e+000 -1.402241e+002
15023743750 -6.639965e+000 -8.369720e+001 -2.952239e+001 -8.436852e+001 -2.954542e+001 -8.357053e+001 -8.939914e+000 -1.412007e+002
15042487500 -6.703253e+000 -8.454428e+001 -2.917192e+001 -8.688904e+001 -2.919188e+001 -8.601919e+001 -8.894254e+000 -1.421951e+002
15061231250 -6.768222e+000 -8.537987e+001 -2.882904e+001 -8.943389e+001 -2.885289e+001 -8.861360e+001 -8.854889e+000 -1.432022e+002
15079975000 -6.845245e+000 -8.618455e+001 -2.847716e+001 -9.204929e+001 -2.851582e+001 -9.121899e+001 -8.816598e+000 -1.442322e+002
15098718750 -6.916177e+000 -8.701620e+001 -2.813278e+001 -9.462660e+001 -2.816626e+001 -9.384042e+001 -8.787256e+000 -1.452798e+002
15117462500 -6.986402e+000 -8.781804e+001 -2.779277e+001 -9.731261e+001 -2.783790e+001 -9.642154e+001 -8.762768e+000 -1.463260e+002
15136206250 -7.066595e+000 -8.858331e+001 -2.745023e+001 -9.991561e+001 -2.748987e+001 -9.912307e+001 -8.739611e+000 -1.473849e+002
15154950000 -7.138416e+000 -8.935863e+001 -2.712041e+001 -1.025476e+002 -2.714003e+001 -1.017723e+002 -8.728097e+000 -1.484422e+002
15173693750 -7.215843e+000 -9.006753e+001 -2.679317e+001 -1.053187e+002 -2.680316e+001 -1.044745e+002 -8.718287e+000 -1.495316e+002
15192437500 -7.303139e+000 -9.079211e+001 -2.647319e+001 -1.080072e+002 -2.647760e+001 -1.072202e+002 -8.712458e+000 -1.506073e+002
15211181250 -7.381143e+000 -9.153566e+001 -2.616317e+001 -1.107255e+002 -2.614544e+001 -1.099679e+002 -8.711808e+000 -1.516677e+002
15229925000 -7.462614e+000 -9.221928e+001 -2.583637e+001 -1.135181e+002 -2.581828e+001 -1.127157e+002 -8.716783e+000 -1.527304e+002
15248668750 -7.549157e+000 -9.288210e+001 -2.552369e+001 -1.162408e+002 -2.549580e+001 -1.155157e+002 -8.724096e+000 -1.537911e+002
15267412500 -7.625911e+000 -9.351244e+001 -2.520739e+001 -1.189726e+002 -2.517196e+001 -1.182909e+002 -8.741521e+000 -1.548638e+002
15286156250 -7.716416e+000 -9.407285e+001 -2.489077e+001 -1.218300e+002 -2.486155e+001 -1.210150e+002 -8.757470e+000 -1.559369e+002
15304900000 -7.809582e+000 -9.464900e+001 -2.458648e+001 -1.246475e+002 -2.455335e+001 -1.238807e+002 -8.777964e+000 -1.569897e+002
15323643750 -7.892631e+000 -9.524532e+001 -2.429406e+001 -1.275049e+002 -2.425293e+001 -1.267097e+002 -8.805855e+000 -1.580215e+002
15342387500 -7.980904e+000 -9.575959e+001 -2.399182e+001 -1.303953e+002 -2.396134e+001 -1.295069e+002 -8.831490e+000 -1.590428e+002
15361131250 -8.068451e+000 -9.628959e+001 -2.369755e+001 -1.332025e+002 -2.366310e+001 -1.324623e+002 -8.864783e+000 -1.600354e+002
15379875000 -8.146154e+000 -9.679065e+001 -2.341374e+001 -1.361410e+002 -2.337166e+001 -1.353558e+002 -8.904540e+000 -1.610531e+002
15398618750 -8.237266e+000 -9.720280e+001 -2.312795e+001 -1.390229e+002 -2.309398e+001 -1.382152e+002 -8.944729e+000 -1.620611e+002
15417362500 -8.323889e+000 -9.764771e+001 -2.285240e+001 -1.419639e+002 -2.282088e+001 -1.411825e+002 -8.992072e+000 -1.630412e+002
15436106250 -8.405611e+000 -9.805760e+001 -2.258237e+001 -1.448907e+002 -2.255128e+001 -1.441045e+002 -9.038619e+000 -1.640220e+002
15454850000 -8.491092e+000 -9.846455e+001 -2.231270e+001 -1.478585e+002 -2.227979e+001 -1.470872e+002 -9.087619e+000 -1.649668e+002
15473593750 -8.568569e+000 -9.884805e+001 -2.205251e+001 -1.508018e+002 -2.201900e+001 -1.501187e+002 -9.145415e+000 -1.658827e+002
15492337500 -8.638609e+000 -9.916408e+001 -2.180016e+001 -1.537955e+002 -2.175838e+001 -1.531081e+002 -9.204490e+000 -1.668170e+002
15511081250 -8.712158e+000 -9.946422e+001 -2.155255e+001 -1.568477e+002 -2.150859e+001 -1.560315e+002 -9.259338e+000 -1.677193e+002
15529825000 -8.784662e+000 -9.976864e+001 -2.130960e+001 -1.598458e+002 -2.126810e+001 -1.590730e+002 -9.319359e+000 -1.685942e+002
15548568750 -8.851838e+000 -1.000678e+002 -2.107868e+001 -1.628119e+002 -2.102121e+001 -1.620562e+002 -9.378433e+000 -1.694544e+002
15567312500 -8.914029e+000 -1.003597e+002 -2.084465e+001 -1.658461e+002 -2.079733e+001 -1.650305e+002 -9.438558e+000 -1.702733e+002
15586056250 -8.972215e+000 -1.006602e+002 -2.062281e+001 -1.688184e+002 -2.057776e+001 -1.680891e+002 -9.505018e+000 -1.710799e+002
15604800000 -9.026279e+000 -1.009112e+002 -2.041411e+001 -1.717887e+002 -2.035081e+001 -1.710914e+002 -9.569750e+000 -1.719052e+002
15623543750 -9.078290e+000 -1.011269e+002 -2.019273e+001 -1.748193e+002 -2.014275e+001 -1.740590e+002 -9.633521e+000 -1.727016e+002
15642287500 -9.129178e+000 -1.013564e+002 -1.998860e+001 -1.777516e+002 -1.993228e+001 -1.771242e+002 -9.700882e+000 -1.734894e+002
15661031250 -9.174622e+000 -1.015970e+002 -1.979646e+001 1.791965e+002 -1.972849e+001 1.798983e+002 -9.765435e+000 -1.742656e+002
15679775000 -9.215783e+000 -1.018312e+002 -1.959505e+001 1.762319e+002 -1.954176e+001 1.769098e+002 -9.834607e+000 -1.750011e+002
15698518750 -9.253600e+000 -1.020928e+002 -1.941268e+001 1.732592e+002 -1.935070e+001 1.738912e+002 -9.907024e+000 -1.757087e+002
15717262500 -9.281848e+000 -1.023152e+002 -1.923314e+001 1.702519e+002 -1.917012e+001 1.709514e+002 -9.980034e+000 -1.764564e+002
15736006250 -9.312903e+000 -1.025440e+002 -1.904984e+001 1.673384e+002 -1.899866e+001 1.679678e+002 -1.005153e+001 -1.771940e+002
15754750000 -9.343301e+000 -1.027870e+002 -1.888158e+001 1.644444e+002 -1.882000e+001 1.649744e+002 -1.012491e+001 -1.779345e+002
15773493750 -9.367235e+000 -1.030403e+002 -1.871935e+001 1.614507e+002 -1.865237e+001 1.620344e+002 -1.019602e+001 -1.786610e+002
15792237500 -9.388996e+000 -1.033019e+002 -1.855756e+001 1.585264e+002 -1.849227e+001 1.590868e+002 -1.026801e+001 -1.793717e+002
15810981250 -9.412114e+000 -1.035733e+002 -1.840771e+001 1.556562e+002 -1.833784e+001 1.562008e+002 -1.034517e+001 1.799628e+002
15829725000 -9.424019e+000 -1.038471e+002 -1.825416e+001 1.527484e+002 -1.818538e+001 1.532676e+002 -1.042919e+001 1.792738e+002
15848468750 -9.440502e+000 -1.041138e+002 -1.810703e+001 1.498643e+002 -1.803545e+001 1.503865e+002 -1.050825e+001 1.785582e+002
15867212500 -9.458109e+000 -1.044395e+002 -1.795700e+001 1.470223e+002 -1.789960e+001 1.475359e+002 -1.058556e+001 1.778868e+002
15885956250 -9.470711e+000 -1.047381e+002 -1.782551e+001 1.442036e+002 -1.776326e+001 1.446320e+002 -1.067504e+001 1.772053e+002
15904700000 -9.483697e+000 -1.050900e+002 -1.769559e+001 1.413303e+002 -1.762779e+001 1.418429e+002 -1.075849e+001 1.764933e+002
15923443750 -9.500349e+000 -1.054653e+002 -1.756394e+001 1.385213e+002 -1.751111e+001 1.390283e+002 -1.084544e+001 1.758312e+002
15942187500 -9.510381e+000 -1.058035e+002 -1.744501e+001 1.357834e+002 -1.738361e+001 1.361634e+002 -1.095424e+001 1.751145e+002
15960931250 -9.528275e+000 -1.061825e+002 -1.732494e+001 1.329400e+002 -1.725881e+001 1.334443e+002 -1.104574e+001 1.743423e+002
15979675000 -9.544222e+000 -1.066007e+002 -1.720459e+001 1.302043e+002 -1.715318e+001 1.306429e+002 -1.114069e+001 1.736686e+002
15998418750 -9.555065e+000 -1.069860e+002 -1.709727e+001 1.274885e+002 -1.703266e+001 1.278175e+002 -1.125287e+001 1.729617e+002
16017162500 -9.580419e+000 -1.073968e+002 -1.698392e+001 1.247071e+002 -1.692014e+001 1.251216e+002 -1.136003e+001 1.722102e+002
16035906250 -9.596938e+000 -1.078442e+002 -1.686922e+001 1.220275e+002 -1.682664e+001 1.223618e+002 -1.147613e+001 1.715456e+002
16054650000 -9.615314e+000 -1.082600e+002 -1.677757e+001 1.193326e+002 -1.671394e+001 1.195713e+002 -1.160872e+001 1.707704e+002
16073393750 -9.643610e+000 -1.086984e+002 -1.667052e+001 1.165899e+002 -1.661250e+001 1.169646e+002 -1.172466e+001 1.699888e+002
16092137500 -9.667089e+000 -1.091768e+002 -1.656470e+001 1.139958e+002 -1.652461e+001 1.142317e+002 -1.184844e+001 1.693142e+002
16110881250 -9.689890e+000 -1.096197e+002 -1.647560e+001 1.113212e+002 -1.641665e+001 1.115469e+002 -1.199133e+001 1.685829e+002
16129625000 -9.723159e+000 -1.100953e+002 -1.637404e+001 1.086113e+002 -1.632638e+001 1.089743e+002 -1.213104e+001 1.678473e+002
16148368750 -9.751200e+000 -1.105879e+002 -1.627956e+001 1.060479e+002 -1.624098e+001 1.062467e+002 -1.228116e+001 1.671808e+002
16167112500 -9.779503e+000 -1.109994e+002 -1.620017e+001 1.033933e+002 -1.614410e+001 1.036033e+002 -1.244565e+001 1.664363e+002
16185856250 -9.821184e+000 -1.114575e+002 -1.610225e+001 1.007279e+002 -1.605827e+001 1.010518e+002 -1.259880e+001 1.656982e+002
16204600000 -9.853760e+000 -1.119209e+002 -1.601440e+001 9.824284e+001 -1.598318e+001 9.837678e+001 -1.277328e+001 1.650988e+002
16223343750 -9.890571e+000 -1.123294e+002 -1.593516e+001 9.564158e+001 -1.589745e+001 9.577681e+001 -1.296657e+001 1.644608e+002
16242087500 -9.932378e+000 -1.127765e+002 -1.584312e+001 9.305700e+001 -1.581700e+001 9.323579e+001 -1.316030e+001 1.637818e+002
16260831250 -9.966241e+000 -1.132072e+002 -1.576736e+001 9.053291e+001 -1.574146e+001 9.063653e+001 -1.336357e+001 1.631900e+002
16279575000 -1.000632e+001 -1.135975e+002 -1.569139e+001 8.795293e+001 -1.566237e+001 8.807170e+001 -1.357793e+001 1.625289e+002
16298318750 -1.005185e+001 -1.139810e+002 -1.561385e+001 8.543192e+001 -1.558512e+001 8.552706e+001 -1.378652e+001 1.618803e+002
16317062500 -1.008750e+001 -1.143691e+002 -1.554075e+001 8.292755e+001 -1.551526e+001 8.301682e+001 -1.401193e+001 1.614622e+002
16335806250 -1.013318e+001 -1.147053e+002 -1.546384e+001 8.039325e+001 -1.544382e+001 8.046078e+001 -1.426351e+001 1.610343e+002
16354550000 -1.017799e+001 -1.150436e+002 -1.538953e+001 7.790520e+001 -1.536991e+001 7.793899e+001 -1.452090e+001 1.605546e+002
16373293750 -1.021757e+001 -1.153980e+002 -1.532247e+001 7.538660e+001 -1.530375e+001 7.545830e+001 -1.478754e+001 1.602134e+002
16392037500 -1.026433e+001 -1.156653e+002 -1.525491e+001 7.289867e+001 -1.523897e+001 7.292844e+001 -1.507080e+001 1.598892e+002
16410781250 -1.031164e+001 -1.159514e+002 -1.518964e+001 7.042822e+001 -1.517219e+001 7.046146e+001 -1.534395e+001 1.596340e+002
16429525000 -1.035206e+001 -1.162309e+002 -1.512922e+001 6.794140e+001 -1.511744e+001 6.802620e+001 -1.563063e+001 1.596635e+002
16448268750 -1.038834e+001 -1.164339e+002 -1.506160e+001 6.547551e+001 -1.505770e+001 6.552891e+001 -1.594536e+001 1.598021e+002
16467012500 -1.043191e+001 -1.166462e+002 -1.500584e+001 6.305518e+001 -1.499670e+001 6.306685e+001 -1.627988e+001 1.599974e+002
16485756250 -1.046673e+001 -1.168608e+002 -1.494406e+001 6.060680e+001 -1.494403e+001 6.064923e+001 -1.661966e+001 1.603819e+002
16504500000 -1.050363e+001 -1.170129e+002 -1.488805e+001 5.817303e+001 -1.489084e+001 5.817675e+001 -1.696926e+001 1.607271e+002
16523243750 -1.054063e+001 -1.171787e+002 -1.483563e+001 5.576065e+001 -1.483336e+001 5.577524e+001 -1.729975e+001 1.612293e+002
16541987500 -1.057280e+001 -1.173399e+002 -1.478091e+001 5.332329e+001 -1.478792e+001 5.338394e+001 -1.762617e+001 1.620666e+002
16560731250 -1.060287e+001 -1.174471e+002 -1.472617e+001 5.095308e+001 -1.473868e+001 5.091832e+001 -1.797260e+001 1.631172e+002
16579475000 -1.063477e+001 -1.175761e+002 -1.468137e+001 4.856098e+001 -1.468820e+001 4.854715e+001 -1.831442e+001 1.643062e+002
16598218750 -1.065703e+001 -1.177019e+002 -1.462666e+001 4.617330e+001 -1.464760e+001 4.619435e+001 -1.866260e+001 1.657489e+002
16616962500 -1.067884e+001 -1.177873e+002 -1.458302e+001 4.381260e+001 -1.460595e+001 4.377333e+001 -1.900500e+001 1.672302e+002
16635706250 -1.069867e+001 -1.178973e+002 -1.454035e+001 4.143024e+001 -1.455768e+001 4.142441e+001 -1.930605e+001 1.687747e+002
16654450000 -1.071093e+001 -1.180134e+002 -1.449216e+001 3.906950e+001 -1.452140e+001 3.908876e+001 -1.957832e+001 1.707387e+002
16673193750 -1.072357e+001 -1.180698e+002 -1.445341e+001 3.672001e+001 -1.447977e+001 3.667703e+001 -1.984901e+001 1.729049e+002
16691937500 -1.073510e+001 -1.181861e+002 -1.441448e+001 3.435726e+001 -1.443823e+001 3.437989e+001 -2.009402e+001 1.751761e+002
16710681250 -1.073854e+001 -1.182901e+002 -1.437370e+001 3.205360e+001 -1.440725e+001 3.205375e+001 -2.032039e+001 1.776883e+002
16729425000 -1.074095e+001 -1.183680e+002 -1.434080e+001 2.973660e+001 -1.437066e+001 2.970910e+001 -2.054238e+001 -1.798303e+002
16748168750 -1.074231e+001 -1.185073e+002 -1.430449e+001 2.741455e+001 -1.433496e+001 2.743329e+001 -2.069709e+001 -1.774503e+002
16766912500 -1.073271e+001 -1.186257e+002 -1.427195e+001 2.512952e+001 -1.431176e+001 2.512532e+001 -2.080539e+001 -1.748158e+002
16785656250 -1.072729e+001 -1.187470e+002 -1.424310e+001 2.281699e+001 -1.427858e+001 2.281007e+001 -2.090344e+001 -1.720399e+002
16804400000 -1.071571e+001 -1.189236e+002 -1.420918e+001 2.053307e+001 -1.424988e+001 2.054096e+001 -2.096133e+001 -1.692567e+002
16823143750 -1.069407e+001 -1.191111e+002 -1.417951e+001 1.829367e+001 -1.422819e+001 1.826900e+001 -2.100648e+001 -1.663541e+002
16841887500 -1.067523e+001 -1.192737e+002 -1.415512e+001 1.601624e+001 -1.419574e+001 1.601382e+001 -2.104573e+001 -1.637025e+002
16860631250 -1.065417e+001 -1.194931e+002 -1.412299e+001 1.376992e+001 -1.416988e+001 1.378144e+001 -2.101680e+001 -1.612420e+002
16879375000 -1.062883e+001 -1.197174e+002 -1.410206e+001 1.155693e+001 -1.415165e+001 1.150934e+001 -2.093967e+001 -1.587072e+002
16898118750 -1.060424e+001 -1.199456e+002 -1.407816e+001 9.290407e+000 -1.412619e+001 9.320064e+000 -2.083438e+001 -1.562118e+002
16916862500 -1.057540e+001 -1.202196e+002 -1.405211e+001 7.089637e+000 -1.410768e+001 7.159087e+000 -2.069335e+001 -1.537539e+002
16935606250 -1.054086e+001 -1.204888e+002 -1.403057e+001 4.915875e+000 -1.409060e+001 4.916742e+000 -2.054667e+001 -1.512249e+002
16954350000 -1.051114e+001 -1.207864e+002 -1.400988e+001 2.690738e+000 -1.406789e+001 2.729891e+000 -2.039798e+001 -1.490109e+002
16973093750 -1.047594e+001 -1.211312e+002 -1.398786e+001 5.416432e-001 -1.405188e+001 5.679721e-001 -2.020603e+001 -1.471004e+002
16991837500 -1.043900e+001 -1.214645e+002 -1.397485e+001 -1.609635e+000 -1.403611e+001 -1.622302e+000 -1.997142e+001 -1.452483e+002
17010581250 -1.040498e+001 -1.218196e+002 -1.395473e+001 -3.780218e+000 -1.401291e+001 -3.744638e+000 -1.972939e+001 -1.435428e+002
17029325000 -1.037004e+001 -1.222504e+002 -1.394118e+001 -5.889460e+000 -1.400263e+001 -5.883060e+000 -1.945988e+001 -1.420163e+002
17048068750 -1.033237e+001 -1.226429e+002 -1.392655e+001 -8.021500e+000 -1.398731e+001 -8.032198e+000 -1.919300e+001 -1.405121e+002
17066812500 -1.030420e+001 -1.230826e+002 -1.390708e+001 -1.017429e+001 -1.396944e+001 -1.010198e+001 -1.894349e+001 -1.392788e+002
17085556250 -1.027076e+001 -1.235441e+002 -1.389170e+001 -1.224208e+001 -1.396202e+001 -1.220370e+001 -1.867756e+001 -1.384056e+002
17104300000 -1.023370e+001 -1.240225e+002 -1.388246e+001 -1.433858e+001 -1.395082e+001 -1.430012e+001 -1.839465e+001 -1.376361e+002
17123043750 -1.020627e+001 -1.245152e+002 -1.386332e+001 -1.645629e+001 -1.393733e+001 -1.637283e+001 -1.812022e+001 -1.370214e+002
17141787500 -1.017690e+001 -1.250440e+002 -1.385196e+001 -1.850524e+001 -1.393010e+001 -1.845300e+001 -1.784593e+001 -1.365594e+002
17160531250 -1.014734e+001 -1.255748e+002 -1.384525e+001 -2.060086e+001 -1.391544e+001 -2.053519e+001 -1.758167e+001 -1.360902e+002
17179275000 -1.012747e+001 -1.261568e+002 -1.382397e+001 -2.268579e+001 -1.389846e+001 -2.257430e+001 -1.734277e+001 -1.358120e+002
17198018750 -1.010015e+001 -1.267604e+002 -1.381386e+001 -2.470284e+001 -1.388937e+001 -2.462241e+001 -1.710734e+001 -1.357111e+002
17216762500 -1.007459e+001 -1.273581e+002 -1.380196e+001 -2.678559e+001 -1.387924e+001 -2.665230e+001 -1.686909e+001 -1.356623e+002
17235506250 -1.005982e+001 -1.279875e+002 -1.378329e+001 -2.882065e+001 -1.386689e+001 -2.865274e+001 -1.664666e+001 -1.357499e+002
17254250000 -1.003855e+001 -1.286083e+002 -1.377403e+001 -3.082438e+001 -1.385983e+001 -3.067058e+001 -1.642028e+001 -1.359148e+002
17272993750 -1.002555e+001 -1.292301e+002 -1.376307e+001 -3.286469e+001 -1.384756e+001 -3.269129e+001 -1.620912e+001 -1.360089e+002
17291737500 -1.001754e+001 -1.299382e+002 -1.374699e+001 -3.486935e+001 -1.383539e+001 -3.466026e+001 -1.601822e+001 -1.362616e+002
17310481250 -1.000329e+001 -1.306457e+002 -1.373893e+001 -3.687326e+001 -1.382594e+001 -3.666603e+001 -1.583117e+001 -1.365857e+002
17329225000 -9.997773e+000 -1.313295e+002 -1.372428e+001 -3.888942e+001 -1.381079e+001 -3.865443e+001 -1.564827e+001 -1.369048e+002
17347968750 -9.997110e+000 -1.320733e+002 -1.370572e+001 -4.085281e+001 -1.379453e+001 -4.063087e+001 -1.547482e+001 -1.373350e+002
17366712500 -9.994680e+000 -1.328008e+002 -1.369748e+001 -4.284817e+001 -1.378130e+001 -4.260804e+001 -1.530742e+001 -1.377498e+002
17385456250 -1.000272e+001 -1.335287e+002 -1.368065e+001 -4.484850e+001 -1.376699e+001 -4.457659e+001 -1.515725e+001 -1.381551e+002
17404200000 -1.001021e+001 -1.343290e+002 -1.366359e+001 -4.679472e+001 -1.375462e+001 -4.651777e+001 -1.501480e+001 -1.386172e+002
17422943750 -1.001503e+001 -1.350995e+002 -1.365682e+001 -4.878925e+001 -1.374126e+001 -4.848186e+001 -1.488331e+001 -1.391453e+002
17441687500 -1.002931e+001 -1.358690e+002 -1.363883e+001 -5.080694e+001 -1.372865e+001 -5.042505e+001 -1.475760e+001 -1.396667e+002
17460431250 -1.004308e+001 -1.366491e+002 -1.362279e+001 -5.275490e+001 -1.371371e+001 -5.234966e+001 -1.463319e+001 -1.402092e+002
17479175000 -1.005454e+001 -1.374315e+002 -1.361613e+001 -5.473013e+001 -1.370117e+001 -5.431601e+001 -1.451888e+001 -1.407350e+002
17497918750 -1.007596e+001 -1.382016e+002 -1.359703e+001 -5.670739e+001 -1.368666e+001 -5.627013e+001 -1.441461e+001 -1.412591e+002
17516662500 -1.010070e+001 -1.390631e+002 -1.358235e+001 -5.864051e+001 -1.366883e+001 -5.819623e+001 -1.431730e+001 -1.418354e+002
17535406250 -1.011912e+001 -1.398727e+002 -1.356894e+001 -6.060563e+001 -1.365394e+001 -6.014333e+001 -1.422532e+001 -1.424129e+002
17554150000 -1.015304e+001 -1.406738e+002 -1.354935e+001 -6.255756e+001 -1.363656e+001 -6.209015e+001 -1.413500e+001 -1.429980e+002
17572893750 -1.018274e+001 -1.414795e+002 -1.353491e+001 -6.447303e+001 -1.362176e+001 -6.400078e+001 -1.404739e+001 -1.435956e+002
17591637500 -1.021583e+001 -1.422471e+002 -1.351844e+001 -6.642560e+001 -1.360691e+001 -6.591990e+001 -1.396437e+001 -1.441629e+002
17610381250 -1.026431e+001 -1.430196e+002 -1.349845e+001 -6.836287e+001 -1.359210e+001 -6.785619e+001 -1.389116e+001 -1.447158e+002
17629125000 -1.030752e+001 -1.438489e+002 -1.348664e+001 -7.028743e+001 -1.357478e+001 -6.976653e+001 -1.382295e+001 -1.452897e+002
17647868750 -1.035334e+001 -1.446248e+002 -1.347033e+001 -7.222353e+001 -1.355666e+001 -7.172704e+001 -1.375917e+001 -1.458809e+002
17666612500 -1.040480e+001 -1.453884e+002 -1.345143e+001 -7.414622e+001 -1.353895e+001 -7.364992e+001 -1.369731e+001 -1.464285e+002
17685356250 -1.045747e+001 -1.461838e+002 -1.343714e+001 -7.607952e+001 -1.352055e+001 -7.556397e+001 -1.363862e+001 -1.469708e+002
17704100000 -1.051444e+001 -1.468996e+002 -1.341784e+001 -7.804211e+001 -1.350164e+001 -7.750400e+001 -1.358037e+001 -1.474754e+002
17722843750 -1.058721e+001 -1.476548e+002 -1.339892e+001 -7.997579e+001 -1.348368e+001 -7.946181e+001 -1.353496e+001 -1.479499e+002
17741587500 -1.065252e+001 -1.484256e+002 -1.338711e+001 -8.189448e+001 -1.346696e+001 -8.136906e+001 -1.348801e+001 -1.484601e+002
17760331250 -1.071630e+001 -1.491711e+002 -1.336981e+001 -8.383709e+001 -1.344925e+001 -8.330865e+001 -1.344599e+001 -1.489734e+002
17779075000 -1.079437e+001 -1.498629e+002 -1.335295e+001 -8.580063e+001 -1.342850e+001 -8.525861e+001 -1.340672e+001 -1.494657e+002
17797818750 -1.087031e+001 -1.505957e+002 -1.333934e+001 -8.773898e+001 -1.341411e+001 -8.718345e+001 -1.336480e+001 -1.499588e+002
17816562500 -1.095323e+001 -1.512270e+002 -1.332244e+001 -8.970313e+001 -1.339926e+001 -8.913220e+001 -1.332465e+001 -1.503747e+002
17835306250 -1.105466e+001 -1.518866e+002 -1.330610e+001 -9.164738e+001 -1.337747e+001 -9.108217e+001 -1.329768e+001 -1.507617e+002
17854050000 -1.114570e+001 -1.526436e+002 -1.328836e+001 -9.357545e+001 -1.336131e+001 -9.299493e+001 -1.326975e+001 -1.511695e+002
17872793750 -1.123783e+001 -1.532591e+002 -1.327011e+001 -9.551087e+001 -1.334437e+001 -9.495786e+001 -1.324138e+001 -1.515550e+002
17891537500 -1.134493e+001 -1.539073e+002 -1.325004e+001 -9.745294e+001 -1.332119e+001 -9.688904e+001 -1.321771e+001 -1.519237e+002
17910281250 -1.144535e+001 -1.545370e+002 -1.323346e+001 -9.941383e+001 -1.330377e+001 -9.880464e+001 -1.318928e+001 -1.522962e+002
17929025000 -1.155648e+001 -1.550916e+002 -1.321798e+001 -1.013668e+002 -1.328949e+001 -1.007807e+002 -1.316207e+001 -1.525838e+002
17947768750 -1.168003e+001 -1.556985e+002 -1.319900e+001 -1.033174e+002 -1.327011e+001 -1.027212e+002 -1.314151e+001 -1.528906e+002
17966512500 -1.179715e+001 -1.563337e+002 -1.318405e+001 -1.052651e+002 -1.325420e+001 -1.046422e+002 -1.312509e+001 -1.531861e+002
17985256250 -1.191074e+001 -1.568055e+002 -1.316725e+001 -1.072258e+002 -1.323970e+001 -1.066125e+002 -1.310638e+001 -1.534284e+002
18004000000 -1.203456e+001 -1.573540e+002 -1.315198e+001 -1.091791e+002 -1.322030e+001 -1.085661e+002 -1.309597e+001 -1.536775e+002
18022743750 -1.215564e+001 -1.578336e+002 -1.313990e+001 -1.111564e+002 -1.320593e+001 -1.105199e+002 -1.307626e+001 -1.539105e+002
18041487500 -1.228108e+001 -1.582023e+002 -1.312650e+001 -1.131331e+002 -1.319295e+001 -1.125183e+002 -1.305986e+001 -1.541136e+002
18060231250 -1.242782e+001 -1.586308e+002 -1.311284e+001 -1.150919e+002 -1.317721e+001 -1.144917e+002 -1.304647e+001 -1.543309e+002
18078975000 -1.255235e+001 -1.590539e+002 -1.309953e+001 -1.170756e+002 -1.316442e+001 -1.164133e+002 -1.302506e+001 -1.544788e+002
18097718750 -1.268415e+001 -1.593154e+002 -1.308847e+001 -1.190454e+002 -1.315429e+001 -1.184111e+002 -1.300347e+001 -1.546112e+002
18116462500 -1.282028e+001 -1.596155e+002 -1.307601e+001 -1.210240e+002 -1.314101e+001 -1.203771e+002 -1.298539e+001 -1.547518e+002
18135206250 -1.294690e+001 -1.598588e+002 -1.306596e+001 -1.229990e+002 -1.313134e+001 -1.223248e+002 -1.296933e+001 -1.548861e+002
18153950000 -1.309224e+001 -1.599338e+002 -1.305385e+001 -1.249763e+002 -1.312034e+001 -1.243238e+002 -1.295228e+001 -1.549601e+002
18172693750 -1.324467e+001 -1.601180e+002 -1.304173e+001 -1.269638e+002 -1.310577e+001 -1.262951e+002 -1.293637e+001 -1.550560e+002
18191437500 -1.338281e+001 -1.602068e+002 -1.303218e+001 -1.289420e+002 -1.310105e+001 -1.282515e+002 -1.291394e+001 -1.551281e+002
18210181250 -1.351443e+001 -1.601838e+002 -1.302290e+001 -1.309064e+002 -1.309391e+001 -1.302415e+002 -1.289314e+001 -1.551667e+002
18228925000 -1.365510e+001 -1.601533e+002 -1.301469e+001 -1.328618e+002 -1.308076e+001 -1.321910e+002 -1.286848e+001 -1.552201e+002
18247668750 -1.378094e+001 -1.600173e+002 -1.301038e+001 -1.348401e+002 -1.307506e+001 -1.341517e+002 -1.283576e+001 -1.552691e+002
18266412500 -1.392014e+001 -1.597740e+002 -1.300356e+001 -1.368339e+002 -1.307126e+001 -1.361461e+002 -1.280425e+001 -1.552870e+002
18285156250 -1.406363e+001 -1.595728e+002 -1.299631e+001 -1.388208e+002 -1.306164e+001 -1.381161e+002 -1.277250e+001 -1.553109e+002
18303900000 -1.418654e+001 -1.593471e+002 -1.299182e+001 -1.408133e+002 -1.306046e+001 -1.401064e+002 -1.273691e+001 -1.553438e+002
18322643750 -1.430358e+001 -1.589777e+002 -1.298980e+001 -1.428109e+002 -1.305473e+001 -1.421423e+002 -1.270148e+001 -1.553732e+002
18341387500 -1.442828e+001 -1.585842e+002 -1.298655e+001 -1.447859e+002 -1.305030e+001 -1.441072e+002 -1.266577e+001 -1.553702e+002
18360131250 -1.453405e+001 -1.580595e+002 -1.298547e+001 -1.467440e+002 -1.305299e+001 -1.460809e+002 -1.261895e+001 -1.553687e+002
18378875000 -1.465585e+001 -1.574162e+002 -1.298721e+001 -1.487331e+002 -1.305008e+001 -1.480938e+002 -1.257067e+001 -1.553402e+002
18397618750 -1.477702e+001 -1.568651e+002 -1.298719e+001 -1.507286e+002 -1.304395e+001 -1.500664e+002 -1.251814e+001 -1.553396e+002
18416362500 -1.486756e+001 -1.563402e+002 -1.299140e+001 -1.526945e+002 -1.305276e+001 -1.520504e+002 -1.246714e+001 -1.553552e+002
18435106250 -1.495789e+001 -1.556385e+002 -1.299400e+001 -1.547051e+002 -1.304832e+001 -1.540379e+002 -1.241134e+001 -1.553326e+002
18453850000 -1.504008e+001 -1.549422e+002 -1.299222e+001 -1.566653e+002 -1.304974e+001 -1.559802e+002 -1.235584e+001 -1.553467e+002
18472593750 -1.510852e+001 -1.541620e+002 -1.299862e+001 -1.586231e+002 -1.305708e+001 -1.579555e+002 -1.229550e+001 -1.553316e+002
18491337500 -1.518430e+001 -1.533164e+002 -1.300087e+001 -1.606154e+002 -1.305475e+001 -1.599458e+002 -1.223770e+001 -1.553101e+002
18510081250 -1.525765e+001 -1.525783e+002 -1.300689e+001 -1.625817e+002 -1.305834e+001 -1.619093e+002 -1.217952e+001 -1.553477e+002
18528825000 -1.530376e+001 -1.518534e+002 -1.301446e+001 -1.645713e+002 -1.306499e+001 -1.639134e+002 -1.211826e+001 -1.553934e+002
18547568750 -1.534470e+001 -1.510376e+002 -1.301760e+001 -1.665405e+002 -1.306460e+001 -1.658921e+002 -1.205347e+001 -1.554094e+002
18566312500 -1.537265e+001 -1.502703e+002 -1.302451e+001 -1.684963e+002 -1.307267e+001 -1.678302e+002 -1.198108e+001 -1.554449e+002
18585056250 -1.537927e+001 -1.494325e+002 -1.303589e+001 -1.704777e+002 -1.308197e+001 -1.698049e+002 -1.190924e+001 -1.555046e+002
18603800000 -1.540109e+001 -1.485420e+002 -1.304229e+001 -1.724353e+002 -1.308724e+001 -1.717590e+002 -1.184535e+001 -1.555450e+002
18622543750 -1.540828e+001 -1.478281e+002 -1.305160e+001 -1.743784e+002 -1.309816e+001 -1.737183e+002 -1.177573e+001 -1.556272e+002
18641287500 -1.539890e+001 -1.471288e+002 -1.306404e+001 -1.763411e+002 -1.311228e+001 -1.756968e+002 -1.170489e+001 -1.557157e+002
18660031250 -1.537703e+001 -1.464373e+002 -1.307206e+001 -1.783227e+002 -1.311886e+001 -1.776739e+002 -1.163544e+001 -1.558159e+002
18678775000 -1.533962e+001 -1.457807e+002 -1.308219e+001 1.797515e+002 -1.313429e+001 -1.796123e+002 -1.156553e+001 -1.559437e+002
18697518750 -1.528502e+001 -1.450484e+002 -1.309749e+001 1.777835e+002 -1.314782e+001 1.783981e+002 -1.149215e+001 -1.560745e+002
18716262500 -1.524500e+001 -1.443056e+002 -1.310871e+001 1.758367e+002 -1.315794e+001 1.764609e+002 -1.142402e+001 -1.562082e+002
18735006250 -1.519559e+001 -1.437379e+002 -1.312395e+001 1.739446e+002 -1.317617e+001 1.745438e+002 -1.135559e+001 -1.563520e+002
18753750000 -1.513492e+001 -1.431999e+002 -1.313977e+001 1.719812e+002 -1.319146e+001 1.725866e+002 -1.128766e+001 -1.565124e+002
18772493750 -1.506363e+001 -1.427017e+002 -1.314872e+001 1.700388e+002 -1.319916e+001 1.706602e+002 -1.121755e+001 -1.567417e+002
18791237500 -1.498070e+001 -1.422889e+002 -1.316593e+001 1.681165e+002 -1.321641e+001 1.687499e+002 -1.114747e+001 -1.569927e+002
18809981250 -1.488409e+001 -1.418170e+002 -1.318218e+001 1.661399e+002 -1.323145e+001 1.667866e+002 -1.108224e+001 -1.572147e+002
18828725000 -1.479696e+001 -1.413662e+002 -1.319299e+001 1.642322e+002 -1.324788e+001 1.648806e+002 -1.101498e+001 -1.574490e+002
18847468750 -1.471236e+001 -1.410171e+002 -1.321416e+001 1.623261e+002 -1.326508e+001 1.629683e+002 -1.095037e+001 -1.577042e+002
18866212500 -1.461897e+001 -1.407350e+002 -1.322849e+001 1.603866e+002 -1.328014e+001 1.610135e+002 -1.088452e+001 -1.579885e+002
18884956250 -1.451977e+001 -1.405634e+002 -1.324197e+001 1.584814e+002 -1.329301e+001 1.591043e+002 -1.082151e+001 -1.583046e+002
18903700000 -1.440740e+001 -1.404050e+002 -1.326191e+001 1.565694e+002 -1.331388e+001 1.571888e+002 -1.075902e+001 -1.586255e+002
18922443750 -1.429149e+001 -1.402049e+002 -1.327305e+001 1.546371e+002 -1.332861e+001 1.552827e+002 -1.069432e+001 -1.589545e+002
18941187500 -1.418838e+001 -1.400278e+002 -1.328546e+001 1.527711e+002 -1.334601e+001 1.534079e+002 -1.063316e+001 -1.592954e+002
18959931250 -1.408510e+001 -1.399639e+002 -1.330812e+001 1.508706e+002 -1.336615e+001 1.515138e+002 -1.057322e+001 -1.596443e+002
18978675000 -1.398494e+001 -1.399501e+002 -1.332318e+001 1.489710e+002 -1.338223e+001 1.496139e+002 -1.051824e+001 -1.600583e+002
18997418750 -1.388252e+001 -1.400054e+002 -1.333913e+001 1.471212e+002 -1.339784e+001 1.477383e+002 -1.046303e+001 -1.604642e+002
19016162500 -1.377262e+001 -1.400824e+002 -1.336071e+001 1.452122e+002 -1.341724e+001 1.458402e+002 -1.040783e+001 -1.608594e+002
19034906250 -1.365761e+001 -1.401505e+002 -1.337194e+001 1.433136e+002 -1.343137e+001 1.439700e+002 -1.035296e+001 -1.612478e+002
19053650000 -1.356071e+001 -1.402246e+002 -1.338903e+001 1.414619e+002 -1.344501e+001 1.420987e+002 -1.030158e+001 -1.616446e+002
19072393750 -1.346987e+001 -1.403780e+002 -1.340762e+001 1.395394e+002 -1.346253e+001 1.402121e+002 -1.025648e+001 -1.620496e+002
19091137500 -1.338001e+001 -1.405416e+002 -1.341947e+001 1.376634e+002 -1.347635e+001 1.383625e+002 -1.021342e+001 -1.624978e+002
19109881250 -1.329486e+001 -1.408066e+002 -1.343959e+001 1.358144e+002 -1.348856e+001 1.365123e+002 -1.016985e+001 -1.629531e+002
19128625000 -1.320690e+001 -1.411021e+002 -1.345592e+001 1.339202e+002 -1.350284e+001 1.346484e+002 -1.012548e+001 -1.634001e+002
19147368750 -1.311736e+001 -1.413578e+002 -1.346702e+001 1.320526e+002 -1.351799e+001 1.327805e+002 -1.008274e+001 -1.638674e+002
19166112500 -1.304303e+001 -1.416429e+002 -1.348623e+001 1.301742e+002 -1.353245e+001 1.309284e+002 -1.004309e+001 -1.643219e+002
19184856250 -1.296677e+001 -1.419692e+002 -1.349958e+001 1.282822e+002 -1.355019e+001 1.290523e+002 -1.000901e+001 -1.647833e+002
19203600000 -1.290105e+001 -1.423622e+002 -1.350993e+001 1.264644e+002 -1.356740e+001 1.272057e+002 -9.981580e+000 -1.652797e+002
19222343750 -1.283555e+001 -1.427986e+002 -1.353027e+001 1.246087e+002 -1.358207e+001 1.253442e+002 -9.952610e+000 -1.657776e+002
19241087500 -1.276281e+001 -1.432428e+002 -1.354305e+001 1.227454e+002 -1.359632e+001 1.234768e+002 -9.923794e+000 -1.662742e+002
19259831250 -1.269885e+001 -1.436794e+002 -1.355318e+001 1.208912e+002 -1.360573e+001 1.216071e+002 -9.896826e+000 -1.667717e+002
19278575000 -1.264518e+001 -1.441203e+002 -1.356958e+001 1.190278e+002 -1.361932e+001 1.197635e+002 -9.875048e+000 -1.672581e+002
19297318750 -1.259299e+001 -1.445939e+002 -1.357959e+001 1.171406e+002 -1.363818e+001 1.179276e+002 -9.860687e+000 -1.677706e+002
19316062500 -1.255400e+001 -1.450907e+002 -1.359085e+001 1.153181e+002 -1.365267e+001 1.160777e+002 -9.848493e+000 -1.683049e+002
19334806250 -1.250971e+001 -1.456721e+002 -1.360960e+001 1.134470e+002 -1.366601e+001 1.142231e+002 -9.835203e+000 -1.688502e+002
19353550000 -1.246414e+001 -1.462121e+002 -1.362088e+001 1.115672e+002 -1.368376e+001 1.123761e+002 -9.826933e+000 -1.693822e+002
19372293750 -1.242548e+001 -1.467338e+002 -1.363483e+001 1.097328e+002 -1.369361e+001 1.105136e+002 -9.815220e+000 -1.699012e+002
19391037500 -1.239109e+001 -1.472311e+002 -1.365047e+001 1.078586e+002 -1.370565e+001 1.086663e+002 -9.810284e+000 -1.703986e+002
19409781250 -1.236567e+001 -1.477591e+002 -1.365922e+001 1.059827e+002 -1.371822e+001 1.068018e+002 -9.812350e+000 -1.709124e+002
19428525000 -1.234585e+001 -1.483448e+002 -1.366935e+001 1.041273e+002 -1.372746e+001 1.049409e+002 -9.813781e+000 -1.714540e+002
19447268750 -1.232159e+001 -1.489635e+002 -1.368267e+001 1.022554e+002 -1.374115e+001 1.030921e+002 -9.819969e+000 -1.719760e+002
19466012500 -1.229869e+001 -1.495530e+002 -1.369400e+001 1.004031e+002 -1.375510e+001 1.012210e+002 -9.823961e+000 -1.725164e+002
19484756250 -1.228130e+001 -1.501014e+002 -1.370695e+001 9.855356e+001 -1.376447e+001 9.937257e+001 -9.832614e+000 -1.730606e+002
19503500000 -1.226336e+001 -1.506621e+002 -1.372053e+001 9.667054e+001 -1.377840e+001 9.751022e+001 -9.844794e+000 -1.735838e+002
19522243750 -1.225824e+001 -1.512310e+002 -1.372801e+001 9.481900e+001 -1.379109e+001 9.563654e+001 -9.862422e+000 -1.740917e+002
19540987500 -1.225773e+001 -1.518248e+002 -1.373542e+001 9.295764e+001 -1.379860e+001 9.375420e+001 -9.881097e+000 -1.746420e+002
19559731250 -1.224606e+001 -1.524338e+002 -1.374490e+001 9.106190e+001 -1.380926e+001 9.188165e+001 -9.903590e+000 -1.751694e+002
19578475000 -1.224111e+001 -1.529910e+002 -1.374953e+001 8.920693e+001 -1.381993e+001 8.999847e+001 -9.924640e+000 -1.757179e+002
19597218750 -1.224082e+001 -1.534860e+002 -1.376156e+001 8.735690e+001 -1.382737e+001 8.812560e+001 -9.949167e+000 -1.762647e+002
19615962500 -1.225221e+001 -1.539873e+002 -1.377371e+001 8.545661e+001 -1.383654e+001 8.626579e+001 -9.980489e+000 -1.767645e+002
19634706250 -1.226572e+001 -1.544765e+002 -1.377881e+001 8.357645e+001 -1.384532e+001 8.435260e+001 -1.000690e+001 -1.772739e+002
19653450000 -1.228308e+001 -1.550297e+002 -1.378706e+001 8.169906e+001 -1.385290e+001 8.247672e+001 -1.003576e+001 -1.777946e+002
19672193750 -1.229776e+001 -1.555504e+002 -1.379534e+001 7.978030e+001 -1.386405e+001 8.061521e+001 -1.006783e+001 -1.783003e+002
19690937500 -1.231734e+001 -1.560030e+002 -1.380366e+001 7.789917e+001 -1.387454e+001 7.869984e+001 -1.010401e+001 -1.787921e+002
19709681250 -1.234272e+001 -1.564642e+002 -1.381736e+001 7.600308e+001 -1.388035e+001 7.679211e+001 -1.013858e+001 -1.792691e+002
19728425000 -1.237402e+001 -1.568868e+002 -1.382545e+001 7.410396e+001 -1.388746e+001 7.489166e+001 -1.018369e+001 -1.796709e+002
19747168750 -1.241438e+001 -1.573326e+002 -1.383231e+001 7.220057e+001 -1.389545e+001 7.293935e+001 -1.023050e+001 1.798956e+002
19765912500 -1.245540e+001 -1.578110e+002 -1.384192e+001 7.029265e+001 -1.389942e+001 7.104449e+001 -1.027248e+001 1.794443e+002
19784656250 -1.248807e+001 -1.582527e+002 -1.384960e+001 6.836713e+001 -1.390269e+001 6.910627e+001 -1.031895e+001 1.790139e+002
19803400000 -1.252157e+001 -1.586499e+002 -1.385572e+001 6.642680e+001 -1.391172e+001 6.715382e+001 -1.037195e+001 1.785831e+002
19822143750 -1.257153e+001 -1.590069e+002 -1.386013e+001 6.451859e+001 -1.391757e+001 6.524159e+001 -1.041971e+001 1.781980e+002
19840887500 -1.262145e+001 -1.593770e+002 -1.387135e+001 6.259914e+001 -1.392733e+001 6.332821e+001 -1.047296e+001 1.778616e+002
19859631250 -1.267513e+001 -1.597003e+002 -1.387506e+001 6.063853e+001 -1.393361e+001 6.133916e+001 -1.053107e+001 1.775491e+002
19878375000 -1.273014e+001 -1.600759e+002 -1.387954e+001 5.868792e+001 -1.393690e+001 5.943788e+001 -1.058378e+001 1.771656e+002
19897118750 -1.279211e+001 -1.603872e+002 -1.388692e+001 5.674477e+001 -1.394528e+001 5.747203e+001 -1.064862e+001 1.768283e+002
19915862500 -1.284262e+001 -1.607247e+002 -1.389979e+001 5.474843e+001 -1.395237e+001 5.547572e+001 -1.070959e+001 1.765109e+002
19934606250 -1.289998e+001 -1.609357e+002 -1.390272e+001 5.281618e+001 -1.395618e+001 5.349860e+001 -1.076975e+001 1.762352e+002
19953350000 -1.296974e+001 -1.611076e+002 -1.391466e+001 5.085225e+001 -1.396466e+001 5.153422e+001 -1.084146e+001 1.760124e+002
19972093750 -1.304354e+001 -1.613786e+002 -1.392599e+001 4.883567e+001 -1.397522e+001 4.952781e+001 -1.092159e+001 1.757683e+002
19990837500 -1.311353e+001 -1.616579e+002 -1.393464e+001 4.687214e+001 -1.397741e+001 4.756602e+001 -1.098386e+001 1.755195e+002
20009581250 -1.318537e+001 -1.618404e+002 -1.395260e+001 4.489263e+001 -1.398925e+001 4.558198e+001 -1.105643e+001 1.753622e+002
20028325000 -1.324824e+001 -1.620486e+002 -1.396131e+001 4.284847e+001 -1.399599e+001 4.355138e+001 -1.112952e+001 1.752053e+002
20047068750 -1.331030e+001 -1.621743e+002 -1.396766e+001 4.084740e+001 -1.400509e+001 4.158836e+001 -1.119338e+001 1.750929e+002
20065812500 -1.339609e+001 -1.622273e+002 -1.398700e+001 3.883248e+001 -1.402224e+001 3.955829e+001 -1.127640e+001 1.749935e+002
20084556250 -1.347695e+001 -1.623428e+002 -1.400065e+001 3.679190e+001 -1.402825e+001 3.748305e+001 -1.135932e+001 1.748550e+002
20103300000 -1.354908e+001 -1.624864e+002 -1.400673e+001 3.480041e+001 -1.404001e+001 3.547052e+001 -1.143205e+001 1.747947e+002
20122043750 -1.361840e+001 -1.625720e+002 -1.402307e+001 3.276666e+001 -1.406098e+001 3.345277e+001 -1.151387e+001 1.747281e+002
20140787500 -1.367657e+001 -1.625969e+002 -1.403098e+001 3.071889e+001 -1.406781e+001 3.139198e+001 -1.158490e+001 1.746579e+002
20159531250 -1.374599e+001 -1.624872e+002 -1.404426e+001 2.872864e+001 -1.407279e+001 2.935411e+001 -1.165442e+001 1.746409e+002
20178275000 -1.382136e+001 -1.623273e+002 -1.406957e+001 2.665347e+001 -1.409338e+001 2.731616e+001 -1.173556e+001 1.746865e+002
20197018750 -1.390018e+001 -1.621964e+002 -1.407992e+001 2.457686e+001 -1.410975e+001 2.523160e+001 -1.181865e+001 1.747261e+002
20215762500 -1.397924e+001 -1.621647e+002 -1.409849e+001 2.251297e+001 -1.412890e+001 2.321787e+001 -1.188911e+001 1.747572e+002
20234506250 -1.404873e+001 -1.620499e+002 -1.411598e+001 2.044732e+001 -1.414730e+001 2.114204e+001 -1.196501e+001 1.748048e+002
20253250000 -1.410548e+001 -1.618806e+002 -1.413481e+001 1.837395e+001 -1.415913e+001 1.904499e+001 -1.203639e+001 1.748319e+002
20271993750 -1.417308e+001 -1.615379e+002 -1.415526e+001 1.632141e+001 -1.417693e+001 1.698805e+001 -1.210704e+001 1.749784e+002
20290737500 -1.425894e+001 -1.612022e+002 -1.418708e+001 1.425359e+001 -1.420111e+001 1.491257e+001 -1.217579e+001 1.751081e+002
20309481250 -1.433995e+001 -1.608828e+002 -1.421456e+001 1.217838e+001 -1.422323e+001 1.280815e+001 -1.224811e+001 1.752879e+002
20328225000 -1.439344e+001 -1.605897e+002 -1.423202e+001 1.009197e+001 -1.423666e+001 1.074614e+001 -1.230674e+001 1.754827e+002
20346968750 -1.444872e+001 -1.602411e+002 -1.424270e+001 8.000894e+000 -1.426330e+001 8.633076e+000 -1.236228e+001 1.757011e+002
20365712500 -1.449602e+001 -1.598624e+002 -1.427452e+001 5.890093e+000 -1.428487e+001 6.545285e+000 -1.241199e+001 1.759236e+002
20384456250 -1.453264e+001 -1.593848e+002 -1.430257e+001 3.779340e+000 -1.432077e+001 4.446294e+000 -1.246510e+001 1.761878e+002
20403200000 -1.459022e+001 -1.587739e+002 -1.432682e+001 1.683777e+000 -1.435149e+001 2.307374e+000 -1.251571e+001 1.765322e+002
20421943750 -1.465255e+001 -1.582479e+002 -1.435173e+001 -3.781355e-001 -1.438165e+001 1.816432e-001 -1.257079e+001 1.768253e+002
20440687500 -1.469169e+001 -1.578397e+002 -1.438129e+001 -2.531014e+000 -1.441582e+001 -1.912992e+000 -1.261852e+001 1.771081e+002
20459431250 -1.472437e+001 -1.573403e+002 -1.440469e+001 -4.600931e+000 -1.444495e+001 -4.055627e+000 -1.266164e+001 1.774054e+002
20478175000 -1.475232e+001 -1.567972e+002 -1.443810e+001 -6.677720e+000 -1.447258e+001 -6.211855e+000 -1.269481e+001 1.776848e+002
20496918750 -1.475952e+001 -1.560653e+002 -1.447373e+001 -8.832715e+000 -1.450346e+001 -8.305427e+000 -1.272114e+001 1.781329e+002
20515662500 -1.479200e+001 -1.553482e+002 -1.450077e+001 -1.093927e+001 -1.454297e+001 -1.042187e+001 -1.275975e+001 1.786209e+002
20534406250 -1.482433e+001 -1.547221e+002 -1.454436e+001 -1.306445e+001 -1.457029e+001 -1.257494e+001 -1.280066e+001 1.789801e+002
20553150000 -1.484089e+001 -1.541140e+002 -1.457744e+001 -1.526333e+001 -1.461175e+001 -1.471969e+001 -1.283294e+001 1.793894e+002
20571893750 -1.485315e+001 -1.535616e+002 -1.461018e+001 -1.737182e+001 -1.465132e+001 -1.689008e+001 -1.286192e+001 1.798105e+002
20590637500 -1.483678e+001 -1.529996e+002 -1.465768e+001 -1.954773e+001 -1.469413e+001 -1.901696e+001 -1.287397e+001 -1.797982e+002
20609381250 -1.481757e+001 -1.523208e+002 -1.469013e+001 -2.170871e+001 -1.473909e+001 -2.111169e+001 -1.288094e+001 -1.793002e+002
20628125000 -1.481628e+001 -1.516409e+002 -1.472909e+001 -2.382394e+001 -1.477876e+001 -2.328044e+001 -1.289222e+001 -1.787935e+002
20646868750 -1.480179e+001 -1.509385e+002 -1.477119e+001 -2.594197e+001 -1.481703e+001 -2.544646e+001 -1.290820e+001 -1.782920e+002
20665612500 -1.478352e+001 -1.503328e+002 -1.480850e+001 -2.812966e+001 -1.486691e+001 -2.759318e+001 -1.292325e+001 -1.777773e+002
20684356250 -1.474950e+001 -1.497802e+002 -1.484718e+001 -3.024571e+001 -1.490987e+001 -2.976847e+001 -1.292662e+001 -1.772915e+002
20703100000 -1.468144e+001 -1.492744e+002 -1.489751e+001 -3.246244e+001 -1.494765e+001 -3.189910e+001 -1.291262e+001 -1.768122e+002
20721843750 -1.461362e+001 -1.485750e+002 -1.493538e+001 -3.463871e+001 -1.500305e+001 -3.407750e+001 -1.290878e+001 -1.762744e+002
20740587500 -1.456154e+001 -1.479763e+002 -1.497389e+001 -3.675537e+001 -1.504924e+001 -3.628004e+001 -1.290976e+001 -1.757534e+002
20759331250 -1.452271e+001 -1.473718e+002 -1.503074e+001 -3.894436e+001 -1.511062e+001 -3.841098e+001 -1.291111e+001 -1.752527e+002
20778075000 -1.447178e+001 -1.468159e+002 -1.508248e+001 -4.111884e+001 -1.516229e+001 -4.055566e+001 -1.291620e+001 -1.747897e+002
20796818750 -1.441265e+001 -1.463672e+002 -1.513138e+001 -4.321867e+001 -1.520956e+001 -4.271577e+001 -1.291113e+001 -1.743506e+002
20815562500 -1.433499e+001 -1.459434e+002 -1.518231e+001 -4.542211e+001 -1.525685e+001 -4.484839e+001 -1.288916e+001 -1.738829e+002
20834306250 -1.424556e+001 -1.454479e+002 -1.522308e+001 -4.758411e+001 -1.530831e+001 -4.702185e+001 -1.286675e+001 -1.733533e+002
20853050000 -1.417033e+001 -1.449230e+002 -1.528927e+001 -4.973335e+001 -1.536399e+001 -4.918922e+001 -1.285284e+001 -1.728489e+002
20871793750 -1.409596e+001 -1.444247e+002 -1.534211e+001 -5.194596e+001 -1.542121e+001 -5.133704e+001 -1.283650e+001 -1.723632e+002
20890537500 -1.402352e+001 -1.439960e+002 -1.539929e+001 -5.414441e+001 -1.548175e+001 -5.355265e+001 -1.281157e+001 -1.719340e+002
20909281250 -1.393376e+001 -1.437164e+002 -1.546151e+001 -5.630001e+001 -1.553907e+001 -5.569549e+001 -1.278409e+001 -1.714798e+002
20928025000 -1.383463e+001 -1.435356e+002 -1.552160e+001 -5.850521e+001 -1.560270e+001 -5.786226e+001 -1.274951e+001 -1.710111e+002
20946768750 -1.372813e+001 -1.431661e+002 -1.557336e+001 -6.066005e+001 -1.565684e+001 -6.005064e+001 -1.271167e+001 -1.705605e+002
20965512500 -1.363318e+001 -1.427836e+002 -1.563955e+001 -6.285960e+001 -1.571809e+001 -6.222497e+001 -1.267543e+001 -1.700731e+002
20984256250 -1.353961e+001 -1.424715e+002 -1.570583e+001 -6.505799e+001 -1.578086e+001 -6.442381e+001 -1.264211e+001 -1.695962e+002
21003000000 -1.345302e+001 -1.421936e+002 -1.576976e+001 -6.722707e+001 -1.584721e+001 -6.654156e+001 -1.260881e+001 -1.691956e+002
21021743750 -1.335778e+001 -1.420370e+002 -1.582890e+001 -6.946560e+001 -1.590752e+001 -6.871973e+001 -1.256630e+001 -1.687596e+002
21040487500 -1.324278e+001 -1.419189e+002 -1.588966e+001 -7.166857e+001 -1.596959e+001 -7.094444e+001 -1.251402e+001 -1.683232e+002
21059231250 -1.313253e+001 -1.416838e+002 -1.594876e+001 -7.382886e+001 -1.603926e+001 -7.310538e+001 -1.247091e+001 -1.678587e+002
21077975000 -1.302986e+001 -1.414839e+002 -1.601966e+001 -7.601357e+001 -1.610821e+001 -7.527727e+001 -1.243001e+001 -1.674073e+002
21096718750 -1.293344e+001 -1.412642e+002 -1.609635e+001 -7.821500e+001 -1.617298e+001 -7.746822e+001 -1.237901e+001 -1.669734e+002
21115462500 -1.284481e+001 -1.411646e+002 -1.616454e+001 -8.044999e+001 -1.624607e+001 -7.967728e+001 -1.233875e+001 -1.665786e+002
21134206250 -1.275568e+001 -1.411143e+002 -1.623113e+001 -8.262259e+001 -1.631907e+001 -8.190118e+001 -1.229482e+001 -1.662361e+002
21152950000 -1.264837e+001 -1.411074e+002 -1.630294e+001 -8.477916e+001 -1.638886e+001 -8.409398e+001 -1.223891e+001 -1.658166e+002
21171693750 -1.254077e+001 -1.409588e+002 -1.638944e+001 -8.699308e+001 -1.646086e+001 -8.630673e+001 -1.218370e+001 -1.653524e+002
21190437500 -1.243758e+001 -1.409006e+002 -1.646761e+001 -8.921609e+001 -1.653456e+001 -8.852021e+001 -1.212695e+001 -1.649563e+002
21209181250 -1.234930e+001 -1.408104e+002 -1.654910e+001 -9.139970e+001 -1.661381e+001 -9.078988e+001 -1.207391e+001 -1.645642e+002
21227925000 -1.226870e+001 -1.408438e+002 -1.663257e+001 -9.364215e+001 -1.669892e+001 -9.298618e+001 -1.201848e+001 -1.642329e+002
21246668750 -1.217279e+001 -1.409327e+002 -1.671215e+001 -9.584899e+001 -1.677404e+001 -9.520251e+001 -1.195022e+001 -1.639170e+002
21265412500 -1.207596e+001 -1.410228e+002 -1.680334e+001 -9.810278e+001 -1.685222e+001 -9.739002e+001 -1.187775e+001 -1.636118e+002
21284156250 -1.197291e+001 -1.410627e+002 -1.688588e+001 -1.003783e+002 -1.693054e+001 -9.956261e+001 -1.181139e+001 -1.632171e+002
21302900000 -1.187326e+001 -1.411144e+002 -1.697109e+001 -1.025664e+002 -1.700606e+001 -1.018359e+002 -1.174238e+001 -1.628496e+002
21321643750 -1.178266e+001 -1.411790e+002 -1.705590e+001 -1.047891e+002 -1.709254e+001 -1.040449e+002 -1.168110e+001 -1.624562e+002
21340387500 -1.170217e+001 -1.412890e+002 -1.713578e+001 -1.070205e+002 -1.718064e+001 -1.062769e+002 -1.161970e+001 -1.621452e+002
21359131250 -1.160714e+001 -1.414804e+002 -1.722198e+001 -1.092085e+002 -1.726836e+001 -1.085308e+002 -1.154844e+001 -1.619096e+002
21377875000 -1.150826e+001 -1.416712e+002 -1.731185e+001 -1.114402e+002 -1.735282e+001 -1.107935e+002 -1.147489e+001 -1.616326e+002
21396618750 -1.141471e+001 -1.418089e+002 -1.740113e+001 -1.136252e+002 -1.744862e+001 -1.130654e+002 -1.140248e+001 -1.613016e+002
21415362500 -1.132295e+001 -1.419702e+002 -1.748392e+001 -1.158296e+002 -1.753043e+001 -1.152270e+002 -1.132710e+001 -1.610192e+002
21434106250 -1.124010e+001 -1.421015e+002 -1.757969e+001 -1.180838e+002 -1.762620e+001 -1.174988e+002 -1.125432e+001 -1.606974e+002
21452850000 -1.116658e+001 -1.423446e+002 -1.767660e+001 -1.202615e+002 -1.773487e+001 -1.197571e+002 -1.118253e+001 -1.604847e+002
21471593750 -1.108211e+001 -1.426243e+002 -1.776780e+001 -1.224765e+002 -1.783439e+001 -1.219647e+002 -1.110543e+001 -1.603037e+002
21490337500 -1.098336e+001 -1.428359e+002 -1.786240e+001 -1.247082e+002 -1.792575e+001 -1.241891e+002 -1.102308e+001 -1.600403e+002
21509081250 -1.089517e+001 -1.430674e+002 -1.795839e+001 -1.269849e+002 -1.801449e+001 -1.264628e+002 -1.093645e+001 -1.597716e+002
21527825000 -1.080751e+001 -1.433071e+002 -1.805260e+001 -1.291562e+002 -1.811109e+001 -1.287428e+002 -1.085741e+001 -1.595450e+002
21546568750 -1.072884e+001 -1.434950e+002 -1.816199e+001 -1.313309e+002 -1.820813e+001 -1.309185e+002 -1.077398e+001 -1.593395e+002
21565312500 -1.066306e+001 -1.437601e+002 -1.826443e+001 -1.335765e+002 -1.831620e+001 -1.331992e+002 -1.069176e+001 -1.591540e+002
21584056250 -1.057898e+001 -1.441669e+002 -1.836101e+001 -1.358893e+002 -1.840958e+001 -1.354761e+002 -1.060316e+001 -1.590634e+002
21602800000 -1.048771e+001 -1.444897e+002 -1.844856e+001 -1.381047e+002 -1.850436e+001 -1.376397e+002 -1.050927e+001 -1.589353e+002
21621543750 -1.040041e+001 -1.447891e+002 -1.854821e+001 -1.403290e+002 -1.861570e+001 -1.399108e+002 -1.042000e+001 -1.587618e+002
21640287500 -1.031341e+001 -1.450560e+002 -1.864733e+001 -1.425751e+002 -1.871499e+001 -1.421721e+002 -1.033155e+001 -1.585979e+002
21659031250 -1.023809e+001 -1.453203e+002 -1.874397e+001 -1.448053e+002 -1.882791e+001 -1.445048e+002 -1.024759e+001 -1.584446e+002
21677775000 -1.017133e+001 -1.456785e+002 -1.884367e+001 -1.470646e+002 -1.893261e+001 -1.468580e+002 -1.015950e+001 -1.583783e+002
21696518750 -1.008983e+001 -1.460443e+002 -1.894988e+001 -1.492957e+002 -1.903935e+001 -1.490980e+002 -1.006730e+001 -1.583193e+002
21715262500 -1.000793e+001 -1.464227e+002 -1.903909e+001 -1.515166e+002 -1.916355e+001 -1.513249e+002 -9.974366e+000 -1.582638e+002
21734006250 -9.933305e+000 -1.467439e+002 -1.914232e+001 -1.538042e+002 -1.927596e+001 -1.535946e+002 -9.881042e+000 -1.582026e+002
21752750000 -9.862135e+000 -1.470133e+002 -1.925005e+001 -1.561060e+002 -1.938283e+001 -1.557860e+002 -9.786461e+000 -1.581727e+002
21771493750 -9.806163e+000 -1.472960e+002 -1.935757e+001 -1.584845e+002 -1.948976e+001 -1.580865e+002 -9.700754e+000 -1.581360e+002
21790237500 -9.747756e+000 -1.477051e+002 -1.946673e+001 -1.608465e+002 -1.959183e+001 -1.603504e+002 -9.610676e+000 -1.581554e+002
21808981250 -9.674385e+000 -1.481351e+002 -1.957984e+001 -1.631118e+002 -1.970236e+001 -1.625820e+002 -9.515621e+000 -1.581433e+002
21827725000 -9.595645e+000 -1.485296e+002 -1.968825e+001 -1.654109e+002 -1.981339e+001 -1.647606e+002 -9.418928e+000 -1.581404e+002
21846468750 -9.525616e+000 -1.488678e+002 -1.980787e+001 -1.676425e+002 -1.993416e+001 -1.670935e+002 -9.321572e+000 -1.581643e+002
21865212500 -9.455901e+000 -1.491738e+002 -1.992554e+001 -1.700344e+002 -2.005214e+001 -1.692409e+002 -9.232976e+000 -1.582189e+002
21883956250 -9.407829e+000 -1.494765e+002 -2.002870e+001 -1.723743e+002 -2.015806e+001 -1.714896e+002 -9.144036e+000 -1.582492e+002
21902700000 -9.355688e+000 -1.498877e+002 -2.015207e+001 -1.746778e+002 -2.026599e+001 -1.739012e+002 -9.052100e+000 -1.583423e+002
21921443750 -9.298953e+000 -1.503383e+002 -2.028431e+001 -1.769935e+002 -2.037165e+001 -1.761519e+002 -8.958738e+000 -1.584735e+002
21940187500 -9.232730e+000 -1.507229e+002 -2.040577e+001 -1.791967e+002 -2.050246e+001 -1.784187e+002 -8.866175e+000 -1.585704e+002
21958931250 -9.169197e+000 -1.510936e+002 -2.052233e+001 1.784539e+002 -2.062256e+001 1.792899e+002 -8.771476e+000 -1.586779e+002
21977675000 -9.118409e+000 -1.513976e+002 -2.064267e+001 1.760299e+002 -2.074277e+001 1.770854e+002 -8.679807e+000 -1.587692e+002
21996418750 -9.074694e+000 -1.517803e+002 -2.076827e+001 1.737440e+002 -2.087424e+001 1.747743e+002 -8.597221e+000 -1.589026e+002
22015162500 -9.031630e+000 -1.521860e+002 -2.090770e+001 1.714321e+002 -2.100215e+001 1.724902e+002 -8.510188e+000 -1.590494e+002
22033906250 -8.981438e+000 -1.525933e+002 -2.103609e+001 1.690617e+002 -2.114224e+001 1.701915e+002 -8.421619e+000 -1.592066e+002
22052650000 -8.926661e+000 -1.529699e+002 -2.116044e+001 1.667849e+002 -2.126780e+001 1.678887e+002 -8.334405e+000 -1.593727e+002
22071393750 -8.875617e+000 -1.533462e+002 -2.128823e+001 1.644784e+002 -2.139102e+001 1.656074e+002 -8.243395e+000 -1.595504e+002
22090137500 -8.827593e+000 -1.536349e+002 -2.141402e+001 1.620601e+002 -2.150327e+001 1.634201e+002 -8.156001e+000 -1.597261e+002
22108881250 -8.792718e+000 -1.539704e+002 -2.155804e+001 1.598407e+002 -2.165106e+001 1.612444e+002 -8.079051e+000 -1.599015e+002
22127625000 -8.751322e+000 -1.544193e+002 -2.170097e+001 1.574848e+002 -2.177408e+001 1.589336e+002 -7.998711e+000 -1.601038e+002
22146368750 -8.708369e+000 -1.547717e+002 -2.184079e+001 1.551385e+002 -2.188257e+001 1.566073e+002 -7.920140e+000 -1.602954e+002
22165112500 -8.658030e+000 -1.551186e+002 -2.197322e+001 1.528848e+002 -2.201166e+001 1.542404e+002 -7.840753e+000 -1.605008e+002
22183856250 -8.612406e+000 -1.554290e+002 -2.210292e+001 1.505189e+002 -2.214005e+001 1.518639e+002 -7.764545e+000 -1.607132e+002
22202600000 -8.570167e+000 -1.556886e+002 -2.223259e+001 1.482715e+002 -2.229862e+001 1.495644e+002 -7.685159e+000 -1.609252e+002
22221343750 -8.543749e+000 -1.559581e+002 -2.236915e+001 1.461024e+002 -2.245037e+001 1.471878e+002 -7.610014e+000 -1.611716e+002
22240087500 -8.511086e+000 -1.562590e+002 -2.251444e+001 1.436740e+002 -2.257789e+001 1.448674e+002 -7.527027e+000 -1.614335e+002
22258831250 -8.476927e+000 -1.565712e+002 -2.262840e+001 1.413586e+002 -2.273249e+001 1.424864e+002 -7.446858e+000 -1.616976e+002
22277575000 -8.431695e+000 -1.568542e+002 -2.277922e+001 1.389723e+002 -2.285995e+001 1.401454e+002 -7.370173e+000 -1.619388e+002
22296318750 -8.386642e+000 -1.570957e+002 -2.291451e+001 1.366520e+002 -2.297909e+001 1.377118e+002 -7.287759e+000 -1.621830e+002
22315062500 -8.347298e+000 -1.573216e+002 -2.305623e+001 1.343276e+002 -2.313493e+001 1.353252e+002 -7.214926e+000 -1.624204e+002
22333806250 -8.320051e+000 -1.575553e+002 -2.320828e+001 1.320002e+002 -2.326593e+001 1.330428e+002 -7.143361e+000 -1.627029e+002
22352550000 -8.288416e+000 -1.578637e+002 -2.334521e+001 1.295842e+002 -2.341288e+001 1.307533e+002 -7.066381e+000 -1.629726e+002
22371293750 -8.251208e+000 -1.581335e+002 -2.349963e+001 1.272329e+002 -2.357346e+001 1.283834e+002 -6.993726e+000 -1.632789e+002
22390037500 -8.209639e+000 -1.583718e+002 -2.365947e+001 1.248360e+002 -2.373193e+001 1.260833e+002 -6.918984e+000 -1.635810e+002
22408781250 -8.161662e+000 -1.585993e+002 -2.380345e+001 1.224742e+002 -2.389322e+001 1.237573e+002 -6.844467e+000 -1.638671e+002
22427525000 -8.120401e+000 -1.587403e+002 -2.394395e+001 1.201346e+002 -2.404636e+001 1.214300e+002 -6.770069e+000 -1.641472e+002
22446268750 -8.090592e+000 -1.589226e+002 -2.409804e+001 1.177469e+002 -2.420888e+001 1.190952e+002 -6.701711e+000 -1.644395e+002
22465012500 -8.058043e+000 -1.591725e+002 -2.423249e+001 1.153303e+002 -2.435698e+001 1.167296e+002 -6.630217e+000 -1.647619e+002
22483756250 -8.018161e+000 -1.593978e+002 -2.437239e+001 1.130400e+002 -2.451456e+001 1.143499e+002 -6.557382e+000 -1.650506e+002
22502500000 -7.972077e+000 -1.596255e+002 -2.453557e+001 1.106559e+002 -2.468305e+001 1.120599e+002 -6.484575e+000 -1.653553e+002
22521243750 -7.923829e+000 -1.597774e+002 -2.467459e+001 1.083901e+002 -2.484241e+001 1.096968e+002 -6.409752e+000 -1.656335e+002
22539987500 -7.887939e+000 -1.599111e+002 -2.481400e+001 1.059665e+002 -2.496722e+001 1.072546e+002 -6.339272e+000 -1.659110e+002
22558731250 -7.853623e+000 -1.600239e+002 -2.497017e+001 1.035887e+002 -2.513900e+001 1.048948e+002 -6.269552e+000 -1.662201e+002
22577475000 -7.807555e+000 -1.602288e+002 -2.513062e+001 1.012441e+002 -2.533607e+001 1.023949e+002 -6.193575e+000 -1.665325e+002
22596218750 -7.763475e+000 -1.604321e+002 -2.529763e+001 9.898670e+001 -2.549322e+001 1.002108e+002 -6.121426e+000 -1.668342e+002
22614962500 -7.712166e+000 -1.606426e+002 -2.545512e+001 9.664051e+001 -2.566423e+001 9.784016e+001 -6.052516e+000 -1.671326e+002
22633706250 -7.657683e+000 -1.608108e+002 -2.562712e+001 9.442879e+001 -2.580577e+001 9.558694e+001 -5.982306e+000 -1.674489e+002
22652450000 -7.608596e+000 -1.609231e+002 -2.579014e+001 9.197890e+001 -2.596814e+001 9.330990e+001 -5.914851e+000 -1.677238e+002
22671193750 -7.571481e+000 -1.611223e+002 -2.595458e+001 8.979911e+001 -2.615865e+001 9.101116e+001 -5.852889e+000 -1.680403e+002
22689937500 -7.518910e+000 -1.613547e+002 -2.612697e+001 8.753027e+001 -2.632940e+001 8.877478e+001 -5.785536e+000 -1.683814e+002
22708681250 -7.468548e+000 -1.615467e+002 -2.628722e+001 8.532543e+001 -2.654381e+001 8.653711e+001 -5.717289e+000 -1.686733e+002
22727425000 -7.416250e+000 -1.617912e+002 -2.647239e+001 8.315403e+001 -2.673443e+001 8.420362e+001 -5.657884e+000 -1.689858e+002
22746168750 -7.350898e+000 -1.619796e+002 -2.664726e+001 8.090479e+001 -2.691781e+001 8.205103e+001 -5.591601e+000 -1.693285e+002
22764912500 -7.294463e+000 -1.620797e+002 -2.682331e+001 7.868117e+001 -2.713072e+001 7.976014e+001 -5.533808e+000 -1.696123e+002
22783656250 -7.247138e+000 -1.622977e+002 -2.701571e+001 7.632536e+001 -2.731964e+001 7.748224e+001 -5.476767e+000 -1.699741e+002
22802400000 -7.190994e+000 -1.625462e+002 -2.718147e+001 7.411358e+001 -2.752422e+001 7.532758e+001 -5.413286e+000 -1.703065e+002
22821143750 -7.138018e+000 -1.627688e+002 -2.737828e+001 7.189848e+001 -2.767791e+001 7.309471e+001 -5.354841e+000 -1.705820e+002
22839887500 -7.079993e+000 -1.630428e+002 -2.756484e+001 6.984957e+001 -2.786827e+001 7.077105e+001 -5.303699e+000 -1.709156e+002
22858631250 -7.009127e+000 -1.632372e+002 -2.774206e+001 6.749965e+001 -2.803444e+001 6.854028e+001 -5.237741e+000 -1.712638e+002
22877375000 -6.953251e+000 -1.633888e+002 -2.791953e+001 6.536298e+001 -2.820940e+001 6.633795e+001 -5.182998e+000 -1.715844e+002
22896118750 -6.898496e+000 -1.636514e+002 -2.811942e+001 6.312299e+001 -2.841000e+001 6.414451e+001 -5.126449e+000 -1.719621e+002
22914862500 -6.833977e+000 -1.639278e+002 -2.830018e+001 6.082505e+001 -2.859344e+001 6.185746e+001 -5.065810e+000 -1.723139e+002
22933606250 -6.774670e+000 -1.641771e+002 -2.850092e+001 5.869058e+001 -2.876154e+001 5.951630e+001 -5.012831e+000 -1.726076e+002
22952350000 -6.706854e+000 -1.645220e+002 -2.869360e+001 5.667012e+001 -2.893859e+001 5.769036e+001 -4.963837e+000 -1.729891e+002
22971093750 -6.631088e+000 -1.647335e+002 -2.889796e+001 5.461985e+001 -2.916666e+001 5.580600e+001 -4.908691e+000 -1.733346e+002
22989837500 -6.570389e+000 -1.649829e+002 -2.906422e+001 5.300833e+001 -2.936962e+001 5.387797e+001 -4.862929e+000 -1.736957e+002
23008581250 -6.517624e+000 -1.652953e+002 -2.927188e+001 5.101480e+001 -2.953695e+001 5.191015e+001 -4.814017e+000 -1.740925e+002
23027325000 -6.451097e+000 -1.656092e+002 -2.946074e+001 4.889964e+001 -2.976038e+001 4.984587e+001 -4.757556e+000 -1.744405e+002
23046068750 -6.387455e+000 -1.659382e+002 -2.964407e+001 4.706904e+001 -2.998079e+001 4.785060e+001 -4.709144e+000 -1.747808e+002
23064812500 -6.320893e+000 -1.662808e+002 -2.984947e+001 4.492580e+001 -3.020416e+001 4.587242e+001 -4.659013e+000 -1.751464e+002
23083556250 -6.248756e+000 -1.665687e+002 -3.004438e+001 4.304859e+001 -3.041031e+001 4.378346e+001 -4.609764e+000 -1.755094e+002
23102300000 -6.187827e+000 -1.668386e+002 -3.023995e+001 4.123909e+001 -3.056336e+001 4.164551e+001 -4.566212e+000 -1.758694e+002
23121043750 -6.131723e+000 -1.671823e+002 -3.048177e+001 3.924326e+001 -3.070572e+001 3.977995e+001 -4.520875e+000 -1.762597e+002
23139787500 -6.068383e+000 -1.675588e+002 -3.071124e+001 3.741938e+001 -3.089817e+001 3.778458e+001 -4.471234e+000 -1.766361e+002
23158531250 -6.006988e+000 -1.679192e+002 -3.089892e+001 3.555254e+001 -3.110823e+001 3.599155e+001 -4.426545e+000 -1.770032e+002
23177275000 -5.941719e+000 -1.682969e+002 -3.112715e+001 3.351076e+001 -3.131300e+001 3.405443e+001 -4.382264e+000 -1.773872e+002
23196018750 -5.876317e+000 -1.686599e+002 -3.130600e+001 3.136651e+001 -3.151117e+001 3.208828e+001 -4.335126e+000 -1.777442e+002
23214762500 -5.817019e+000 -1.689803e+002 -3.149657e+001 2.962168e+001 -3.170838e+001 3.009115e+001 -4.292529e+000 -1.781171e+002
23233506250 -5.759765e+000 -1.693840e+002 -3.170825e+001 2.757484e+001 -3.187819e+001 2.798725e+001 -4.248712e+000 -1.785124e+002
23252250000 -5.696016e+000 -1.697838e+002 -3.186263e+001 2.601482e+001 -3.210659e+001 2.638351e+001 -4.199725e+000 -1.789079e+002
23270993750 -5.637018e+000 -1.701879e+002 -3.206884e+001 2.422200e+001 -3.230579e+001 2.456785e+001 -4.157571e+000 -1.792725e+002
23289737500 -5.575837e+000 -1.706417e+002 -3.224937e+001 2.247612e+001 -3.255311e+001 2.268806e+001 -4.119632e+000 -1.796569e+002
23308481250 -5.511864e+000 -1.710437e+002 -3.241758e+001 2.056405e+001 -3.279922e+001 2.051447e+001 -4.076878e+000 1.799709e+002
23327225000 -5.459082e+000 -1.714467e+002 -3.266036e+001 1.907829e+001 -3.297418e+001 1.901163e+001 -4.036823e+000 1.796019e+002
23345968750 -5.408450e+000 -1.718931e+002 -3.291757e+001 1.772760e+001 -3.315202e+001 1.758073e+001 -3.996110e+000 1.792025e+002
23364712500 -5.353633e+000 -1.723498e+002 -3.307395e+001 1.590099e+001 -3.333931e+001 1.604843e+001 -3.950963e+000 1.788315e+002
23383456250 -5.300399e+000 -1.727804e+002 -3.326950e+001 1.413906e+001 -3.357136e+001 1.413740e+001 -3.917156e+000 1.784769e+002
23402200000 -5.241487e+000 -1.732492e+002 -3.353328e+001 1.231873e+001 -3.378009e+001 1.207842e+001 -3.881593e+000 1.780927e+002
23420943750 -5.188172e+000 -1.736647e+002 -3.371766e+001 1.009404e+001 -3.404762e+001 1.037286e+001 -3.842567e+000 1.777332e+002
23439687500 -5.141047e+000 -1.741039e+002 -3.386964e+001 8.070692e+000 -3.425537e+001 8.897190e+000 -3.807841e+000 1.773404e+002
23458431250 -5.093135e+000 -1.746051e+002 -3.405597e+001 5.903827e+000 -3.446894e+001 7.209937e+000 -3.774149e+000 1.769298e+002
23477175000 -5.043278e+000 -1.750927e+002 -3.426447e+001 4.385296e+000 -3.462962e+001 5.524136e+000 -3.734378e+000 1.765709e+002
23495918750 -4.991461e+000 -1.756077e+002 -3.448437e+001 2.510723e+000 -3.479422e+001 4.489339e+000 -3.704168e+000 1.762030e+002
23514662500 -4.936025e+000 -1.760940e+002 -3.467009e+001 1.161974e+000 -3.491353e+001 2.781958e+000 -3.669657e+000 1.758127e+002
23533406250 -4.886631e+000 -1.765493e+002 -3.484490e+001 -8.453370e-001 -3.509549e+001 8.986315e-001 -3.636992e+000 1.754656e+002
23552150000 -4.846025e+000 -1.770354e+002 -3.498141e+001 -2.334479e+000 -3.535791e+001 -2.199210e-001 -3.608280e+000 1.750670e+002
23570893750 -4.797477e+000 -1.775431e+002 -3.517474e+001 -4.101960e+000 -3.555573e+001 -1.897438e+000 -3.577513e+000 1.746689e+002
23589637500 -4.749498e+000 -1.780289e+002 -3.532804e+001 -5.296479e+000 -3.570415e+001 -3.593581e+000 -3.544111e+000 1.743243e+002
23608381250 -4.706235e+000 -1.785359e+002 -3.549730e+001 -6.530298e+000 -3.583727e+001 -5.126932e+000 -3.516846e+000 1.739592e+002
23627125000 -4.656531e+000 -1.790137e+002 -3.572153e+001 -7.930093e+000 -3.599621e+001 -6.285669e+000 -3.485485e+000 1.735519e+002
23645868750 -4.613492e+000 -1.794741e+002 -3.587993e+001 -9.251642e+000 -3.618107e+001 -7.560768e+000 -3.458085e+000 1.731787e+002
23664612500 -4.577372e+000 -1.799623e+002 -3.605283e+001 -1.035703e+001 -3.640480e+001 -8.374501e+000 -3.430337e+000 1.727771e+002
23683356250 -4.534535e+000 1.795026e+002 -3.630551e+001 -1.219459e+001 -3.658001e+001 -9.980103e+000 -3.400157e+000 1.723882e+002
23702100000 -4.492995e+000 1.790156e+002 -3.648212e+001 -1.349975e+001 -3.676226e+001 -1.154889e+001 -3.371038e+000 1.720452e+002
23720843750 -4.453972e+000 1.785016e+002 -3.675054e+001 -1.473616e+001 -3.689785e+001 -1.286234e+001 -3.350357e+000 1.716668e+002
23739587500 -4.414165e+000 1.780286e+002 -3.695892e+001 -1.584971e+001 -3.700732e+001 -1.356442e+001 -3.324160e+000 1.712966e+002
23758331250 -4.380669e+000 1.775949e+002 -3.712794e+001 -1.742455e+001 -3.715267e+001 -1.522295e+001 -3.305199e+000 1.709234e+002
23777075000 -4.351635e+000 1.770692e+002 -3.723753e+001 -1.964827e+001 -3.741077e+001 -1.660835e+001 -3.284594e+000 1.705210e+002
23795818750 -4.311895e+000 1.765513e+002 -3.749370e+001 -2.130074e+001 -3.764753e+001 -1.772924e+001 -3.257829e+000 1.701363e+002
23814562500 -4.282323e+000 1.760423e+002 -3.766078e+001 -2.318791e+001 -3.777591e+001 -1.902584e+001 -3.232374e+000 1.697976e+002
23833306250 -4.246820e+000 1.755181e+002 -3.779494e+001 -2.425079e+001 -3.801624e+001 -2.053161e+001 -3.209457e+000 1.694186e+002
23852050000 -4.207025e+000 1.750372e+002 -3.804297e+001 -2.565053e+001 -3.806442e+001 -2.166765e+001 -3.182133e+000 1.690438e+002
23870793750 -4.177007e+000 1.745659e+002 -3.825460e+001 -2.587464e+001 -3.821965e+001 -2.298379e+001 -3.160738e+000 1.686937e+002
23889537500 -4.149888e+000 1.740483e+002 -3.837129e+001 -2.642799e+001 -3.833364e+001 -2.385137e+001 -3.137201e+000 1.682764e+002
23908281250 -4.117401e+000 1.735388e+002 -3.860375e+001 -2.801000e+001 -3.846685e+001 -2.490016e+001 -3.109675e+000 1.679161e+002
23927025000 -4.089796e+000 1.730488e+002 -3.871070e+001 -2.854028e+001 -3.862300e+001 -2.713196e+001 -3.088781e+000 1.675502e+002
23945768750 -4.060428e+000 1.725075e+002 -3.883300e+001 -2.962705e+001 -3.892780e+001 -2.807343e+001 -3.071455e+000 1.671609e+002
23964512500 -4.025139e+000 1.720362e+002 -3.903183e+001 -3.060742e+001 -3.916073e+001 -2.827389e+001 -3.044597e+000 1.667725e+002
23983256250 -4.001987e+000 1.715782e+002 -3.925433e+001 -3.232387e+001 -3.925295e+001 -2.950986e+001 -3.027167e+000 1.663934e+002
24002000000 -3.978642e+000 1.710373e+002 -3.942351e+001 -3.401758e+001 -3.946092e+001 -3.071684e+001 -3.001013e+000 1.659725e+002
24020743750 -3.948967e+000 1.705174e+002 -3.965976e+001 -3.531311e+001 -3.963761e+001 -3.107866e+001 -2.974840e+000 1.656215e+002
24039487500 -3.925205e+000 1.700213e+002 -3.992187e+001 -3.680409e+001 -3.984471e+001 -3.237304e+001 -2.957274e+000 1.652619e+002
24058231250 -3.898431e+000 1.694565e+002 -4.004274e+001 -3.777676e+001 -4.004327e+001 -3.333578e+001 -2.939212e+000 1.648537e+002
24076975000 -3.865694e+000 1.690042e+002 -4.019871e+001 -3.873634e+001 -4.020602e+001 -3.423832e+001 -2.917294e+000 1.645002e+002
24095718750 -3.848198e+000 1.685257e+002 -4.032911e+001 -3.980680e+001 -4.050690e+001 -3.539144e+001 -2.902585e+000 1.641091e+002
24114462500 -3.832479e+000 1.679914e+002 -4.042032e+001 -4.010509e+001 -4.071078e+001 -3.608305e+001 -2.883496e+000 1.637129e+002
24133206250 -3.807250e+000 1.674936e+002 -4.053400e+001 -4.070919e+001 -4.079913e+001 -3.595326e+001 -2.858818e+000 1.633637e+002
24151950000 -3.789269e+000 1.669747e+002 -4.084929e+001 -4.151297e+001 -4.096762e+001 -3.653191e+001 -2.844287e+000 1.630077e+002
24170693750 -3.756324e+000 1.664518e+002 -4.094592e+001 -4.262014e+001 -4.129352e+001 -3.698562e+001 -2.826732e+000 1.626141e+002
24189437500 -3.731217e+000 1.659884e+002 -4.096342e+001 -4.316889e+001 -4.140286e+001 -3.757480e+001 -2.808904e+000 1.622576e+002
24208181250 -3.713407e+000 1.655269e+002 -4.107081e+001 -4.321057e+001 -4.147919e+001 -3.748522e+001 -2.796768e+000 1.618759e+002
24226925000 -3.692185e+000 1.649960e+002 -4.119259e+001 -4.420134e+001 -4.159731e+001 -3.798631e+001 -2.777673e+000 1.614566e+002
24245668750 -3.667567e+000 1.645312e+002 -4.137276e+001 -4.334561e+001 -4.179589e+001 -3.878950e+001 -2.758779e+000 1.611022e+002
24264412500 -3.649800e+000 1.639867e+002 -4.144377e+001 -4.418205e+001 -4.210500e+001 -3.973020e+001 -2.748417e+000 1.607175e+002
24283156250 -3.622992e+000 1.634635e+002 -4.156409e+001 -4.397698e+001 -4.230282e+001 -4.027793e+001 -2.733340e+000 1.603258e+002
24301900000 -3.599790e+000 1.630292e+002 -4.171056e+001 -4.431051e+001 -4.239161e+001 -4.120209e+001 -2.721787e+000 1.599728e+002
24320643750 -3.587268e+000 1.625498e+002 -4.193710e+001 -4.519213e+001 -4.256763e+001 -4.188180e+001 -2.714709e+000 1.595827e+002
24339387500 -3.565336e+000 1.620579e+002 -4.190174e+001 -4.460500e+001 -4.263095e+001 -4.272601e+001 -2.696486e+000 1.591811e+002
24358131250 -3.546994e+000 1.616021e+002 -4.206274e+001 -4.505826e+001 -4.300745e+001 -4.301657e+001 -2.682562e+000 1.588446e+002
24376875000 -3.533881e+000 1.610947e+002 -4.221329e+001 -4.562099e+001 -4.299059e+001 -4.326864e+001 -2.671039e+000 1.584694e+002
24395618750 -3.509238e+000 1.605808e+002 -4.242674e+001 -4.563825e+001 -4.312792e+001 -4.512445e+001 -2.657820e+000 1.580660e+002
24414362500 -3.491220e+000 1.601289e+002 -4.252581e+001 -4.485037e+001 -4.318704e+001 -4.469727e+001 -2.643836e+000 1.577180e+002
24433106250 -3.479894e+000 1.596238e+002 -4.252604e+001 -4.471615e+001 -4.315017e+001 -4.380787e+001 -2.635248e+000 1.573114e+002
24451850000 -3.462985e+000 1.591419e+002 -4.253526e+001 -4.505025e+001 -4.315663e+001 -4.393416e+001 -2.618480e+000 1.569025e+002
24470593750 -3.448649e+000 1.586957e+002 -4.236507e+001 -4.489663e+001 -4.326200e+001 -4.435023e+001 -2.606056e+000 1.565856e+002
24489337500 -3.437461e+000 1.582003e+002 -4.249637e+001 -4.446254e+001 -4.327377e+001 -4.498665e+001 -2.598058e+000 1.562046e+002
24508081250 -3.419124e+000 1.577166e+002 -4.254990e+001 -4.473780e+001 -4.334866e+001 -4.613583e+001 -2.586647e+000 1.558430e+002
24526825000 -3.408963e+000 1.572811e+002 -4.262852e+001 -4.540754e+001 -4.319612e+001 -4.678064e+001 -2.577686e+000 1.555038e+002
24545568750 -3.397933e+000 1.567866e+002 -4.255254e+001 -4.615273e+001 -4.323586e+001 -4.670157e+001 -2.569869e+000 1.550965e+002
24564312500 -3.379904e+000 1.563008e+002 -4.272597e+001 -4.717982e+001 -4.330491e+001 -4.734105e+001 -2.551571e+000 1.547093e+002
24583056250 -3.370886e+000 1.558529e+002 -4.248575e+001 -4.779754e+001 -4.344831e+001 -4.785516e+001 -2.540702e+000 1.543795e+002
24601800000 -3.362694e+000 1.553158e+002 -4.259481e+001 -4.829028e+001 -4.321813e+001 -4.854396e+001 -2.530124e+000 1.539762e+002
24620543750 -3.341126e+000 1.548463e+002 -4.277706e+001 -4.851472e+001 -4.344446e+001 -4.859237e+001 -2.514272e+000 1.536119e+002
24639287500 -3.332593e+000 1.544027e+002 -4.288895e+001 -4.941438e+001 -4.349355e+001 -4.945373e+001 -2.505974e+000 1.532581e+002
24658031250 -3.325842e+000 1.538787e+002 -4.290211e+001 -4.862064e+001 -4.344211e+001 -5.075760e+001 -2.497496e+000 1.528448e+002
24676775000 -3.311249e+000 1.534111e+002 -4.292126e+001 -4.945158e+001 -4.350333e+001 -5.054140e+001 -2.480312e+000 1.524995e+002
24695518750 -3.306960e+000 1.529596e+002 -4.291995e+001 -5.021327e+001 -4.321788e+001 -5.021883e+001 -2.471007e+000 1.521885e+002
24714262500 -3.298444e+000 1.524535e+002 -4.293257e+001 -5.108570e+001 -4.318816e+001 -5.081819e+001 -2.460393e+000 1.517991e+002
24733006250 -3.283690e+000 1.520020e+002 -4.283355e+001 -5.263065e+001 -4.321336e+001 -5.125209e+001 -2.441271e+000 1.514478e+002
24751750000 -3.276017e+000 1.515383e+002 -4.288105e+001 -5.317133e+001 -4.322150e+001 -5.150383e+001 -2.431673e+000 1.511343e+002
24770493750 -3.264607e+000 1.510030e+002 -4.290590e+001 -5.429741e+001 -4.319268e+001 -5.259555e+001 -2.420263e+000 1.507494e+002
24789237500 -3.246357e+000 1.505788e+002 -4.298975e+001 -5.570836e+001 -4.300380e+001 -5.252178e+001 -2.403125e+000 1.504329e+002
24807981250 -3.241963e+000 1.501152e+002 -4.307150e+001 -5.601574e+001 -4.298381e+001 -5.309446e+001 -2.397779e+000 1.501300e+002
24826725000 -3.231309e+000 1.496356e+002 -4.291447e+001 -5.680634e+001 -4.298008e+001 -5.261020e+001 -2.389504e+000 1.497753e+002
24845468750 -3.217097e+000 1.492115e+002 -4.299870e+001 -5.711806e+001 -4.309628e+001 -5.457911e+001 -2.378178e+000 1.494775e+002
24864212500 -3.215282e+000 1.487550e+002 -4.302469e+001 -5.755467e+001 -4.308305e+001 -5.573064e+001 -2.370998e+000 1.491319e+002
24882956250 -3.201263e+000 1.482584e+002 -4.292007e+001 -5.744054e+001 -4.330819e+001 -5.712326e+001 -2.354886e+000 1.487814e+002
24901700000 -3.186973e+000 1.478265e+002 -4.313890e+001 -5.733554e+001 -4.324556e+001 -5.742926e+001 -2.335984e+000 1.484781e+002
24920443750 -3.183085e+000 1.473788e+002 -4.310170e+001 -5.860733e+001 -4.333710e+001 -5.848703e+001 -2.324921e+000 1.481754e+002
24939187500 -3.167881e+000 1.469072e+002 -4.314247e+001 -6.032127e+001 -4.346698e+001 -5.834605e+001 -2.302967e+000 1.478066e+002
24957931250 -3.156186e+000 1.464643e+002 -4.316216e+001 -6.071541e+001 -4.346340e+001 -5.934188e+001 -2.285384e+000 1.474864e+002
24976675000 -3.153399e+000 1.460139e+002 -4.352056e+001 -6.237205e+001 -4.346975e+001 -6.142652e+001 -2.276400e+000 1.471609e+002
24995418750 -3.140291e+000 1.455525e+002 -4.355426e+001 -6.360410e+001 -4.368839e+001 -6.324370e+001 -2.258889e+000 1.467922e+002
25014162500 -3.129753e+000 1.451474e+002 -4.356530e+001 -6.432500e+001 -4.379786e+001 -6.385635e+001 -2.241729e+000 1.464599e+002
25032906250 -3.127296e+000 1.446935e+002 -4.359682e+001 -6.564583e+001 -4.399053e+001 -6.515302e+001 -2.229829e+000 1.460928e+002
25051650000 -3.117825e+000 1.442475e+002 -4.366401e+001 -6.824271e+001 -4.401186e+001 -6.545073e+001 -2.207439e+000 1.457009e+002
25070393750 -3.108249e+000 1.438224e+002 -4.387870e+001 -6.943417e+001 -4.390404e+001 -6.659209e+001 -2.190860e+000 1.454000e+002
25089137500 -3.104598e+000 1.433825e+002 -4.398603e+001 -7.140440e+001 -4.403102e+001 -6.605447e+001 -2.178727e+000 1.450527e+002
25107881250 -3.091038e+000 1.428948e+002 -4.397856e+001 -7.396478e+001 -4.393240e+001 -6.762215e+001 -2.156274e+000 1.446845e+002
25126625000 -3.084608e+000 1.425060e+002 -4.397787e+001 -7.431750e+001 -4.405202e+001 -6.926655e+001 -2.142200e+000 1.443535e+002
25145368750 -3.083334e+000 1.420652e+002 -4.427678e+001 -7.598636e+001 -4.430640e+001 -6.996575e+001 -2.135608e+000 1.439886e+002
25164112500 -3.071123e+000 1.416009e+002 -4.450105e+001 -7.544627e+001 -4.440254e+001 -7.007565e+001 -2.119907e+000 1.436039e+002
25182856250 -3.070596e+000 1.412151e+002 -4.461539e+001 -7.686230e+001 -4.455621e+001 -7.134530e+001 -2.112386e+000 1.432538e+002
25201600000 -3.073161e+000 1.407331e+002 -4.480972e+001 -7.729041e+001 -4.494461e+001 -7.084760e+001 -2.104159e+000 1.428599e+002
25220343750 -3.064445e+000 1.402244e+002 -4.489614e+001 -7.719454e+001 -4.497158e+001 -7.122417e+001 -2.088921e+000 1.424903e+002
25239087500 -3.059669e+000 1.398291e+002 -4.498222e+001 -7.944838e+001 -4.511715e+001 -7.240174e+001 -2.076510e+000 1.421723e+002
25257831250 -3.059614e+000 1.393421e+002 -4.518986e+001 -8.067263e+001 -4.523034e+001 -7.236943e+001 -2.072847e+000 1.417805e+002
25276575000 -3.048289e+000 1.389102e+002 -4.516010e+001 -8.274088e+001 -4.546659e+001 -6.991556e+001 -2.057975e+000 1.414232e+002
25295318750 -3.045320e+000 1.385202e+002 -4.534439e+001 -8.327549e+001 -4.587970e+001 -6.857732e+001 -2.054938e+000 1.411097e+002
25314062500 -3.050533e+000 1.380451e+002 -4.581622e+001 -8.468797e+001 -4.622262e+001 -6.813054e+001 -2.051132e+000 1.407092e+002
25332806250 -3.037361e+000 1.375752e+002 -4.594599e+001 -8.612534e+001 -4.776113e+001 -7.321387e+001 -2.037088e+000 1.403578e+002
25351550000 -3.033596e+000 1.371730e+002 -4.630484e+001 -8.654235e+001 -4.792880e+001 -7.434750e+001 -2.036014e+000 1.400575e+002
25370293750 -3.031668e+000 1.366645e+002 -4.653925e+001 -8.684642e+001 -4.805387e+001 -7.313275e+001 -2.035502e+000 1.397171e+002
25389037500 -3.023973e+000 1.362190e+002 -4.699779e+001 -8.440086e+001 -4.854697e+001 -7.157777e+001 -2.035241e+000 1.393813e+002
25407781250 -3.018878e+000 1.358294e+002 -4.692817e+001 -8.124699e+001 -4.863797e+001 -6.920268e+001 -2.026537e+000 1.390897e+002
25426525000 -3.028879e+000 1.353497e+002 -4.705408e+001 -7.952686e+001 -4.865762e+001 -6.827100e+001 -2.035106e+000 1.387688e+002
25445268750 -3.018106e+000 1.348537e+002 -4.712626e+001 -7.789642e+001 -4.842726e+001 -6.777733e+001 -2.025982e+000 1.384352e+002
25464012500 -3.014459e+000 1.344778e+002 -4.721571e+001 -7.621242e+001 -4.853918e+001 -6.558860e+001 -2.024690e+000 1.382041e+002
25482756250 -3.012308e+000 1.340202e+002 -4.719553e+001 -7.301132e+001 -4.856414e+001 -6.540728e+001 -2.034773e+000 1.379637e+002
25501500000 -3.010080e+000 1.336008e+002 -4.713087e+001 -7.142535e+001 -4.869254e+001 -6.437981e+001 -2.032627e+000 1.375882e+002
25520243750 -3.003683e+000 1.331868e+002 -4.696457e+001 -6.963710e+001 -4.868654e+001 -6.353219e+001 -2.021710e+000 1.373617e+002
25538987500 -3.005583e+000 1.327621e+002 -4.711754e+001 -6.777624e+001 -4.880447e+001 -6.271761e+001 -2.035773e+000 1.371018e+002
25557731250 -3.002479e+000 1.323144e+002 -4.735014e+001 -6.714110e+001 -4.877511e+001 -6.050471e+001 -2.029837e+000 1.367757e+002
25576475000 -2.992818e+000 1.319047e+002 -4.713353e+001 -6.460941e+001 -4.857103e+001 -5.999267e+001 -2.020186e+000 1.365943e+002
25595218750 -2.991714e+000 1.314908e+002 -4.699924e+001 -6.556899e+001 -4.846891e+001 -5.998465e+001 -2.032994e+000 1.363568e+002
25613962500 -2.985771e+000 1.310765e+002 -4.699530e+001 -6.326299e+001 -4.840011e+001 -5.936678e+001 -2.026454e+000 1.360363e+002
25632706250 -2.980984e+000 1.307054e+002 -4.704686e+001 -6.194314e+001 -4.816053e+001 -5.963773e+001 -2.020095e+000 1.358225e+002
25651450000 -2.984354e+000 1.303078e+002 -4.689680e+001 -6.118203e+001 -4.819495e+001 -5.950221e+001 -2.028691e+000 1.355618e+002
25670193750 -2.979514e+000 1.298845e+002 -4.677425e+001 -5.962230e+001 -4.818103e+001 -5.787052e+001 -2.021651e+000 1.352353e+002
25688937500 -2.972050e+000 1.295138e+002 -4.655140e+001 -5.816514e+001 -4.809327e+001 -5.692321e+001 -2.012940e+000 1.350956e+002
25707681250 -2.974321e+000 1.291099e+002 -4.685417e+001 -5.624640e+001 -4.788108e+001 -5.999120e+001 -2.023314e+000 1.348032e+002
25726425000 -2.972198e+000 1.287258e+002 -4.670133e+001 -5.627563e+001 -4.751687e+001 -6.127708e+001 -2.018426e+000 1.344950e+002
25745168750 -2.969838e+000 1.283457e+002 -4.635426e+001 -5.622295e+001 -4.702407e+001 -6.148361e+001 -2.015815e+000 1.342898e+002
25763912500 -2.975111e+000 1.279342e+002 -4.615489e+001 -5.602776e+001 -4.544910e+001 -5.618984e+001 -2.026658e+000 1.340066e+002
25782656250 -2.972769e+000 1.274922e+002 -4.570005e+001 -5.632823e+001 -4.520922e+001 -5.544702e+001 -2.013155e+000 1.337143e+002
25801400000 -2.974208e+000 1.271324e+002 -4.548093e+001 -5.681914e+001 -4.484598e+001 -5.752620e+001 -2.013365e+000 1.335264e+002
25820143750 -2.970691e+000 1.267740e+002 -4.499701e+001 -5.857747e+001 -4.443287e+001 -5.939733e+001 -2.014721e+000 1.332519e+002
25838887500 -2.973709e+000 1.263575e+002 -4.475385e+001 -5.913583e+001 -4.422801e+001 -6.070282e+001 -2.013635e+000 1.329353e+002
25857631250 -2.966630e+000 1.259648e+002 -4.442430e+001 -6.132707e+001 -4.395332e+001 -6.099776e+001 -2.004391e+000 1.326786e+002
25876375000 -2.969912e+000 1.255835e+002 -4.426468e+001 -6.266608e+001 -4.413721e+001 -6.377396e+001 -2.010512e+000 1.324344e+002
25895118750 -2.971610e+000 1.251458e+002 -4.443984e+001 -6.297860e+001 -4.402778e+001 -6.645598e+001 -2.001888e+000 1.321479e+002
25913862500 -2.968786e+000 1.247126e+002 -4.434424e+001 -6.502960e+001 -4.382205e+001 -6.767036e+001 -1.993049e+000 1.319313e+002
25932606250 -2.963663e+000 1.243184e+002 -4.418507e+001 -6.620000e+001 -4.376392e+001 -6.835954e+001 -1.997609e+000 1.317258e+002
25951350000 -2.971738e+000 1.239406e+002 -4.438144e+001 -6.720844e+001 -4.371203e+001 -7.043781e+001 -2.004163e+000 1.313913e+002
25970093750 -2.969532e+000 1.235119e+002 -4.417944e+001 -6.812971e+001 -4.357874e+001 -7.083278e+001 -1.995781e+000 1.311250e+002
25988837500 -2.966960e+000 1.231092e+002 -4.426052e+001 -6.950463e+001 -4.364012e+001 -7.309358e+001 -1.998210e+000 1.308834e+002
26007581250 -2.969410e+000 1.226688e+002 -4.410884e+001 -7.268542e+001 -4.364542e+001 -7.373285e+001 -1.998193e+000 1.305430e+002
26026325000 -2.967971e+000 1.222649e+002 -4.407484e+001 -7.330257e+001 -4.399328e+001 -7.355085e+001 -1.991204e+000 1.303012e+002
26045068750 -2.965215e+000 1.218976e+002 -4.391771e+001 -7.489271e+001 -4.375404e+001 -7.373843e+001 -2.001139e+000 1.300631e+002
26063812500 -2.974466e+000 1.214925e+002 -4.374205e+001 -7.721341e+001 -4.380655e+001 -7.455883e+001 -2.007486e+000 1.297587e+002
26082556250 -2.973556e+000 1.210581e+002 -4.382339e+001 -7.857520e+001 -4.370026e+001 -7.575565e+001 -2.000186e+000 1.295124e+002
26101300000 -2.973270e+000 1.206372e+002 -4.384225e+001 -7.902692e+001 -4.369210e+001 -7.747926e+001 -2.007761e+000 1.292703e+002
26120043750 -2.977381e+000 1.202298e+002 -4.389998e+001 -8.026384e+001 -4.375138e+001 -7.983137e+001 -2.008714e+000 1.289512e+002
26138787500 -2.973064e+000 1.198050e+002 -4.346216e+001 -8.225089e+001 -4.357660e+001 -7.988339e+001 -2.005633e+000 1.287373e+002
26157531250 -2.972330e+000 1.194191e+002 -4.351554e+001 -8.242828e+001 -4.363638e+001 -8.043970e+001 -2.012846e+000 1.284939e+002
26176275000 -2.980347e+000 1.190010e+002 -4.354102e+001 -8.207597e+001 -4.374797e+001 -8.139940e+001 -2.012663e+000 1.281829e+002
26195018750 -2.981647e+000 1.185808e+002 -4.352261e+001 -8.284682e+001 -4.373649e+001 -8.186617e+001 -2.009207e+000 1.279333e+002
26213762500 -2.981377e+000 1.182180e+002 -4.359113e+001 -8.272541e+001 -4.374116e+001 -8.216327e+001 -2.021983e+000 1.276744e+002
26232506250 -2.984909e+000 1.177952e+002 -4.359955e+001 -8.262431e+001 -4.376238e+001 -8.158298e+001 -2.022910e+000 1.273720e+002
26251250000 -2.980583e+000 1.173982e+002 -4.378317e+001 -8.372712e+001 -4.377782e+001 -8.294727e+001 -2.025889e+000 1.271403e+002
26269993750 -2.983006e+000 1.170455e+002 -4.387049e+001 -8.615440e+001 -4.383961e+001 -8.451370e+001 -2.036966e+000 1.268561e+002
26288737500 -2.990040e+000 1.166414e+002 -4.385873e+001 -8.682249e+001 -4.384607e+001 -8.601182e+001 -2.039785e+000 1.265450e+002
26307481250 -2.987068e+000 1.162345e+002 -4.410158e+001 -8.902922e+001 -4.367731e+001 -8.572929e+001 -2.042086e+000 1.262804e+002
26326225000 -2.989321e+000 1.158424e+002 -4.390181e+001 -8.970392e+001 -4.363627e+001 -8.602769e+001 -2.056966e+000 1.259667e+002
26344968750 -2.992333e+000 1.154436e+002 -4.391071e+001 -9.021825e+001 -4.376575e+001 -8.661669e+001 -2.063316e+000 1.256398e+002
26363712500 -2.991704e+000 1.150943e+002 -4.384367e+001 -9.108835e+001 -4.381797e+001 -8.745920e+001 -2.072553e+000 1.253742e+002
26382456250 -2.996013e+000 1.147360e+002 -4.374924e+001 -9.262575e+001 -4.393740e+001 -8.646746e+001 -2.088963e+000 1.250600e+002
26401200000 -3.007334e+000 1.143318e+002 -4.388659e+001 -9.347453e+001 -4.401687e+001 -8.802212e+001 -2.091913e+000 1.246910e+002
26419943750 -3.010514e+000 1.139328e+002 -4.364016e+001 -9.366389e+001 -4.394968e+001 -8.808299e+001 -2.100203e+000 1.244291e+002
26438687500 -3.016483e+000 1.135706e+002 -4.364193e+001 -9.340813e+001 -4.381593e+001 -8.928517e+001 -2.114988e+000 1.241387e+002
26457431250 -3.018994e+000 1.131414e+002 -4.365967e+001 -9.293880e+001 -4.348903e+001 -9.040314e+001 -2.118385e+000 1.238433e+002
26476175000 -3.015329e+000 1.127715e+002 -4.374327e+001 -9.387206e+001 -4.364739e+001 -9.105705e+001 -2.130514e+000 1.235680e+002
26494918750 -3.019834e+000 1.124223e+002 -4.393391e+001 -9.333098e+001 -4.356648e+001 -9.125115e+001 -2.146775e+000 1.232056e+002
26513662500 -3.028831e+000 1.120310e+002 -4.383877e+001 -9.398175e+001 -4.349163e+001 -9.054813e+001 -2.153203e+000 1.228035e+002
26532406250 -3.030948e+000 1.116527e+002 -4.384575e+001 -9.418213e+001 -4.343900e+001 -9.040994e+001 -2.157804e+000 1.225173e+002
26551150000 -3.040099e+000 1.112412e+002 -4.380301e+001 -9.424374e+001 -4.333058e+001 -9.056104e+001 -2.164277e+000 1.221748e+002
26569893750 -3.038366e+000 1.108299e+002 -4.383893e+001 -9.427589e+001 -4.350523e+001 -9.058022e+001 -2.171028e+000 1.218826e+002
26588637500 -3.039117e+000 1.105055e+002 -4.379273e+001 -9.448959e+001 -4.333570e+001 -9.070938e+001 -2.186927e+000 1.216258e+002
26607381250 -3.047447e+000 1.101563e+002 -4.377566e+001 -9.589088e+001 -4.334153e+001 -9.142818e+001 -2.208354e+000 1.212468e+002
26626125000 -3.054022e+000 1.097600e+002 -4.371942e+001 -9.680371e+001 -4.329967e+001 -9.183231e+001 -2.216765e+000 1.208781e+002
26644868750 -3.058244e+000 1.093561e+002 -4.387745e+001 -9.751316e+001 -4.329656e+001 -9.220874e+001 -2.226434e+000 1.205473e+002
26663612500 -3.064178e+000 1.089646e+002 -4.382956e+001 -9.762476e+001 -4.342496e+001 -9.283354e+001 -2.235890e+000 1.201568e+002
26682356250 -3.068700e+000 1.085596e+002 -4.377805e+001 -9.883357e+001 -4.329522e+001 -9.270881e+001 -2.240925e+000 1.198784e+002
26701100000 -3.070282e+000 1.082336e+002 -4.371201e+001 -9.949850e+001 -4.333304e+001 -9.230310e+001 -2.262985e+000 1.195871e+002
26719843750 -3.080411e+000 1.078682e+002 -4.373609e+001 -9.783625e+001 -4.345922e+001 -9.309750e+001 -2.279556e+000 1.191970e+002
26738587500 -3.091488e+000 1.074843e+002 -4.361970e+001 -9.696540e+001 -4.354920e+001 -9.301511e+001 -2.284301e+000 1.188588e+002
26757331250 -3.097489e+000 1.071051e+002 -4.346431e+001 -9.870480e+001 -4.341876e+001 -9.349643e+001 -2.296231e+000 1.185331e+002
26776075000 -3.104690e+000 1.067165e+002 -4.347228e+001 -9.946895e+001 -4.329050e+001 -9.393588e+001 -2.306401e+000 1.181833e+002
26794818750 -3.104414e+000 1.063078e+002 -4.344291e+001 -9.892477e+001 -4.329817e+001 -9.427238e+001 -2.307434e+000 1.178800e+002
26813562500 -3.107531e+000 1.059733e+002 -4.327936e+001 -9.794396e+001 -4.315657e+001 -9.570892e+001 -2.325025e+000 1.175802e+002
26832306250 -3.116368e+000 1.056238e+002 -4.334010e+001 -9.856551e+001 -4.311107e+001 -9.613411e+001 -2.334970e+000 1.172054e+002
26851050000 -3.121309e+000 1.052739e+002 -4.335217e+001 -9.937061e+001 -4.312411e+001 -9.675383e+001 -2.339106e+000 1.168527e+002
26869793750 -3.132674e+000 1.049034e+002 -4.350076e+001 -9.855975e+001 -4.331636e+001 -9.735435e+001 -2.352223e+000 1.165104e+002
26888537500 -3.140519e+000 1.045074e+002 -4.362471e+001 -1.008733e+002 -4.326429e+001 -9.719416e+001 -2.363212e+000 1.161237e+002
26907281250 -3.144001e+000 1.041257e+002 -4.351341e+001 -1.001830e+002 -4.320024e+001 -9.799883e+001 -2.366921e+000 1.158368e+002
26926025000 -3.151610e+000 1.038239e+002 -4.337293e+001 -1.022480e+002 -4.345302e+001 -9.662720e+001 -2.381790e+000 1.155247e+002
26944768750 -3.161990e+000 1.034739e+002 -4.339085e+001 -1.016973e+002 -4.346140e+001 -9.840695e+001 -2.390975e+000 1.151433e+002
26963512500 -3.170484e+000 1.030946e+002 -4.336103e+001 -1.024043e+002 -4.349361e+001 -1.002033e+002 -2.398120e+000 1.147991e+002
26982256250 -3.179575e+000 1.027488e+002 -4.350438e+001 -1.027724e+002 -4.341095e+001 -1.003714e+002 -2.414866e+000 1.144304e+002
27001000000 -3.193533e+000 1.023842e+002 -4.376057e+001 -1.033053e+002 -4.346994e+001 -1.009615e+002 -2.420094e+000 1.140600e+002
27019743750 -3.195843e+000 1.020306e+002 -4.395827e+001 -1.047245e+002 -4.369812e+001 -1.019725e+002 -2.429499e+000 1.137279e+002
27038487500 -3.202336e+000 1.017248e+002 -4.389890e+001 -1.042866e+002 -4.349787e+001 -1.007310e+002 -2.442733e+000 1.133938e+002
27057231250 -3.215742e+000 1.013619e+002 -4.401248e+001 -1.038273e+002 -4.347820e+001 -1.012018e+002 -2.445515e+000 1.129863e+002
27075975000 -3.226355e+000 1.010315e+002 -4.404488e+001 -1.040734e+002 -4.351104e+001 -1.000296e+002 -2.454025e+000 1.126611e+002
27094718750 -3.235479e+000 1.006905e+002 -4.411994e+001 -1.041890e+002 -4.349893e+001 -1.005129e+002 -2.462665e+000 1.123104e+002
27113462500 -3.241053e+000 1.003280e+002 -4.391133e+001 -1.043199e+002 -4.352263e+001 -1.003059e+002 -2.465343e+000 1.119467e+002
27132206250 -3.245783e+000 9.997314e+001 -4.399525e+001 -1.043907e+002 -4.354292e+001 -1.013839e+002 -2.474607e+000 1.116287e+002
27150950000 -3.255012e+000 9.965438e+001 -4.410252e+001 -1.060879e+002 -4.345622e+001 -9.963082e+001 -2.491211e+000 1.112413e+002
27169693750 -3.266405e+000 9.931066e+001 -4.417351e+001 -1.069477e+002 -4.313773e+001 -9.932751e+001 -2.494190e+000 1.108492e+002
27188437500 -3.275583e+000 9.896506e+001 -4.411294e+001 -1.061041e+002 -4.316923e+001 -9.975270e+001 -2.499290e+000 1.105372e+002
27207181250 -3.290959e+000 9.858852e+001 -4.404471e+001 -1.059724e+002 -4.329132e+001 -9.923470e+001 -2.504393e+000 1.101339e+002
27225925000 -3.299649e+000 9.822370e+001 -4.408311e+001 -1.069141e+002 -4.316999e+001 -9.970263e+001 -2.507518e+000 1.097841e+002
27244668750 -3.308791e+000 9.789311e+001 -4.414153e+001 -1.084807e+002 -4.319035e+001 -1.005395e+002 -2.517548e+000 1.094505e+002
27263412500 -3.321978e+000 9.755894e+001 -4.394930e+001 -1.081632e+002 -4.316566e+001 -1.007449e+002 -2.535898e+000 1.090657e+002
27282156250 -3.331685e+000 9.717877e+001 -4.386088e+001 -1.089425e+002 -4.293297e+001 -9.990843e+001 -2.535978e+000 1.086743e+002
27300900000 -3.342820e+000 9.682636e+001 -4.369900e+001 -1.101463e+002 -4.284412e+001 -9.930872e+001 -2.543033e+000 1.083277e+002
27319643750 -3.354597e+000 9.646229e+001 -4.357568e+001 -1.106617e+002 -4.295341e+001 -1.002023e+002 -2.544644e+000 1.079482e+002
27338387500 -3.364058e+000 9.608469e+001 -4.359891e+001 -1.114991e+002 -4.300667e+001 -1.010643e+002 -2.542245e+000 1.076151e+002
27357131250 -3.372871e+000 9.572961e+001 -4.361856e+001 -1.110212e+002 -4.267786e+001 -1.028639e+002 -2.549749e+000 1.073014e+002
27375875000 -3.386082e+000 9.538244e+001 -4.358439e+001 -1.113409e+002 -4.265575e+001 -1.029891e+002 -2.558569e+000 1.069242e+002
27394618750 -3.398033e+000 9.503442e+001 -4.344224e+001 -1.117991e+002 -4.252215e+001 -1.028825e+002 -2.554116e+000 1.065636e+002
27413362500 -3.411286e+000 9.467198e+001 -4.338166e+001 -1.124007e+002 -4.252082e+001 -1.036333e+002 -2.563111e+000 1.062608e+002
27432106250 -3.427059e+000 9.431007e+001 -4.311926e+001 -1.131112e+002 -4.232406e+001 -1.048204e+002 -2.563487e+000 1.058691e+002
27450850000 -3.440554e+000 9.392053e+001 -4.273739e+001 -1.124761e+002 -4.235413e+001 -1.052888e+002 -2.562561e+000 1.055364e+002
27469593750 -3.450599e+000 9.357421e+001 -4.287004e+001 -1.151501e+002 -4.229848e+001 -1.075975e+002 -2.578776e+000 1.051780e+002
27488337500 -3.463385e+000 9.322469e+001 -4.278727e+001 -1.158220e+002 -4.249539e+001 -1.093172e+002 -2.591067e+000 1.047550e+002
27507081250 -3.473774e+000 9.287054e+001 -4.265160e+001 -1.164308e+002 -4.251213e+001 -1.117293e+002 -2.590371e+000 1.044174e+002
27525825000 -3.489657e+000 9.254233e+001 -4.271281e+001 -1.160265e+002 -4.240412e+001 -1.130403e+002 -2.600305e+000 1.040685e+002
27544568750 -3.508284e+000 9.218033e+001 -4.281987e+001 -1.162367e+002 -4.231986e+001 -1.139694e+002 -2.601186e+000 1.036666e+002
27563312500 -3.520530e+000 9.182578e+001 -4.286595e+001 -1.172232e+002 -4.225126e+001 -1.152819e+002 -2.593050e+000 1.033730e+002
27582056250 -3.533255e+000 9.148552e+001 -4.273093e+001 -1.174374e+002 -4.225727e+001 -1.171181e+002 -2.602441e+000 1.030778e+002
27600800000 -3.549445e+000 9.115021e+001 -4.265291e+001 -1.173906e+002 -4.242616e+001 -1.180768e+002 -2.607255e+000 1.026553e+002
27619543750 -3.560639e+000 9.080297e+001 -4.290453e+001 -1.190117e+002 -4.242278e+001 -1.177063e+002 -2.607044e+000 1.023201e+002
27638287500 -3.571710e+000 9.053361e+001 -4.289539e+001 -1.195244e+002 -4.231627e+001 -1.192818e+002 -2.618198e+000 1.019737e+002
27657031250 -3.592197e+000 9.014844e+001 -4.299015e+001 -1.200889e+002 -4.234367e+001 -1.196688e+002 -2.615294e+000 1.015850e+002
27675775000 -3.607337e+000 8.979970e+001 -4.293280e+001 -1.197382e+002 -4.236164e+001 -1.200303e+002 -2.609654e+000 1.013224e+002
27694518750 -3.619437e+000 8.947878e+001 -4.309366e+001 -1.199264e+002 -4.234597e+001 -1.210582e+002 -2.617495e+000 1.009843e+002
27713262500 -3.639776e+000 8.914373e+001 -4.325954e+001 -1.199467e+002 -4.266231e+001 -1.241659e+002 -2.622488e+000 1.005961e+002
27732006250 -3.655305e+000 8.883151e+001 -4.326557e+001 -1.197487e+002 -4.274005e+001 -1.246718e+002 -2.618270e+000 1.003256e+002
27750750000 -3.675056e+000 8.851865e+001 -4.338019e+001 -1.183621e+002 -4.264870e+001 -1.251917e+002 -2.631367e+000 9.997831e+001
27769493750 -3.701272e+000 8.815031e+001 -4.342396e+001 -1.192645e+002 -4.264315e+001 -1.252002e+002 -2.629292e+000 9.958569e+001
27788237500 -3.714636e+000 8.781701e+001 -4.345019e+001 -1.206341e+002 -4.256908e+001 -1.255256e+002 -2.633856e+000 9.931709e+001
27806981250 -3.736930e+000 8.748434e+001 -4.341475e+001 -1.216778e+002 -4.247077e+001 -1.264055e+002 -2.650273e+000 9.898975e+001
27825725000 -3.752706e+000 8.716454e+001 -4.356332e+001 -1.224594e+002 -4.259417e+001 -1.269383e+002 -2.655040e+000 9.862734e+001
27844468750 -3.768024e+000 8.686426e+001 -4.347216e+001 -1.242394e+002 -4.262654e+001 -1.271909e+002 -2.658072e+000 9.828582e+001
27863212500 -3.785686e+000 8.655085e+001 -4.356847e+001 -1.249225e+002 -4.253430e+001 -1.268787e+002 -2.666637e+000 9.791124e+001
27881956250 -3.805666e+000 8.620435e+001 -4.382246e+001 -1.258249e+002 -4.239603e+001 -1.278699e+002 -2.659284e+000 9.754467e+001
27900700000 -3.826127e+000 8.584789e+001 -4.373578e+001 -1.253488e+002 -4.255520e+001 -1.282003e+002 -2.652027e+000 9.732864e+001
27919443750 -3.848430e+000 8.553978e+001 -4.377700e+001 -1.261144e+002 -4.254261e+001 -1.277937e+002 -2.662099e+000 9.704856e+001
27938187500 -3.873175e+000 8.520444e+001 -4.371241e+001 -1.275791e+002 -4.251712e+001 -1.280957e+002 -2.657654e+000 9.667986e+001
27956931250 -3.893275e+000 8.489940e+001 -4.363052e+001 -1.288902e+002 -4.248542e+001 -1.279131e+002 -2.662973e+000 9.641775e+001
27975675000 -3.915991e+000 8.458975e+001 -4.357927e+001 -1.304697e+002 -4.251914e+001 -1.278726e+002 -2.674245e+000 9.607613e+001
27994418750 -3.939734e+000 8.424260e+001 -4.361858e+001 -1.311162e+002 -4.244163e+001 -1.275552e+002 -2.669659e+000 9.574904e+001
28013162500 -3.960249e+000 8.393336e+001 -4.377449e+001 -1.328860e+002 -4.236622e+001 -1.281512e+002 -2.673442e+000 9.551395e+001
28031906250 -3.983718e+000 8.361524e+001 -4.370888e+001 -1.337177e+002 -4.255131e+001 -1.276543e+002 -2.684019e+000 9.524203e+001
28050650000 -4.007258e+000 8.330797e+001 -4.342487e+001 -1.339933e+002 -4.258547e+001 -1.290199e+002 -2.685166e+000 9.493822e+001
28069393750 -4.035280e+000 8.298571e+001 -4.337822e+001 -1.349924e+002 -4.253353e+001 -1.300854e+002 -2.693974e+000 9.467670e+001
28088137500 -4.062503e+000 8.270877e+001 -4.325610e+001 -1.356670e+002 -4.250275e+001 -1.318965e+002 -2.704951e+000 9.435015e+001
28106881250 -4.084407e+000 8.239565e+001 -4.337741e+001 -1.373432e+002 -4.251334e+001 -1.330510e+002 -2.704477e+000 9.403609e+001
28125625000 -4.106526e+000 8.208772e+001 -4.317672e+001 -1.391239e+002 -4.260238e+001 -1.330694e+002 -2.713709e+000 9.381424e+001
28144368750 -4.131467e+000 8.180873e+001 -4.319229e+001 -1.409887e+002 -4.251215e+001 -1.317987e+002 -2.722043e+000 9.349010e+001
28163112500 -4.153105e+000 8.152934e+001 -4.317126e+001 -1.430982e+002 -4.231744e+001 -1.332112e+002 -2.725918e+000 9.318872e+001
28181856250 -4.178583e+000 8.127903e+001 -4.308893e+001 -1.458081e+002 -4.226850e+001 -1.351060e+002 -2.736408e+000 9.293367e+001
28200600000 -4.202502e+000 8.106400e+001 -4.306295e+001 -1.468807e+002 -4.225191e+001 -1.369894e+002 -2.743360e+000 9.263203e+001
28219343750 -4.229764e+000 8.078493e+001 -4.298982e+001 -1.481967e+002 -4.232598e+001 -1.385845e+002 -2.741491e+000 9.236995e+001
28238087500 -4.250170e+000 8.052674e+001 -4.298960e+001 -1.503661e+002 -4.257964e+001 -1.399758e+002 -2.746314e+000 9.212143e+001
28256831250 -4.277911e+000 8.027895e+001 -4.294519e+001 -1.519867e+002 -4.253556e+001 -1.405022e+002 -2.755304e+000 9.183154e+001
28275575000 -4.303813e+000 8.004772e+001 -4.313971e+001 -1.527075e+002 -4.252347e+001 -1.420238e+002 -2.760400e+000 9.159502e+001
28294318750 -4.329947e+000 7.983455e+001 -4.301109e+001 -1.546130e+002 -4.284118e+001 -1.445839e+002 -2.775522e+000 9.133294e+001
28313062500 -4.359550e+000 7.961050e+001 -4.310696e+001 -1.558940e+002 -4.289512e+001 -1.457601e+002 -2.781204e+000 9.104372e+001
28331806250 -4.386845e+000 7.941688e+001 -4.319790e+001 -1.566229e+002 -4.289122e+001 -1.476021e+002 -2.783824e+000 9.076806e+001
28350550000 -4.409888e+000 7.921311e+001 -4.337145e+001 -1.575259e+002 -4.294647e+001 -1.491164e+002 -2.796809e+000 9.053271e+001
28369293750 -4.436442e+000 7.900810e+001 -4.360447e+001 -1.576347e+002 -4.316696e+001 -1.492029e+002 -2.809205e+000 9.025294e+001
28388037500 -4.455704e+000 7.878477e+001 -4.361634e+001 -1.590875e+002 -4.316539e+001 -1.509996e+002 -2.821208e+000 8.998656e+001
28406781250 -4.482120e+000 7.860700e+001 -4.365236e+001 -1.599811e+002 -4.332424e+001 -1.530943e+002 -2.839031e+000 8.969817e+001
28425525000 -4.502420e+000 7.846001e+001 -4.370316e+001 -1.609957e+002 -4.347306e+001 -1.550211e+002 -2.847204e+000 8.936773e+001
28444268750 -4.526889e+000 7.827306e+001 -4.370595e+001 -1.605249e+002 -4.390267e+001 -1.573083e+002 -2.856029e+000 8.910403e+001
28463012500 -4.551309e+000 7.811576e+001 -4.395905e+001 -1.619784e+002 -4.383524e+001 -1.604503e+002 -2.871593e+000 8.884285e+001
28481756250 -4.575153e+000 7.796288e+001 -4.422612e+001 -1.623278e+002 -4.402085e+001 -1.625354e+002 -2.883123e+000 8.853128e+001
28500500000 -4.593327e+000 7.783877e+001 -4.436696e+001 -1.630161e+002 -4.424711e+001 -1.629078e+002 -2.893203e+000 8.830650e+001
28519243750 -4.611156e+000 7.773262e+001 -4.443677e+001 -1.640193e+002 -4.462034e+001 -1.637578e+002 -2.907554e+000 8.800549e+001
28537987500 -4.633273e+000 7.760553e+001 -4.457568e+001 -1.649850e+002 -4.478846e+001 -1.650281e+002 -2.918866e+000 8.768016e+001
28556731250 -4.656781e+000 7.748816e+001 -4.478403e+001 -1.664867e+002 -4.489419e+001 -1.660281e+002 -2.927105e+000 8.742121e+001
28575475000 -4.674201e+000 7.734665e+001 -4.491275e+001 -1.661579e+002 -4.502351e+001 -1.669728e+002 -2.946482e+000 8.715286e+001
28594218750 -4.692333e+000 7.717567e+001 -4.521397e+001 -1.667491e+002 -4.519397e+001 -1.670869e+002 -2.959758e+000 8.685413e+001
28612962500 -4.707061e+000 7.703072e+001 -4.575531e+001 -1.676396e+002 -4.545457e+001 -1.681450e+002 -2.970903e+000 8.657854e+001
28631706250 -4.718739e+000 7.691064e+001 -4.587117e+001 -1.684861e+002 -4.557960e+001 -1.683868e+002 -2.986371e+000 8.625984e+001
28650450000 -4.734996e+000 7.678843e+001 -4.597282e+001 -1.675101e+002 -4.591806e+001 -1.682018e+002 -2.995918e+000 8.594630e+001
28669193750 -4.748527e+000 7.669012e+001 -4.634749e+001 -1.658277e+002 -4.616568e+001 -1.690821e+002 -3.008146e+000 8.572042e+001
28687937500 -4.761661e+000 7.657265e+001 -4.663478e+001 -1.642384e+002 -4.639682e+001 -1.707728e+002 -3.030316e+000 8.540551e+001
28706681250 -4.776626e+000 7.642588e+001 -4.672531e+001 -1.632682e+002 -4.688087e+001 -1.701797e+002 -3.043534e+000 8.508566e+001
28725425000 -4.786896e+000 7.629852e+001 -4.712618e+001 -1.603446e+002 -4.683971e+001 -1.689280e+002 -3.063078e+000 8.480592e+001
28744168750 -4.796022e+000 7.620026e+001 -4.729711e+001 -1.600326e+002 -4.698132e+001 -1.670550e+002 -3.082024e+000 8.447240e+001
28762912500 -4.805476e+000 7.609611e+001 -4.744786e+001 -1.593104e+002 -4.722411e+001 -1.663022e+002 -3.094585e+000 8.417064e+001
28781656250 -4.817488e+000 7.596821e+001 -4.749202e+001 -1.578455e+002 -4.739846e+001 -1.667238e+002 -3.104708e+000 8.388971e+001
28800400000 -4.824092e+000 7.584421e+001 -4.746131e+001 -1.571932e+002 -4.735384e+001 -1.664274e+002 -3.122489e+000 8.360955e+001
28819143750 -4.835680e+000 7.573178e+001 -4.757775e+001 -1.566190e+002 -4.767500e+001 -1.645721e+002 -3.135497e+000 8.330670e+001
28837887500 -4.841092e+000 7.559795e+001 -4.771964e+001 -1.557033e+002 -4.781520e+001 -1.640519e+002 -3.149347e+000 8.303652e+001
28856631250 -4.850874e+000 7.545853e+001 -4.784935e+001 -1.543507e+002 -4.800177e+001 -1.607827e+002 -3.171391e+000 8.270622e+001
28875375000 -4.860209e+000 7.536346e+001 -4.795549e+001 -1.543277e+002 -4.791084e+001 -1.596412e+002 -3.186473e+000 8.238921e+001
28894118750 -4.867134e+000 7.522113e+001 -4.796676e+001 -1.532437e+002 -4.804293e+001 -1.561075e+002 -3.210838e+000 8.206995e+001
28912862500 -4.871667e+000 7.510158e+001 -4.805535e+001 -1.525395e+002 -4.807692e+001 -1.550471e+002 -3.231500e+000 8.174929e+001
28931606250 -4.875301e+000 7.494289e+001 -4.820734e+001 -1.514376e+002 -4.809621e+001 -1.549529e+002 -3.246986e+000 8.137693e+001
28950350000 -4.879440e+000 7.480624e+001 -4.828600e+001 -1.508585e+002 -4.797963e+001 -1.531391e+002 -3.270697e+000 8.107454e+001
28969093750 -4.881840e+000 7.470638e+001 -4.820020e+001 -1.501554e+002 -4.791407e+001 -1.515018e+002 -3.283947e+000 8.074401e+001
28987837500 -4.887313e+000 7.460114e+001 -4.814758e+001 -1.486480e+002 -4.803907e+001 -1.507157e+002 -3.298045e+000 8.045592e+001
29006581250 -4.893056e+000 7.449478e+001 -4.816314e+001 -1.468337e+002 -4.789099e+001 -1.494841e+002 -3.323637e+000 8.019012e+001
29025325000 -4.895859e+000 7.439861e+001 -4.810253e+001 -1.450293e+002 -4.794779e+001 -1.483958e+002 -3.351785e+000 7.982493e+001
29044068750 -4.899726e+000 7.426218e+001 -4.769184e+001 -1.429147e+002 -4.782567e+001 -1.458458e+002 -3.374220e+000 7.946679e+001
29062812500 -4.902826e+000 7.412706e+001 -4.758978e+001 -1.425525e+002 -4.774479e+001 -1.450359e+002 -3.401974e+000 7.911956e+001
29081556250 -4.902901e+000 7.402332e+001 -4.771201e+001 -1.425337e+002 -4.749117e+001 -1.449496e+002 -3.420347e+000 7.871527e+001
29100300000 -4.906661e+000 7.390179e+001 -4.743591e+001 -1.429247e+002 -4.728886e+001 -1.441088e+002 -3.439374e+000 7.837664e+001
29119043750 -4.913366e+000 7.379410e+001 -4.730124e+001 -1.443076e+002 -4.731300e+001 -1.421279e+002 -3.464318e+000 7.804440e+001
29137787500 -4.913100e+000 7.366225e+001 -4.714771e+001 -1.446510e+002 -4.701945e+001 -1.415716e+002 -3.484324e+000 7.766548e+001
29156531250 -4.912932e+000 7.351961e+001 -4.685125e+001 -1.467620e+002 -4.694838e+001 -1.418897e+002 -3.503407e+000 7.732016e+001
29175275000 -4.906641e+000 7.337913e+001 -4.665452e+001 -1.465318e+002 -4.668462e+001 -1.436574e+002 -3.531853e+000 7.696745e+001
29194018750 -4.899305e+000 7.326466e+001 -4.662405e+001 -1.473858e+002 -4.637508e+001 -1.435338e+002 -3.552926e+000 7.657819e+001
29212762500 -4.895789e+000 7.316644e+001 -4.647264e+001 -1.486169e+002 -4.599289e+001 -1.429641e+002 -3.574702e+000 7.621709e+001
29231506250 -4.888456e+000 7.305235e+001 -4.643813e+001 -1.483744e+002 -4.585977e+001 -1.433260e+002 -3.604409e+000 7.582614e+001
29250250000 -4.887183e+000 7.292790e+001 -4.630786e+001 -1.486331e+002 -4.565873e+001 -1.452484e+002 -3.627280e+000 7.538077e+001
29268993750 -4.882057e+000 7.277740e+001 -4.612599e+001 -1.484646e+002 -4.542548e+001 -1.444565e+002 -3.648967e+000 7.499844e+001
29287737500 -4.872434e+000 7.264608e+001 -4.591579e+001 -1.490515e+002 -4.519483e+001 -1.461866e+002 -3.672985e+000 7.462189e+001
29306481250 -4.860968e+000 7.254096e+001 -4.576231e+001 -1.493026e+002 -4.491898e+001 -1.450739e+002 -3.686344e+000 7.424887e+001
29325225000 -4.850816e+000 7.244825e+001 -4.555642e+001 -1.495451e+002 -4.465984e+001 -1.472952e+002 -3.701450e+000 7.391734e+001
29343968750 -4.849025e+000 7.231409e+001 -4.534313e+001 -1.514734e+002 -4.453611e+001 -1.473819e+002 -3.729060e+000 7.351310e+001
29362712500 -4.843778e+000 7.216272e+001 -4.524133e+001 -1.524800e+002 -4.455081e+001 -1.474591e+002 -3.749720e+000 7.309666e+001
29381456250 -4.829977e+000 7.198425e+001 -4.518374e+001 -1.525800e+002 -4.441173e+001 -1.486163e+002 -3.771547e+000 7.268143e+001
29400200000 -4.816381e+000 7.180096e+001 -4.513978e+001 -1.522155e+002 -4.415840e+001 -1.495186e+002 -3.801299e+000 7.226720e+001
29418943750 -4.798862e+000 7.165157e+001 -4.516717e+001 -1.527009e+002 -4.394374e+001 -1.493288e+002 -3.816826e+000 7.183682e+001
29437687500 -4.787510e+000 7.149944e+001 -4.489003e+001 -1.545684e+002 -4.390915e+001 -1.502588e+002 -3.831660e+000 7.145461e+001
29456431250 -4.778397e+000 7.133407e+001 -4.468815e+001 -1.557160e+002 -4.368255e+001 -1.524150e+002 -3.855480e+000 7.104120e+001
29475175000 -4.766703e+000 7.115554e+001 -4.438643e+001 -1.562727e+002 -4.360659e+001 -1.536600e+002 -3.871275e+000 7.065150e+001
29493918750 -4.751020e+000 7.094626e+001 -4.425184e+001 -1.558356e+002 -4.352297e+001 -1.539690e+002 -3.893990e+000 7.025618e+001
29512662500 -4.731379e+000 7.076991e+001 -4.393937e+001 -1.571380e+002 -4.345269e+001 -1.539993e+002 -3.921524e+000 6.982071e+001
29531406250 -4.715783e+000 7.063617e+001 -4.379681e+001 -1.586064e+002 -4.322118e+001 -1.544695e+002 -3.936344e+000 6.940315e+001
29550150000 -4.702527e+000 7.046818e+001 -4.357397e+001 -1.590646e+002 -4.294960e+001 -1.550650e+002 -3.957256e+000 6.902417e+001
29568893750 -4.692445e+000 7.030448e+001 -4.337231e+001 -1.603400e+002 -4.269947e+001 -1.560990e+002 -3.983069e+000 6.860196e+001
29587637500 -4.679936e+000 7.009315e+001 -4.328949e+001 -1.614084e+002 -4.263260e+001 -1.573385e+002 -3.999378e+000 6.817602e+001
29606381250 -4.661674e+000 6.987450e+001 -4.313070e+001 -1.629311e+002 -4.266927e+001 -1.585187e+002 -4.020373e+000 6.777058e+001
29625125000 -4.644301e+000 6.967903e+001 -4.296115e+001 -1.637462e+002 -4.258402e+001 -1.597175e+002 -4.042740e+000 6.733318e+001
29643868750 -4.627342e+000 6.950420e+001 -4.278330e+001 -1.652316e+002 -4.260961e+001 -1.605411e+002 -4.059738e+000 6.691248e+001
29662612500 -4.617778e+000 6.931628e+001 -4.257415e+001 -1.674744e+002 -4.245010e+001 -1.626466e+002 -4.081854e+000 6.650674e+001
29681356250 -4.605155e+000 6.908192e+001 -4.246268e+001 -1.685871e+002 -4.229855e+001 -1.637234e+002 -4.104083e+000 6.607916e+001
29700100000 -4.592245e+000 6.882391e+001 -4.246906e+001 -1.708316e+002 -4.221078e+001 -1.650022e+002 -4.123595e+000 6.561379e+001
29718843750 -4.576900e+000 6.856340e+001 -4.226894e+001 -1.732285e+002 -4.207382e+001 -1.664241e+002 -4.142712e+000 6.518320e+001
29737587500 -4.560011e+000 6.833473e+001 -4.213087e+001 -1.745970e+002 -4.190094e+001 -1.685360e+002 -4.159355e+000 6.469532e+001
29756331250 -4.549976e+000 6.812833e+001 -4.211466e+001 -1.770957e+002 -4.186809e+001 -1.706503e+002 -4.178214e+000 6.429273e+001
29775075000 -4.537825e+000 6.790379e+001 -4.213795e+001 -1.776462e+002 -4.179848e+001 -1.708135e+002 -4.203704e+000 6.391436e+001
29793818750 -4.531048e+000 6.764870e+001 -4.193845e+001 -1.796340e+002 -4.165660e+001 -1.722690e+002 -4.229703e+000 6.350709e+001
29812562500 -4.532138e+000 6.740284e+001 -4.181161e+001 1.781454e+002 -4.165892e+001 -1.736907e+002 -4.248491e+000 6.313516e+001
29831306250 -4.531840e+000 6.713755e+001 -4.166203e+001 1.758463e+002 -4.181291e+001 -1.749415e+002 -4.270923e+000 6.277002e+001
29850050000 -4.529831e+000 6.686507e+001 -4.144107e+001 1.741482e+002 -4.179394e+001 -1.768988e+002 -4.297278e+000 6.236617e+001
29868793750 -4.523403e+000 6.663493e+001 -4.133918e+001 1.727095e+002 -4.182751e+001 -1.786452e+002 -4.315020e+000 6.199585e+001
29887537500 -4.519116e+000 6.643119e+001 -4.124909e+001 1.706417e+002 -4.197228e+001 -1.793502e+002 -4.329998e+000 6.168700e+001
29906281250 -4.517733e+000 6.625715e+001 -4.127934e+001 1.685641e+002 -4.204577e+001 1.791576e+002 -4.348788e+000 6.135322e+001
29925025000 -4.522100e+000 6.607879e+001 -4.124401e+001 1.663667e+002 -4.211617e+001 1.778561e+002 -4.361835e+000 6.108346e+001
29943768750 -4.527754e+000 6.586095e+001 -4.120792e+001 1.653284e+002 -4.222786e+001 1.760278e+002 -4.378150e+000 6.084057e+001
29962512500 -4.525450e+000 6.562714e+001 -4.116803e+001 1.640000e+002 -4.237848e+001 1.754741e+002 -4.397262e+000 6.054623e+001
29981256250 -4.520196e+000 6.543716e+001 -4.113550e+001 1.625413e+002 -4.245068e+001 1.739685e+002 -4.407837e+000 6.029433e+001
30000000000 -4.516503e+000 6.528491e+001 -4.113438e+001 1.614774e+002 -4.258802e+001 1.724910e+002 -4.419751e+000 6.009804e+001
