!Agilent Technologies,E8364B,MY43040894,A.07.50.67
!Agilent E8364B: A.07.50.67
!Date: Wednesday, May 13, 2020 06:22:50
!Correction: S11(Full 2 Port(1,2)) 
!S21(Full 2 Port(1,2)) 
!S12(Full 2 Port(1,2)) 
!S22(Full 2 Port(1,2)) 
!S2P File: Measurements: S11, S21, S12, S22:
# Hz S  dB   R 50
10000000 -5.419544e-002 -1.968442e+000 -6.550262e+001 1.640679e+002 -5.614356e+001 -9.193359e+001 -1.222322e-001 -4.560814e+000
28743750 -5.732276e-002 -2.248068e+000 -6.476556e+001 1.718728e+002 -5.666539e+001 -8.365391e+001 -1.328232e-001 -5.312379e+000
47487500 -5.956446e-002 -2.555262e+000 -6.400073e+001 -1.796292e+002 -5.662348e+001 -7.736440e+001 -1.437038e-001 -6.131908e+000
66231250 -6.078357e-002 -2.884717e+000 -6.329619e+001 -1.718864e+002 -5.650624e+001 -7.031738e+001 -1.554462e-001 -6.993368e+000
84975000 -6.192007e-002 -3.244010e+000 -6.246015e+001 -1.589435e+002 -5.662759e+001 -6.526455e+001 -1.692356e-001 -7.920761e+000
103718750 -6.444340e-002 -3.624290e+000 -6.164503e+001 -1.449291e+002 -5.676214e+001 -5.833071e+001 -1.806134e-001 -8.899884e+000
122462500 -6.873951e-002 -4.018662e+000 -6.075421e+001 -1.352232e+002 -5.745780e+001 -5.214467e+001 -1.911573e-001 -9.923285e+000
141206250 -7.314932e-002 -4.450552e+000 -6.021254e+001 -1.220936e+002 -5.828644e+001 -4.901941e+001 -2.051666e-001 -1.100097e+001
159950000 -7.649446e-002 -4.894853e+000 -5.979239e+001 -1.013864e+002 -5.875822e+001 -4.095845e+001 -2.193099e-001 -1.214434e+001
178693750 -7.967420e-002 -5.369673e+000 -5.911347e+001 -7.683366e+001 -5.925620e+001 -2.988211e+001 -2.338880e-001 -1.333674e+001
197437500 -8.179912e-002 -5.865084e+000 -5.825316e+001 -5.308321e+001 -5.980268e+001 -2.348196e+001 -2.496717e-001 -1.458678e+001
216181250 -8.676756e-002 -6.386060e+000 -5.757652e+001 -2.949767e+001 -6.037632e+001 -1.970210e+001 -2.639614e-001 -1.588171e+001
234925000 -8.995444e-002 -6.931705e+000 -5.660878e+001 -4.877566e+000 -6.048271e+001 -1.172000e+001 -2.783322e-001 -1.723800e+001
253668750 -9.270980e-002 -7.473602e+000 -5.678750e+001 1.544520e+001 -6.079237e+001 -9.329821e+000 -2.906078e-001 -1.854268e+001
272412500 -9.721916e-002 -8.009745e+000 -5.753439e+001 4.508903e+001 -6.133387e+001 -1.827654e+001 -3.026791e-001 -1.982612e+001
291156250 -9.875143e-002 -8.550392e+000 -5.810905e+001 7.227419e+001 -6.133180e+001 -2.091400e+001 -3.161299e-001 -2.109802e+001
309900000 -1.022633e-001 -9.088644e+000 -5.825892e+001 9.094822e+001 -6.093606e+001 -2.192636e+001 -3.283499e-001 -2.238722e+001
328643750 -1.037009e-001 -9.618529e+000 -5.910603e+001 1.166233e+002 -6.106366e+001 -2.514830e+001 -3.382018e-001 -2.365629e+001
347387500 -1.043011e-001 -1.015386e+001 -5.955330e+001 1.459437e+002 -6.138611e+001 -2.577902e+001 -3.492736e-001 -2.494314e+001
366131250 -1.046218e-001 -1.069333e+001 -5.995014e+001 1.764193e+002 -6.135939e+001 -2.366420e+001 -3.597661e-001 -2.621687e+001
384875000 -1.089479e-001 -1.122087e+001 -6.001946e+001 -1.591198e+002 -6.185928e+001 -2.277236e+001 -3.742149e-001 -2.747141e+001
403618750 -1.120083e-001 -1.177038e+001 -6.005740e+001 -1.386350e+002 -6.247355e+001 -2.483922e+001 -3.886613e-001 -2.873228e+001
422362500 -1.126860e-001 -1.229221e+001 -6.007719e+001 -1.238933e+002 -6.270671e+001 -2.517804e+001 -4.000866e-001 -2.998472e+001
441106250 -1.164179e-001 -1.281472e+001 -5.988418e+001 -1.150820e+002 -6.332564e+001 -2.196593e+001 -4.137877e-001 -3.123190e+001
459850000 -1.175123e-001 -1.335270e+001 -6.006583e+001 -9.904839e+001 -6.313567e+001 -2.256626e+001 -4.272315e-001 -3.247956e+001
478593750 -1.195820e-001 -1.388800e+001 -6.004328e+001 -8.388773e+001 -6.346905e+001 -2.211625e+001 -4.402886e-001 -3.369707e+001
497337500 -1.223132e-001 -1.441778e+001 -6.023952e+001 -7.003089e+001 -6.414855e+001 -2.647398e+001 -4.540614e-001 -3.492810e+001
516081250 -1.265380e-001 -1.493912e+001 -6.033324e+001 -5.973679e+001 -6.445160e+001 -2.218191e+001 -4.692304e-001 -3.615954e+001
534825000 -1.289898e-001 -1.547042e+001 -6.044249e+001 -5.127619e+001 -6.531264e+001 -2.669035e+001 -4.871351e-001 -3.738730e+001
553568750 -1.294802e-001 -1.600950e+001 -6.083804e+001 -3.812951e+001 -6.553757e+001 -2.723304e+001 -5.037006e-001 -3.862022e+001
572312500 -1.287934e-001 -1.653170e+001 -6.141905e+001 -2.635258e+001 -6.552787e+001 -2.538181e+001 -5.183976e-001 -3.984755e+001
591056250 -1.301595e-001 -1.707199e+001 -6.145361e+001 -2.682315e+001 -6.552480e+001 -2.335376e+001 -5.348755e-001 -4.105838e+001
609800000 -1.328214e-001 -1.760308e+001 -6.183846e+001 -3.602240e+001 -6.521272e+001 -2.621297e+001 -5.529258e-001 -4.228941e+001
628543750 -1.362817e-001 -1.813143e+001 -6.221845e+001 -5.073418e+001 -6.535638e+001 -2.830353e+001 -5.705703e-001 -4.350644e+001
647287500 -1.356679e-001 -1.866639e+001 -6.222596e+001 -6.769834e+001 -6.534457e+001 -2.811301e+001 -5.900416e-001 -4.473443e+001
666031250 -1.363360e-001 -1.919625e+001 -6.260899e+001 -8.467512e+001 -6.558657e+001 -2.859220e+001 -6.101922e-001 -4.595584e+001
684775000 -1.394354e-001 -1.971826e+001 -6.278927e+001 -1.012648e+002 -6.551716e+001 -3.132634e+001 -6.307494e-001 -4.716054e+001
703518750 -1.404546e-001 -2.025527e+001 -6.261765e+001 -1.232642e+002 -6.600186e+001 -2.880987e+001 -6.501189e-001 -4.839164e+001
722262500 -1.428603e-001 -2.077427e+001 -6.258319e+001 -1.396565e+002 -6.627966e+001 -2.827018e+001 -6.689584e-001 -4.959465e+001
741006250 -1.435346e-001 -2.130922e+001 -6.274924e+001 -1.552296e+002 -6.658624e+001 -2.820186e+001 -6.875418e-001 -5.080785e+001
759750000 -1.444695e-001 -2.185156e+001 -6.258974e+001 -1.744144e+002 -6.653287e+001 -2.495318e+001 -7.101083e-001 -5.202013e+001
778493750 -1.455760e-001 -2.238678e+001 -6.249047e+001 1.725211e+002 -6.615630e+001 -2.358717e+001 -7.318703e-001 -5.322385e+001
797237500 -1.468394e-001 -2.290994e+001 -6.247311e+001 1.593976e+002 -6.641428e+001 -2.515395e+001 -7.539171e-001 -5.442538e+001
815981250 -1.481958e-001 -2.344705e+001 -6.255518e+001 1.435376e+002 -6.631422e+001 -2.820218e+001 -7.752572e-001 -5.563321e+001
834725000 -1.482998e-001 -2.398029e+001 -6.290929e+001 1.257997e+002 -6.641211e+001 -2.812905e+001 -7.943379e-001 -5.682425e+001
853468750 -1.514727e-001 -2.451799e+001 -6.323008e+001 1.115460e+002 -6.617537e+001 -2.806903e+001 -8.179703e-001 -5.801694e+001
872212500 -1.523143e-001 -2.506118e+001 -6.356401e+001 9.781825e+001 -6.622231e+001 -2.806595e+001 -8.428949e-001 -5.921246e+001
890956250 -1.537237e-001 -2.559236e+001 -6.356093e+001 8.210389e+001 -6.603684e+001 -3.008629e+001 -8.641986e-001 -6.040246e+001
909700000 -1.554442e-001 -2.612250e+001 -6.369725e+001 6.569647e+001 -6.594862e+001 -3.154517e+001 -8.873538e-001 -6.160167e+001
928443750 -1.581971e-001 -2.666182e+001 -6.386285e+001 5.327068e+001 -6.557755e+001 -2.769010e+001 -9.086955e-001 -6.278659e+001
947187500 -1.601111e-001 -2.719670e+001 -6.427428e+001 3.999931e+001 -6.549210e+001 -3.390598e+001 -9.283687e-001 -6.395727e+001
965931250 -1.619173e-001 -2.773426e+001 -6.454503e+001 2.565038e+001 -6.545083e+001 -3.856160e+001 -9.478642e-001 -6.513313e+001
984675000 -1.636737e-001 -2.827279e+001 -6.455197e+001 1.134751e+001 -6.479388e+001 -4.090532e+001 -9.715965e-001 -6.631409e+001
1003418750 -1.666399e-001 -2.879949e+001 -6.388242e+001 -5.588317e+000 -6.479768e+001 -4.932068e+001 -9.931550e-001 -6.748510e+001
1022162500 -1.669061e-001 -2.931701e+001 -6.400226e+001 -1.919798e+001 -6.462404e+001 -6.745982e+001 -1.013198e+000 -6.866586e+001
1040906250 -1.673189e-001 -2.983659e+001 -6.363597e+001 -2.675930e+001 -6.491300e+001 -8.255361e+001 -1.033010e+000 -6.982563e+001
1059650000 -1.674567e-001 -3.036747e+001 -6.340712e+001 -2.793591e+001 -6.504188e+001 -8.703009e+001 -1.052320e+000 -7.097842e+001
1078393750 -1.703022e-001 -3.088536e+001 -6.340055e+001 -2.628195e+001 -6.490682e+001 -8.510393e+001 -1.073261e+000 -7.212757e+001
1097137500 -1.735934e-001 -3.141405e+001 -6.349656e+001 -2.423345e+001 -6.512760e+001 -8.280876e+001 -1.092798e+000 -7.326949e+001
1115881250 -1.742985e-001 -3.194489e+001 -6.347336e+001 -2.237716e+001 -6.542906e+001 -8.001743e+001 -1.114177e+000 -7.442416e+001
1134625000 -1.761403e-001 -3.246618e+001 -6.345565e+001 -2.317098e+001 -6.515991e+001 -8.074606e+001 -1.132227e+000 -7.556761e+001
1153368750 -1.772463e-001 -3.299964e+001 -6.375103e+001 -2.418970e+001 -6.499830e+001 -8.023280e+001 -1.151877e+000 -7.672349e+001
1172112500 -1.812726e-001 -3.351805e+001 -6.410626e+001 -2.474779e+001 -6.482930e+001 -8.124767e+001 -1.172880e+000 -7.786229e+001
1190856250 -1.843050e-001 -3.403511e+001 -6.397167e+001 -2.241772e+001 -6.503672e+001 -7.943665e+001 -1.189539e+000 -7.900014e+001
1209600000 -1.865836e-001 -3.455767e+001 -6.414501e+001 -2.399543e+001 -6.504589e+001 -8.046419e+001 -1.207237e+000 -8.012416e+001
1228343750 -1.873859e-001 -3.509161e+001 -6.395796e+001 -2.797833e+001 -6.504462e+001 -8.257887e+001 -1.224201e+000 -8.124401e+001
1247087500 -1.877040e-001 -3.560234e+001 -6.429968e+001 -2.715010e+001 -6.525790e+001 -7.978588e+001 -1.239904e+000 -8.237016e+001
1265831250 -1.891373e-001 -3.610360e+001 -6.398782e+001 -2.695014e+001 -6.505833e+001 -7.901656e+001 -1.255726e+000 -8.348061e+001
1284575000 -1.899700e-001 -3.660781e+001 -6.393203e+001 -3.202018e+001 -6.488285e+001 -7.808829e+001 -1.270802e+000 -8.459536e+001
1303318750 -1.915534e-001 -3.712334e+001 -6.392865e+001 -3.243249e+001 -6.457204e+001 -8.555119e+001 -1.284495e+000 -8.571317e+001
1322062500 -1.942357e-001 -3.763934e+001 -6.396527e+001 -3.413582e+001 -6.472826e+001 -8.522006e+001 -1.298535e+000 -8.681815e+001
1340806250 -1.954209e-001 -3.815825e+001 -6.498041e+001 -2.883151e+001 -6.488641e+001 -8.532710e+001 -1.310387e+000 -8.791402e+001
1359550000 -1.968431e-001 -3.866124e+001 -6.486938e+001 -2.902951e+001 -6.517207e+001 -8.366388e+001 -1.323417e+000 -8.900325e+001
1378293750 -1.977461e-001 -3.918557e+001 -6.490129e+001 -3.227142e+001 -6.496957e+001 -8.092020e+001 -1.335518e+000 -9.011383e+001
1397037500 -1.984066e-001 -3.968140e+001 -6.469378e+001 -3.355748e+001 -6.494827e+001 -6.670725e+001 -1.350096e+000 -9.121588e+001
1415781250 -1.992717e-001 -4.018504e+001 -6.444584e+001 -3.353746e+001 -6.476175e+001 -6.358965e+001 -1.363891e+000 -9.229338e+001
1434525000 -1.993680e-001 -4.069917e+001 -6.432305e+001 -3.104457e+001 -6.444948e+001 -5.692467e+001 -1.377021e+000 -9.338285e+001
1453268750 -2.026510e-001 -4.122332e+001 -6.399303e+001 -2.985163e+001 -6.445599e+001 -4.238854e+001 -1.389100e+000 -9.443634e+001
1472012500 -2.037717e-001 -4.173863e+001 -6.396152e+001 -2.824835e+001 -6.437650e+001 -2.784936e+001 -1.397218e+000 -9.548615e+001
1490756250 -2.059023e-001 -4.225827e+001 -6.418059e+001 -2.786363e+001 -6.357815e+001 -2.017554e+001 -1.407734e+000 -9.655104e+001
1509500000 -2.072802e-001 -4.277166e+001 -6.406116e+001 -2.680197e+001 -6.328457e+001 -1.913472e+001 -1.419918e+000 -9.762950e+001
1528243750 -2.086855e-001 -4.328935e+001 -6.405341e+001 -2.831529e+001 -6.270079e+001 -2.297039e+001 -1.433206e+000 -9.871063e+001
1546987500 -2.092314e-001 -4.379891e+001 -6.397382e+001 -2.859769e+001 -6.222229e+001 -2.520856e+001 -1.444547e+000 -9.976553e+001
1565731250 -2.098927e-001 -4.432189e+001 -6.390472e+001 -2.925734e+001 -6.192857e+001 -2.729951e+001 -1.457110e+000 -1.008088e+002
1584475000 -2.118967e-001 -4.485114e+001 -6.384414e+001 -2.965518e+001 -6.197519e+001 -2.841087e+001 -1.464672e+000 -1.018359e+002
1603218750 -2.123146e-001 -4.538149e+001 -6.361510e+001 -2.992782e+001 -6.213217e+001 -2.838614e+001 -1.472468e+000 -1.028744e+002
1621962500 -2.136632e-001 -4.590447e+001 -6.348644e+001 -2.902850e+001 -6.204858e+001 -3.064290e+001 -1.484732e+000 -1.039225e+002
1640706250 -2.146699e-001 -4.642584e+001 -6.332978e+001 -2.928271e+001 -6.206690e+001 -3.294029e+001 -1.498607e+000 -1.049682e+002
1659450000 -2.171352e-001 -4.694055e+001 -6.333751e+001 -2.911040e+001 -6.172651e+001 -3.255688e+001 -1.513838e+000 -1.060138e+002
1678193750 -2.180342e-001 -4.746533e+001 -6.301790e+001 -2.869829e+001 -6.155685e+001 -3.155898e+001 -1.528489e+000 -1.070399e+002
1696937500 -2.200840e-001 -4.799782e+001 -6.302272e+001 -3.072597e+001 -6.148341e+001 -3.122961e+001 -1.540079e+000 -1.080589e+002
1715681250 -2.215130e-001 -4.853313e+001 -6.309979e+001 -2.852588e+001 -6.167017e+001 -2.918608e+001 -1.551232e+000 -1.090751e+002
1734425000 -2.243546e-001 -4.905946e+001 -6.280288e+001 -2.944619e+001 -6.157818e+001 -2.681878e+001 -1.563447e+000 -1.100905e+002
1753168750 -2.263676e-001 -4.958648e+001 -6.263068e+001 -2.936500e+001 -6.153729e+001 -2.734959e+001 -1.580541e+000 -1.111117e+002
1771912500 -2.296470e-001 -5.010071e+001 -6.154802e+001 -3.191194e+001 -6.179835e+001 -3.097385e+001 -1.598111e+000 -1.121469e+002
1790656250 -2.292842e-001 -5.062535e+001 -6.128069e+001 -3.193279e+001 -6.182556e+001 -3.292093e+001 -1.614633e+000 -1.131678e+002
1809400000 -2.290391e-001 -5.113583e+001 -6.074836e+001 -3.073151e+001 -6.205589e+001 -3.334246e+001 -1.631108e+000 -1.141602e+002
1828143750 -2.314771e-001 -5.166984e+001 -6.082796e+001 -3.203138e+001 -6.155371e+001 -4.402446e+001 -1.643132e+000 -1.151509e+002
1846887500 -2.350403e-001 -5.218830e+001 -6.095943e+001 -3.111967e+001 -6.156030e+001 -4.334489e+001 -1.655059e+000 -1.161671e+002
1865631250 -2.379781e-001 -5.271447e+001 -6.140969e+001 -3.859219e+001 -6.156064e+001 -4.528997e+001 -1.670371e+000 -1.171864e+002
1884375000 -2.366633e-001 -5.323914e+001 -6.125862e+001 -3.862217e+001 -6.143704e+001 -4.893536e+001 -1.687398e+000 -1.182165e+002
1903118750 -2.371394e-001 -5.374613e+001 -6.154807e+001 -4.055728e+001 -6.128181e+001 -4.969504e+001 -1.710163e+000 -1.192306e+002
1921862500 -2.387415e-001 -5.424292e+001 -6.132890e+001 -4.275635e+001 -6.140958e+001 -5.075207e+001 -1.730280e+000 -1.202262e+002
1940606250 -2.387317e-001 -5.477820e+001 -6.155259e+001 -4.542000e+001 -6.159263e+001 -5.231810e+001 -1.743097e+000 -1.212106e+002
1959350000 -2.420438e-001 -5.528733e+001 -6.155051e+001 -4.480951e+001 -6.167360e+001 -5.295298e+001 -1.758473e+000 -1.221892e+002
1978093750 -2.459663e-001 -5.581109e+001 -6.136340e+001 -4.786894e+001 -6.181517e+001 -5.152428e+001 -1.774503e+000 -1.231991e+002
1996837500 -2.495138e-001 -5.631319e+001 -6.143732e+001 -4.931133e+001 -6.204353e+001 -5.010668e+001 -1.794297e+000 -1.242221e+002
2015581250 -2.497532e-001 -5.679876e+001 -6.127401e+001 -5.087066e+001 -6.177494e+001 -5.143721e+001 -1.817479e+000 -1.252210e+002
2034325000 -2.482488e-001 -5.729354e+001 -6.123465e+001 -5.039890e+001 -6.159462e+001 -5.314540e+001 -1.838139e+000 -1.262126e+002
2053068750 -2.482355e-001 -5.779451e+001 -6.110764e+001 -4.978912e+001 -6.149670e+001 -5.687542e+001 -1.854919e+000 -1.271802e+002
2071812500 -2.521971e-001 -5.828791e+001 -6.112147e+001 -5.018791e+001 -6.147758e+001 -5.444854e+001 -1.870439e+000 -1.281521e+002
2090556250 -2.560372e-001 -5.878828e+001 -6.111921e+001 -5.423918e+001 -6.173869e+001 -4.849343e+001 -1.885786e+000 -1.291296e+002
2109300000 -2.625898e-001 -5.929466e+001 -6.105083e+001 -5.936964e+001 -6.161835e+001 -3.736504e+001 -1.903091e+000 -1.301137e+002
2128043750 -2.653425e-001 -5.978765e+001 -6.114339e+001 -5.957077e+001 -6.177425e+001 -2.413150e+001 -1.924513e+000 -1.311157e+002
2146787500 -2.652016e-001 -6.028582e+001 -6.078047e+001 -6.071739e+001 -6.150328e+001 -1.242401e+001 -1.944780e+000 -1.320954e+002
2165531250 -2.641792e-001 -6.079325e+001 -6.098338e+001 -6.130854e+001 -6.164717e+001 6.239813e-001 -1.962454e+000 -1.330501e+002
2184275000 -2.661041e-001 -6.130369e+001 -6.114755e+001 -5.692108e+001 -6.135580e+001 1.892138e+001 -1.975579e+000 -1.340190e+002
2203018750 -2.676109e-001 -6.181511e+001 -6.127723e+001 -5.718828e+001 -6.075195e+001 3.813782e+001 -1.988626e+000 -1.349702e+002
2221762500 -2.724309e-001 -6.232902e+001 -6.131059e+001 -5.887130e+001 -6.067592e+001 5.795979e+001 -2.005149e+000 -1.359458e+002
2240506250 -2.745257e-001 -6.282882e+001 -6.170829e+001 -5.943549e+001 -6.025594e+001 7.340144e+001 -2.020487e+000 -1.369071e+002
2259250000 -2.744853e-001 -6.332895e+001 -6.180411e+001 -6.092875e+001 -5.999417e+001 9.450529e+001 -2.040894e+000 -1.378619e+002
2277993750 -2.718320e-001 -6.384080e+001 -6.160027e+001 -6.387808e+001 -6.030824e+001 1.058498e+002 -2.060717e+000 -1.387973e+002
2296737500 -2.730180e-001 -6.434333e+001 -6.117194e+001 -5.981274e+001 -6.010962e+001 1.273244e+002 -2.076261e+000 -1.397265e+002
2315481250 -2.790810e-001 -6.485543e+001 -6.136772e+001 -5.707103e+001 -6.020689e+001 1.444836e+002 -2.090420e+000 -1.406618e+002
2334225000 -2.832451e-001 -6.539021e+001 -6.090155e+001 -5.934138e+001 -6.019233e+001 1.542622e+002 -2.102527e+000 -1.416215e+002
2352968750 -2.872307e-001 -6.590726e+001 -6.135503e+001 -6.471270e+001 -6.029395e+001 1.664122e+002 -2.116781e+000 -1.425801e+002
2371712500 -2.900976e-001 -6.639549e+001 -6.150193e+001 -7.405939e+001 -6.021319e+001 -1.763521e+002 -2.136522e+000 -1.435209e+002
2390456250 -2.864684e-001 -6.689681e+001 -6.135450e+001 -8.918550e+001 -6.039507e+001 -1.594121e+002 -2.151686e+000 -1.444517e+002
2409200000 -2.874606e-001 -6.739187e+001 -6.183857e+001 -1.039641e+002 -6.053778e+001 -1.471143e+002 -2.166699e+000 -1.453740e+002
2427943750 -2.885795e-001 -6.791454e+001 -6.208552e+001 -1.204185e+002 -6.099367e+001 -1.300288e+002 -2.178318e+000 -1.462890e+002
2446687500 -2.940533e-001 -6.842730e+001 -6.215132e+001 -1.352388e+002 -6.099333e+001 -1.172282e+002 -2.189291e+000 -1.472312e+002
2465431250 -3.001390e-001 -6.892268e+001 -6.246878e+001 -1.528878e+002 -6.096329e+001 -1.023819e+002 -2.201928e+000 -1.481644e+002
2484175000 -3.039792e-001 -6.941248e+001 -6.260754e+001 -1.720597e+002 -6.156618e+001 -9.255759e+001 -2.218035e+000 -1.491007e+002
2502918750 -3.030662e-001 -6.992751e+001 -6.251833e+001 1.712310e+002 -6.201920e+001 -9.310971e+001 -2.233233e+000 -1.500179e+002
2521662500 -3.030227e-001 -7.043958e+001 -6.229042e+001 1.598226e+002 -6.169460e+001 -9.991275e+001 -2.248206e+000 -1.509288e+002
2540406250 -3.014796e-001 -7.096574e+001 -6.244899e+001 1.486496e+002 -6.192259e+001 -1.144757e+002 -2.260822e+000 -1.518454e+002
2559150000 -3.037846e-001 -7.148398e+001 -6.227457e+001 1.337368e+002 -6.153873e+001 -1.301293e+002 -2.269879e+000 -1.527569e+002
2577893750 -3.087048e-001 -7.196451e+001 -6.244832e+001 1.205307e+002 -6.163439e+001 -1.427077e+002 -2.282037e+000 -1.536786e+002
2596637500 -3.131494e-001 -7.243526e+001 -6.243365e+001 1.056983e+002 -6.204237e+001 -1.611561e+002 -2.295202e+000 -1.546012e+002
2615381250 -3.143163e-001 -7.291418e+001 -6.243833e+001 8.521054e+001 -6.226002e+001 1.792634e+002 -2.310703e+000 -1.554988e+002
2634125000 -3.125433e-001 -7.341052e+001 -6.221760e+001 6.799960e+001 -6.259693e+001 1.625412e+002 -2.328332e+000 -1.564004e+002
2652868750 -3.135260e-001 -7.391488e+001 -6.211488e+001 5.071080e+001 -6.251760e+001 1.409599e+002 -2.341534e+000 -1.572936e+002
2671612500 -3.180772e-001 -7.441757e+001 -6.213837e+001 3.243828e+001 -6.306258e+001 1.260781e+002 -2.355246e+000 -1.581910e+002
2690356250 -3.221641e-001 -7.491067e+001 -6.204682e+001 1.865279e+001 -6.328814e+001 1.121734e+002 -2.365340e+000 -1.591142e+002
2709100000 -3.309857e-001 -7.538087e+001 -6.247494e+001 3.950337e-001 -6.298530e+001 9.882564e+001 -2.375058e+000 -1.600381e+002
2727843750 -3.336683e-001 -7.587868e+001 -6.267743e+001 -1.797166e+001 -6.290696e+001 8.240874e+001 -2.389176e+000 -1.609442e+002
2746587500 -3.338646e-001 -7.636460e+001 -6.266353e+001 -3.804081e+001 -6.254906e+001 6.547947e+001 -2.402644e+000 -1.618539e+002
2765331250 -3.348245e-001 -7.684972e+001 -6.313079e+001 -5.380897e+001 -6.329950e+001 5.209441e+001 -2.417123e+000 -1.627320e+002
2784075000 -3.361459e-001 -7.735712e+001 -6.259041e+001 -6.419069e+001 -6.346882e+001 3.802329e+001 -2.428123e+000 -1.636330e+002
2802818750 -3.399369e-001 -7.783873e+001 -6.257968e+001 -7.205084e+001 -6.349392e+001 1.918590e+001 -2.438828e+000 -1.645226e+002
2821562500 -3.470589e-001 -7.833455e+001 -6.296278e+001 -7.471255e+001 -6.343798e+001 2.354544e-001 -2.451879e+000 -1.654242e+002
2840306250 -3.524565e-001 -7.884221e+001 -6.269363e+001 -7.483105e+001 -6.304123e+001 -1.214782e+001 -2.462372e+000 -1.663108e+002
2859050000 -3.546911e-001 -7.932890e+001 -6.242823e+001 -7.479122e+001 -6.284484e+001 -2.989013e+001 -2.475849e+000 -1.671975e+002
2877793750 -3.465135e-001 -7.984838e+001 -6.248994e+001 -7.561808e+001 -6.298734e+001 -4.421452e+001 -2.490367e+000 -1.680789e+002
2896537500 -3.498532e-001 -8.031709e+001 -6.217050e+001 -7.584845e+001 -6.327681e+001 -5.656691e+001 -2.502693e+000 -1.689661e+002
2915281250 -3.572013e-001 -8.085653e+001 -6.253837e+001 -7.677887e+001 -6.270685e+001 -6.570496e+001 -2.513937e+000 -1.698434e+002
2934025000 -3.557757e-001 -8.136317e+001 -6.261757e+001 -7.912052e+001 -6.254702e+001 -6.361609e+001 -2.526575e+000 -1.707493e+002
2952768750 -3.608029e-001 -8.179431e+001 -6.268795e+001 -8.328423e+001 -6.263521e+001 -6.583295e+001 -2.535489e+000 -1.716349e+002
2971512500 -3.685939e-001 -8.232565e+001 -6.248759e+001 -8.592464e+001 -6.232207e+001 -6.757356e+001 -2.549690e+000 -1.725196e+002
2990256250 -3.635323e-001 -8.283100e+001 -6.241820e+001 -8.455524e+001 -6.250517e+001 -6.890824e+001 -2.564335e+000 -1.734006e+002
3009000000 -3.683394e-001 -8.329092e+001 -6.286778e+001 -9.044907e+001 -6.257052e+001 -7.436449e+001 -2.576627e+000 -1.742701e+002
3027743750 -3.741415e-001 -8.383806e+001 -6.320635e+001 -9.150027e+001 -6.213397e+001 -7.012637e+001 -2.590601e+000 -1.751387e+002
3046487500 -3.695397e-001 -8.433363e+001 -6.327924e+001 -9.017982e+001 -6.244081e+001 -6.787998e+001 -2.602377e+000 -1.760246e+002
3065231250 -3.768990e-001 -8.478130e+001 -6.345018e+001 -9.142760e+001 -6.240912e+001 -6.731873e+001 -2.611416e+000 -1.768993e+002
3083975000 -3.831996e-001 -8.529695e+001 -6.369120e+001 -9.179550e+001 -6.254296e+001 -6.753237e+001 -2.626287e+000 -1.777764e+002
3102718750 -3.801664e-001 -8.578297e+001 -6.377701e+001 -9.148490e+001 -6.230230e+001 -6.853904e+001 -2.638732e+000 -1.786649e+002
3121462500 -3.861712e-001 -8.625544e+001 -6.394369e+001 -9.197050e+001 -6.199146e+001 -7.382355e+001 -2.651893e+000 -1.795176e+002
3140206250 -3.859210e-001 -8.677523e+001 -6.364795e+001 -9.045055e+001 -6.225805e+001 -7.270340e+001 -2.668226e+000 1.796151e+002
3158950000 -3.869010e-001 -8.726482e+001 -6.418349e+001 -9.525996e+001 -6.213587e+001 -7.370399e+001 -2.678207e+000 1.787413e+002
3177693750 -3.942144e-001 -8.774423e+001 -6.404187e+001 -9.653077e+001 -6.233595e+001 -7.614755e+001 -2.691381e+000 1.778840e+002
3196437500 -3.969791e-001 -8.823619e+001 -6.367256e+001 -9.558359e+001 -6.167990e+001 -7.747846e+001 -2.704130e+000 1.770062e+002
3215181250 -3.987826e-001 -8.870431e+001 -6.384719e+001 -9.602791e+001 -6.139930e+001 -7.766721e+001 -2.715726e+000 1.761371e+002
3233925000 -4.039166e-001 -8.920798e+001 -6.349493e+001 -9.558321e+001 -6.153892e+001 -7.705306e+001 -2.727773e+000 1.752714e+002
3252668750 -4.023410e-001 -8.969361e+001 -6.291934e+001 -9.782669e+001 -6.204090e+001 -8.009489e+001 -2.741216e+000 1.743956e+002
3271412500 -4.050618e-001 -9.014854e+001 -6.361790e+001 -9.885814e+001 -6.229333e+001 -8.364423e+001 -2.751042e+000 1.735224e+002
3290156250 -4.109858e-001 -9.065315e+001 -6.373760e+001 -9.895218e+001 -6.178954e+001 -8.512889e+001 -2.763629e+000 1.726663e+002
3308900000 -4.165933e-001 -9.111066e+001 -6.443279e+001 -1.029390e+002 -6.198729e+001 -7.982993e+001 -2.774408e+000 1.717827e+002
3327643750 -4.206885e-001 -9.158664e+001 -6.455709e+001 -1.049713e+002 -6.171862e+001 -8.189903e+001 -2.781450e+000 1.709183e+002
3346387500 -4.216841e-001 -9.205036e+001 -6.398317e+001 -1.061279e+002 -6.177605e+001 -7.976353e+001 -2.793821e+000 1.700751e+002
3365131250 -4.234934e-001 -9.253381e+001 -6.408891e+001 -1.059417e+002 -6.116031e+001 -8.411539e+001 -2.803899e+000 1.692094e+002
3383875000 -4.270867e-001 -9.302768e+001 -6.411333e+001 -1.045355e+002 -6.135398e+001 -8.444161e+001 -2.814134e+000 1.683488e+002
3402618750 -4.280238e-001 -9.348313e+001 -6.424596e+001 -1.045993e+002 -6.116436e+001 -8.554936e+001 -2.825293e+000 1.675025e+002
3421362500 -4.331601e-001 -9.394632e+001 -6.443568e+001 -1.068893e+002 -6.141115e+001 -8.023103e+001 -2.836253e+000 1.666295e+002
3440106250 -4.370248e-001 -9.441497e+001 -6.427866e+001 -1.065808e+002 -6.178144e+001 -6.547565e+001 -2.842750e+000 1.657772e+002
3458850000 -4.412508e-001 -9.489477e+001 -6.430032e+001 -1.182457e+002 -6.172283e+001 -5.463543e+001 -2.854999e+000 1.649209e+002
3477593750 -4.474977e-001 -9.539826e+001 -6.409538e+001 -1.344027e+002 -6.130462e+001 -4.229938e+001 -2.862743e+000 1.640434e+002
3496337500 -4.529400e-001 -9.587367e+001 -6.405829e+001 -1.525657e+002 -6.117530e+001 -3.062439e+001 -2.872354e+000 1.631917e+002
3515081250 -4.563177e-001 -9.636302e+001 -6.385704e+001 -1.687335e+002 -6.155973e+001 -1.452893e+001 -2.881006e+000 1.623400e+002
3533825000 -4.588365e-001 -9.686121e+001 -6.354547e+001 1.761940e+002 -6.150640e+001 -1.634202e+000 -2.887839e+000 1.614673e+002
3552568750 -4.597584e-001 -9.733652e+001 -6.357598e+001 1.632828e+002 -6.153563e+001 1.653495e+001 -2.896405e+000 1.606172e+002
3571312500 -4.678665e-001 -9.785930e+001 -6.370287e+001 1.478634e+002 -6.125072e+001 2.860036e+001 -2.907452e+000 1.597702e+002
3590056250 -4.727528e-001 -9.832889e+001 -6.302870e+001 1.392793e+002 -6.165918e+001 4.477481e+001 -2.918710e+000 1.589158e+002
3608800000 -4.741078e-001 -9.880855e+001 -6.309340e+001 1.218431e+002 -6.217793e+001 6.333631e+001 -2.927675e+000 1.580574e+002
3627543750 -4.784092e-001 -9.926991e+001 -6.338993e+001 1.049740e+002 -6.229165e+001 7.841318e+001 -2.935913e+000 1.572097e+002
3646287500 -4.832133e-001 -9.974375e+001 -6.335312e+001 8.781186e+001 -6.244802e+001 9.647417e+001 -2.948303e+000 1.563702e+002
3665031250 -4.828643e-001 -1.002225e+002 -6.359529e+001 7.152499e+001 -6.221491e+001 1.098293e+002 -2.956867e+000 1.555103e+002
3683775000 -4.867696e-001 -1.006385e+002 -6.431855e+001 5.776141e+001 -6.176437e+001 1.274264e+002 -2.961631e+000 1.546353e+002
3702518750 -4.953713e-001 -1.011542e+002 -6.380826e+001 4.124882e+001 -6.186364e+001 1.460028e+002 -2.969672e+000 1.538228e+002
3721262500 -4.901682e-001 -1.016380e+002 -6.377281e+001 2.560568e+001 -6.228433e+001 1.636382e+002 -2.982519e+000 1.529532e+002
3740006250 -4.957142e-001 -1.020422e+002 -6.310351e+001 1.225092e+001 -6.263923e+001 1.709935e+002 -2.989302e+000 1.520894e+002
3758750000 -5.044657e-001 -1.025831e+002 -6.354111e+001 -6.561347e+000 -6.333240e+001 -1.721578e+002 -2.998579e+000 1.512658e+002
3777493750 -4.977718e-001 -1.030726e+002 -6.390095e+001 -2.104175e+001 -6.317234e+001 -1.583647e+002 -3.013192e+000 1.503939e+002
3796237500 -5.054335e-001 -1.034687e+002 -6.353448e+001 -3.748898e+001 -6.359788e+001 -1.443446e+002 -3.020826e+000 1.495260e+002
3814981250 -5.138683e-001 -1.040055e+002 -6.382714e+001 -5.540271e+001 -6.328934e+001 -1.279057e+002 -3.029987e+000 1.487018e+002
3833725000 -5.079220e-001 -1.044481e+002 -6.387717e+001 -7.013977e+001 -6.354773e+001 -1.107576e+002 -3.041833e+000 1.478376e+002
3852468750 -5.160145e-001 -1.048550e+002 -6.465519e+001 -9.133980e+001 -6.341183e+001 -1.019248e+002 -3.050015e+000 1.469721e+002
3871212500 -5.214807e-001 -1.054042e+002 -6.453152e+001 -1.072104e+002 -6.322385e+001 -1.014980e+002 -3.059491e+000 1.461325e+002
3889956250 -5.139683e-001 -1.058429e+002 -6.413331e+001 -1.110588e+002 -6.368067e+001 -1.025660e+002 -3.072043e+000 1.452556e+002
3908700000 -5.202048e-001 -1.062458e+002 -6.409711e+001 -1.118306e+002 -6.365710e+001 -1.048074e+002 -3.080920e+000 1.443991e+002
3927443750 -5.256960e-001 -1.067730e+002 -6.415645e+001 -1.132921e+002 -6.402813e+001 -1.064109e+002 -3.090060e+000 1.435622e+002
3946187500 -5.208644e-001 -1.072012e+002 -6.417945e+001 -1.123129e+002 -6.349319e+001 -1.188478e+002 -3.102073e+000 1.426828e+002
3964931250 -5.284477e-001 -1.076210e+002 -6.448701e+001 -1.117909e+002 -6.375292e+001 -1.315470e+002 -3.111443e+000 1.418429e+002
3983675000 -5.347692e-001 -1.081101e+002 -6.404288e+001 -1.152645e+002 -6.375333e+001 -1.505755e+002 -3.121187e+000 1.410086e+002
4002418750 -5.293019e-001 -1.085206e+002 -6.428657e+001 -1.194033e+002 -6.397496e+001 -1.646691e+002 -3.130979e+000 1.401136e+002
4021162500 -5.339648e-001 -1.089620e+002 -6.433196e+001 -1.205608e+002 -6.391079e+001 1.789447e+002 -3.138109e+000 1.392523e+002
4039906250 -5.385334e-001 -1.094539e+002 -6.425716e+001 -1.202161e+002 -6.382003e+001 1.631195e+002 -3.149770e+000 1.384104e+002
4058650000 -5.386298e-001 -1.099231e+002 -6.401108e+001 -1.202913e+002 -6.363528e+001 1.483195e+002 -3.163354e+000 1.375052e+002
4077393750 -5.432784e-001 -1.103732e+002 -6.393304e+001 -1.199500e+002 -6.376689e+001 1.297773e+002 -3.168627e+000 1.366524e+002
4096137500 -5.489714e-001 -1.108519e+002 -6.404132e+001 -1.217836e+002 -6.364732e+001 1.157505e+002 -3.180781e+000 1.358031e+002
4114881250 -5.506002e-001 -1.113639e+002 -6.331782e+001 -1.248352e+002 -6.358184e+001 1.007670e+002 -3.197623e+000 1.349356e+002
4133625000 -5.513027e-001 -1.117946e+002 -6.318007e+001 -1.234570e+002 -6.343295e+001 8.088535e+001 -3.205376e+000 1.340695e+002
4152368750 -5.589740e-001 -1.122671e+002 -6.319052e+001 -1.245706e+002 -6.334528e+001 6.563020e+001 -3.215536e+000 1.332210e+002
4171112500 -5.618036e-001 -1.127796e+002 -6.389571e+001 -1.238166e+002 -6.313992e+001 4.978345e+001 -3.230165e+000 1.323472e+002
4189856250 -5.619290e-001 -1.131968e+002 -6.311371e+001 -1.202055e+002 -6.257393e+001 3.362312e+001 -3.238547e+000 1.314676e+002
4208600000 -5.710230e-001 -1.136653e+002 -6.281688e+001 -1.210535e+002 -6.292889e+001 1.584832e+001 -3.247895e+000 1.306113e+002
4227343750 -5.732334e-001 -1.141528e+002 -6.320512e+001 -1.189034e+002 -6.310857e+001 2.471628e+000 -3.261250e+000 1.297232e+002
4246087500 -5.765762e-001 -1.145910e+002 -6.297194e+001 -1.193635e+002 -6.300581e+001 -1.346563e+001 -3.267951e+000 1.288378e+002
4264831250 -5.836772e-001 -1.150857e+002 -6.273729e+001 -1.215289e+002 -6.275976e+001 -3.017301e+001 -3.277551e+000 1.279896e+002
4283575000 -5.835431e-001 -1.155656e+002 -6.197628e+001 -1.181115e+002 -6.258249e+001 -4.528064e+001 -3.287232e+000 1.271036e+002
4302318750 -5.823221e-001 -1.160148e+002 -6.178857e+001 -1.186841e+002 -6.335511e+001 -5.905225e+001 -3.300128e+000 1.262144e+002
4321062500 -5.922810e-001 -1.164673e+002 -6.195011e+001 -1.231236e+002 -6.300271e+001 -7.273802e+001 -3.304363e+000 1.253556e+002
4339806250 -5.978346e-001 -1.169742e+002 -6.235915e+001 -1.245459e+002 -6.317485e+001 -8.712901e+001 -3.317963e+000 1.245068e+002
4358550000 -5.967008e-001 -1.174244e+002 -6.227133e+001 -1.235173e+002 -6.276371e+001 -1.002498e+002 -3.329654e+000 1.235987e+002
4377293750 -6.052060e-001 -1.179176e+002 -6.263058e+001 -1.236759e+002 -6.266006e+001 -1.077078e+002 -3.340943e+000 1.227435e+002
4396037500 -6.036608e-001 -1.183803e+002 -6.238241e+001 -1.266471e+002 -6.289365e+001 -1.131346e+002 -3.350900e+000 1.218388e+002
4414781250 -6.081631e-001 -1.188237e+002 -6.274930e+001 -1.223189e+002 -6.275587e+001 -1.128782e+002 -3.355662e+000 1.209412e+002
4433525000 -6.144408e-001 -1.193203e+002 -6.260733e+001 -1.197466e+002 -6.279241e+001 -1.172698e+002 -3.366118e+000 1.200922e+002
4452268750 -6.125168e-001 -1.197684e+002 -6.243337e+001 -1.207380e+002 -6.268437e+001 -1.185139e+002 -3.375679e+000 1.191947e+002
4471012500 -6.205309e-001 -1.201713e+002 -6.255507e+001 -1.201888e+002 -6.285558e+001 -1.208028e+002 -3.378563e+000 1.183238e+002
4489756250 -6.266077e-001 -1.206724e+002 -6.245866e+001 -1.201430e+002 -6.287068e+001 -1.221540e+002 -3.386605e+000 1.174608e+002
4508500000 -6.250700e-001 -1.211222e+002 -6.262740e+001 -1.218184e+002 -6.279504e+001 -1.232344e+002 -3.394145e+000 1.165621e+002
4527243750 -6.322836e-001 -1.215457e+002 -6.232599e+001 -1.232757e+002 -6.316016e+001 -1.240957e+002 -3.398643e+000 1.157003e+002
4545987500 -6.416865e-001 -1.220582e+002 -6.250472e+001 -1.250292e+002 -6.330060e+001 -1.273880e+002 -3.406522e+000 1.148213e+002
4564731250 -6.382932e-001 -1.225000e+002 -6.250758e+001 -1.271554e+002 -6.336946e+001 -1.271275e+002 -3.415377e+000 1.139076e+002
4583475000 -6.492658e-001 -1.229251e+002 -6.240942e+001 -1.281376e+002 -6.356909e+001 -1.325797e+002 -3.418346e+000 1.130310e+002
4602218750 -6.570174e-001 -1.233943e+002 -6.174283e+001 -1.299346e+002 -6.368164e+001 -1.327498e+002 -3.420898e+000 1.121811e+002
4620962500 -6.565576e-001 -1.238708e+002 -6.235077e+001 -1.311993e+002 -6.425220e+001 -1.319855e+002 -3.432986e+000 1.112816e+002
4639706250 -6.632929e-001 -1.242764e+002 -6.244674e+001 -1.334549e+002 -6.403969e+001 -1.345997e+002 -3.432830e+000 1.103742e+002
4658450000 -6.711146e-001 -1.247607e+002 -6.250850e+001 -1.368246e+002 -6.418905e+001 -1.420358e+002 -3.437737e+000 1.095353e+002
4677193750 -6.670352e-001 -1.251792e+002 -6.287626e+001 -1.341204e+002 -6.445629e+001 -1.433015e+002 -3.446786e+000 1.086089e+002
4695937500 -6.792101e-001 -1.256149e+002 -6.363557e+001 -1.320113e+002 -6.492799e+001 -1.424292e+002 -3.450462e+000 1.077081e+002
4714681250 -6.853247e-001 -1.261096e+002 -6.352582e+001 -1.328664e+002 -6.529012e+001 -1.436006e+002 -3.460948e+000 1.068401e+002
4733425000 -6.904445e-001 -1.265074e+002 -6.360540e+001 -1.360688e+002 -6.445936e+001 -1.448362e+002 -3.462433e+000 1.059154e+002
4752168750 -6.980688e-001 -1.270054e+002 -6.378157e+001 -1.376018e+002 -6.440457e+001 -1.460691e+002 -3.470133e+000 1.050386e+002
4770912500 -6.993049e-001 -1.274552e+002 -6.344720e+001 -1.411938e+002 -6.476742e+001 -1.480506e+002 -3.479338e+000 1.041250e+002
4789656250 -7.052613e-001 -1.278722e+002 -6.357209e+001 -1.451011e+002 -6.496318e+001 -1.485854e+002 -3.477899e+000 1.031905e+002
4808400000 -7.152802e-001 -1.283207e+002 -6.335129e+001 -1.474216e+002 -6.500337e+001 -1.476449e+002 -3.481388e+000 1.023053e+002
4827143750 -7.204915e-001 -1.287989e+002 -6.325220e+001 -1.490237e+002 -6.444942e+001 -1.457789e+002 -3.492668e+000 1.014020e+002
4845887500 -7.252696e-001 -1.292460e+002 -6.298568e+001 -1.539615e+002 -6.483105e+001 -1.475303e+002 -3.497367e+000 1.004603e+002
4864631250 -7.337396e-001 -1.296985e+002 -6.274555e+001 -1.555788e+002 -6.480164e+001 -1.467808e+002 -3.501608e+000 9.958567e+001
4883375000 -7.369934e-001 -1.301923e+002 -6.286440e+001 -1.541629e+002 -6.456719e+001 -1.516630e+002 -3.513759e+000 9.866183e+001
4902118750 -7.381215e-001 -1.306337e+002 -6.290213e+001 -1.505236e+002 -6.417250e+001 -1.518884e+002 -3.519449e+000 9.768771e+001
4920862500 -7.481495e-001 -1.310771e+002 -6.293880e+001 -1.532439e+002 -6.399356e+001 -1.528689e+002 -3.523816e+000 9.679955e+001
4939606250 -7.500033e-001 -1.315426e+002 -6.294903e+001 -1.542299e+002 -6.392424e+001 -1.543731e+002 -3.534406e+000 9.585607e+001
4958350000 -7.545761e-001 -1.319637e+002 -6.295646e+001 -1.550036e+002 -6.390964e+001 -1.570936e+002 -3.536990e+000 9.487383e+001
4977093750 -7.616763e-001 -1.324092e+002 -6.299427e+001 -1.534871e+002 -6.372406e+001 -1.563624e+002 -3.541396e+000 9.400105e+001
4995837500 -7.625811e-001 -1.328823e+002 -6.316068e+001 -1.522260e+002 -6.390537e+001 -1.583844e+002 -3.554084e+000 9.305373e+001
5014581250 -7.662237e-001 -1.332925e+002 -6.311170e+001 -1.533647e+002 -6.350430e+001 -1.584605e+002 -3.556841e+000 9.209917e+001
5033325000 -7.732524e-001 -1.337878e+002 -6.330645e+001 -1.546891e+002 -6.306220e+001 -1.576496e+002 -3.566377e+000 9.117532e+001
5052068750 -7.709709e-001 -1.342241e+002 -6.316636e+001 -1.539932e+002 -6.259748e+001 -1.656679e+002 -3.574207e+000 9.021539e+001
5070812500 -7.816964e-001 -1.346530e+002 -6.336133e+001 -1.536927e+002 -6.306960e+001 -1.653774e+002 -3.580331e+000 8.927446e+001
5089556250 -7.879859e-001 -1.351483e+002 -6.312141e+001 -1.537815e+002 -6.245535e+001 -1.625101e+002 -3.588606e+000 8.831962e+001
5108300000 -7.901915e-001 -1.356110e+002 -6.291964e+001 -1.552350e+002 -6.251527e+001 -1.671967e+002 -3.598263e+000 8.737430e+001
5127043750 -7.943658e-001 -1.360231e+002 -6.236322e+001 -1.580113e+002 -6.250258e+001 -1.664446e+002 -3.601165e+000 8.642025e+001
5145787500 -8.034355e-001 -1.364889e+002 -6.262460e+001 -1.599323e+002 -6.228349e+001 -1.690571e+002 -3.601867e+000 8.547599e+001
5164531250 -8.048909e-001 -1.369511e+002 -6.246671e+001 -1.578090e+002 -6.233578e+001 -1.707060e+002 -3.610698e+000 8.453420e+001
5183275000 -8.093281e-001 -1.373626e+002 -6.226009e+001 -1.554418e+002 -6.233941e+001 -1.687442e+002 -3.614476e+000 8.355370e+001
5202018750 -8.171470e-001 -1.378244e+002 -6.242170e+001 -1.526969e+002 -6.213920e+001 -1.663703e+002 -3.619666e+000 8.258548e+001
5220762500 -8.176402e-001 -1.382728e+002 -6.251938e+001 -1.517028e+002 -6.209277e+001 -1.666866e+002 -3.628622e+000 8.163010e+001
5239506250 -8.218529e-001 -1.386936e+002 -6.261235e+001 -1.556759e+002 -6.194070e+001 -1.676707e+002 -3.632615e+000 8.063868e+001
5258250000 -8.300338e-001 -1.391474e+002 -6.266169e+001 -1.534043e+002 -6.205923e+001 -1.691251e+002 -3.636106e+000 7.966750e+001
5276993750 -8.301407e-001 -1.395843e+002 -6.260902e+001 -1.563398e+002 -6.204998e+001 -1.726684e+002 -3.644679e+000 7.868319e+001
5295737500 -8.384286e-001 -1.400165e+002 -6.266837e+001 -1.567471e+002 -6.218430e+001 -1.739718e+002 -3.647698e+000 7.768848e+001
5314481250 -8.466671e-001 -1.404636e+002 -6.276106e+001 -1.612758e+002 -6.241994e+001 -1.744201e+002 -3.651141e+000 7.671243e+001
5333225000 -8.470032e-001 -1.409101e+002 -6.268052e+001 -1.662895e+002 -6.231099e+001 -1.744411e+002 -3.657838e+000 7.574087e+001
5351968750 -8.534455e-001 -1.413446e+002 -6.277207e+001 -1.672496e+002 -6.275180e+001 -1.734731e+002 -3.662298e+000 7.473882e+001
5370712500 -8.594052e-001 -1.417986e+002 -6.291960e+001 -1.672766e+002 -6.276414e+001 -1.744832e+002 -3.668167e+000 7.375420e+001
5389456250 -8.603169e-001 -1.422552e+002 -6.318340e+001 -1.671156e+002 -6.284328e+001 -1.756494e+002 -3.677269e+000 7.276064e+001
5408200000 -8.691185e-001 -1.426883e+002 -6.323688e+001 -1.697842e+002 -6.308504e+001 -1.762744e+002 -3.680776e+000 7.174001e+001
5426943750 -8.738307e-001 -1.431457e+002 -6.315423e+001 -1.752771e+002 -6.296566e+001 -1.782119e+002 -3.686281e+000 7.072166e+001
5445687500 -8.774034e-001 -1.435927e+002 -6.318934e+001 -1.764247e+002 -6.327243e+001 -1.790014e+002 -3.691898e+000 6.969313e+001
5464431250 -8.869737e-001 -1.440143e+002 -6.301970e+001 -1.747568e+002 -6.361940e+001 1.785247e+002 -3.694557e+000 6.865547e+001
5483175000 -8.913081e-001 -1.444916e+002 -6.283198e+001 -1.742189e+002 -6.336347e+001 -1.782019e+002 -3.698339e+000 6.764826e+001
5501918750 -8.937852e-001 -1.449349e+002 -6.261084e+001 -1.773197e+002 -6.326660e+001 1.780931e+002 -3.702809e+000 6.661719e+001
5520662500 -9.013028e-001 -1.453724e+002 -6.265730e+001 -1.759662e+002 -6.332267e+001 1.785546e+002 -3.702844e+000 6.558810e+001
5539406250 -9.050536e-001 -1.458439e+002 -6.249193e+001 -1.782786e+002 -6.336286e+001 -1.790226e+002 -3.708154e+000 6.456489e+001
5558150000 -9.091020e-001 -1.462768e+002 -6.270224e+001 1.737970e+002 -6.301368e+001 1.764710e+002 -3.714809e+000 6.349809e+001
5576893750 -9.164855e-001 -1.467232e+002 -6.270285e+001 1.722462e+002 -6.297653e+001 1.755362e+002 -3.717989e+000 6.243099e+001
5595637500 -9.192892e-001 -1.471949e+002 -6.280499e+001 1.714659e+002 -6.297415e+001 1.784848e+002 -3.725049e+000 6.138332e+001
5614381250 -9.242368e-001 -1.476251e+002 -6.309711e+001 1.647377e+002 -6.327296e+001 1.792965e+002 -3.731703e+000 6.031238e+001
5633125000 -9.322953e-001 -1.480727e+002 -6.288029e+001 1.611775e+002 -6.313165e+001 1.738960e+002 -3.729100e+000 5.924506e+001
5651868750 -9.345567e-001 -1.485425e+002 -6.271426e+001 1.622807e+002 -6.308607e+001 1.726582e+002 -3.737327e+000 5.820816e+001
5670612500 -9.392536e-001 -1.489630e+002 -6.280618e+001 1.702062e+002 -6.327830e+001 1.687158e+002 -3.741929e+000 5.711106e+001
5689356250 -9.491843e-001 -1.494136e+002 -6.349648e+001 1.763056e+002 -6.336504e+001 1.661382e+002 -3.742275e+000 5.601968e+001
5708100000 -9.503659e-001 -1.498668e+002 -6.368084e+001 1.773011e+002 -6.349411e+001 1.733511e+002 -3.747514e+000 5.495871e+001
5726843750 -9.529979e-001 -1.502816e+002 -6.374413e+001 1.737951e+002 -6.352955e+001 1.742063e+002 -3.750969e+000 5.383986e+001
5745587500 -9.617286e-001 -1.507320e+002 -6.359948e+001 1.724836e+002 -6.324483e+001 1.764574e+002 -3.749151e+000 5.274746e+001
5764331250 -9.660922e-001 -1.511902e+002 -6.372032e+001 1.696452e+002 -6.338642e+001 1.753575e+002 -3.755396e+000 5.165855e+001
5783075000 -9.715089e-001 -1.516059e+002 -6.405673e+001 1.690408e+002 -6.307845e+001 1.736201e+002 -3.759217e+000 5.053859e+001
5801818750 -9.830592e-001 -1.520513e+002 -6.409143e+001 1.714550e+002 -6.307386e+001 1.720379e+002 -3.760643e+000 4.942238e+001
5820562500 -9.881565e-001 -1.525123e+002 -6.400027e+001 1.707810e+002 -6.271302e+001 1.702903e+002 -3.761532e+000 4.830583e+001
5839306250 -9.873372e-001 -1.529198e+002 -6.384708e+001 1.711419e+002 -6.250162e+001 1.693598e+002 -3.762739e+000 4.716941e+001
5858050000 -9.995498e-001 -1.533507e+002 -6.382492e+001 1.734652e+002 -6.252302e+001 1.699438e+002 -3.762649e+000 4.605408e+001
5876793750 -1.005007e+000 -1.538111e+002 -6.402148e+001 1.766047e+002 -6.216454e+001 1.685620e+002 -3.766137e+000 4.490333e+001
5895537500 -9.997731e-001 -1.542417e+002 -6.390869e+001 1.732941e+002 -6.161149e+001 1.686908e+002 -3.766998e+000 4.378450e+001
5914281250 -1.015558e+000 -1.546531e+002 -6.404312e+001 1.676643e+002 -6.167638e+001 1.658096e+002 -3.771360e+000 4.264022e+001
5933025000 -1.017512e+000 -1.551330e+002 -6.443385e+001 1.658779e+002 -6.146601e+001 1.678147e+002 -3.771726e+000 4.145471e+001
5951768750 -1.015487e+000 -1.555506e+002 -6.431863e+001 1.627327e+002 -6.162659e+001 1.633795e+002 -3.771694e+000 4.031129e+001
5970512500 -1.027844e+000 -1.559570e+002 -6.435030e+001 1.618438e+002 -6.174753e+001 1.616568e+002 -3.773865e+000 3.914900e+001
5989256250 -1.031587e+000 -1.564320e+002 -6.403798e+001 1.677588e+002 -6.189529e+001 1.599459e+002 -3.772906e+000 3.795570e+001
6008000000 -1.029300e+000 -1.568665e+002 -6.374904e+001 1.673061e+002 -6.166872e+001 1.597087e+002 -3.775553e+000 3.682393e+001
6026743750 -1.044938e+000 -1.572977e+002 -6.375174e+001 1.657860e+002 -6.149392e+001 1.548214e+002 -3.776722e+000 3.563725e+001
6045487500 -1.048100e+000 -1.577587e+002 -6.337797e+001 1.696474e+002 -6.132115e+001 1.504863e+002 -3.773695e+000 3.440462e+001
6064231250 -1.047899e+000 -1.581968e+002 -6.369675e+001 1.690091e+002 -6.152161e+001 1.527932e+002 -3.775933e+000 3.325125e+001
6082975000 -1.061802e+000 -1.586100e+002 -6.367395e+001 1.679077e+002 -6.161338e+001 1.594791e+002 -3.775783e+000 3.202270e+001
6101718750 -1.061933e+000 -1.590888e+002 -6.368782e+001 1.627169e+002 -6.135247e+001 1.662665e+002 -3.771377e+000 3.079404e+001
6120462500 -1.063662e+000 -1.595251e+002 -6.306242e+001 1.564169e+002 -6.123026e+001 1.674230e+002 -3.772817e+000 2.964733e+001
6139206250 -1.076861e+000 -1.599614e+002 -6.322458e+001 1.563257e+002 -6.124328e+001 1.647464e+002 -3.775578e+000 2.839197e+001
6157950000 -1.078441e+000 -1.604356e+002 -6.314554e+001 1.557487e+002 -6.095448e+001 1.624133e+002 -3.770278e+000 2.714737e+001
6176693750 -1.082192e+000 -1.608653e+002 -6.396881e+001 1.480428e+002 -6.111176e+001 1.600905e+002 -3.771414e+000 2.597568e+001
6195437500 -1.091428e+000 -1.613254e+002 -6.408629e+001 1.350649e+002 -6.082226e+001 1.590770e+002 -3.768383e+000 2.472592e+001
6214181250 -1.091997e+000 -1.617715e+002 -6.385196e+001 1.186899e+002 -6.098854e+001 1.553466e+002 -3.762808e+000 2.348901e+001
6232925000 -1.097129e+000 -1.622083e+002 -6.391831e+001 9.582068e+001 -6.146077e+001 1.512517e+002 -3.758878e+000 2.225247e+001
6251668750 -1.103113e+000 -1.626563e+002 -6.380074e+001 8.022182e+001 -6.147976e+001 1.528776e+002 -3.757531e+000 2.100101e+001
6270412500 -1.106385e+000 -1.631268e+002 -6.404340e+001 6.451118e+001 -6.136910e+001 1.534593e+002 -3.748983e+000 1.974155e+001
6289156250 -1.111401e+000 -1.635537e+002 -6.481311e+001 4.794347e+001 -6.197269e+001 1.583669e+002 -3.745890e+000 1.851132e+001
6307900000 -1.117752e+000 -1.639825e+002 -6.466098e+001 2.836757e+001 -6.203785e+001 1.585297e+002 -3.744706e+000 1.722263e+001
6326643750 -1.125539e+000 -1.644467e+002 -6.506417e+001 1.054086e+001 -6.229345e+001 1.585886e+002 -3.737005e+000 1.593713e+001
6345387500 -1.129127e+000 -1.648734e+002 -6.520306e+001 -5.338677e-001 -6.254286e+001 1.592026e+002 -3.730143e+000 1.467172e+001
6364131250 -1.137734e+000 -1.652902e+002 -6.536568e+001 -1.507839e+001 -6.270028e+001 1.623654e+002 -3.730041e+000 1.338018e+001
6382875000 -1.146702e+000 -1.657458e+002 -6.554193e+001 -3.153645e+001 -6.244272e+001 1.637786e+002 -3.722195e+000 1.209306e+001
6401618750 -1.152882e+000 -1.661848e+002 -6.560436e+001 -4.845010e+001 -6.208417e+001 1.646401e+002 -3.715970e+000 1.080426e+001
6420362500 -1.160350e+000 -1.666107e+002 -6.554162e+001 -6.659248e+001 -6.225425e+001 1.671702e+002 -3.712119e+000 9.495414e+000
6439106250 -1.169199e+000 -1.670558e+002 -6.547304e+001 -8.206307e+001 -6.278554e+001 1.683685e+002 -3.701461e+000 8.189032e+000
6457850000 -1.171210e+000 -1.674800e+002 -6.554954e+001 -9.741476e+001 -6.287661e+001 1.678101e+002 -3.696449e+000 6.886166e+000
6476593750 -1.178399e+000 -1.679115e+002 -6.554781e+001 -1.171435e+002 -6.309406e+001 1.663097e+002 -3.691374e+000 5.579670e+000
6495337500 -1.184819e+000 -1.683464e+002 -6.520420e+001 -1.333667e+002 -6.291924e+001 1.631195e+002 -3.679235e+000 4.258059e+000
6514081250 -1.188759e+000 -1.687890e+002 -6.521832e+001 -1.516243e+002 -6.327655e+001 1.488421e+002 -3.675237e+000 2.957253e+000
6532825000 -1.198648e+000 -1.692126e+002 -6.547952e+001 -1.717809e+002 -6.353621e+001 1.420348e+002 -3.667321e+000 1.628510e+000
6551568750 -1.204593e+000 -1.696518e+002 -6.541974e+001 1.682770e+002 -6.356948e+001 1.395845e+002 -3.655864e+000 2.900222e-001
6570312500 -1.209485e+000 -1.700869e+002 -6.526749e+001 1.505113e+002 -6.342021e+001 1.317692e+002 -3.649292e+000 -1.026338e+000
6589056250 -1.217960e+000 -1.705117e+002 -6.536733e+001 1.380922e+002 -6.361777e+001 1.314759e+002 -3.640857e+000 -2.383546e+000
6607800000 -1.223972e+000 -1.709548e+002 -6.464143e+001 1.289343e+002 -6.342218e+001 1.288589e+002 -3.628245e+000 -3.727148e+000
6626543750 -1.231709e+000 -1.713721e+002 -6.444960e+001 1.262642e+002 -6.348188e+001 1.297732e+002 -3.625094e+000 -5.090087e+000
6645287500 -1.240049e+000 -1.718191e+002 -6.456159e+001 1.263249e+002 -6.330349e+001 1.321217e+002 -3.613050e+000 -6.478898e+000
6664031250 -1.243164e+000 -1.722638e+002 -6.413599e+001 1.290948e+002 -6.282115e+001 1.347538e+002 -3.603587e+000 -7.793268e+000
6682775000 -1.251706e+000 -1.726778e+002 -6.422216e+001 1.293950e+002 -6.308416e+001 1.349028e+002 -3.598961e+000 -9.176954e+000
6701518750 -1.261907e+000 -1.731070e+002 -6.430455e+001 1.265212e+002 -6.314251e+001 1.306302e+002 -3.589556e+000 -1.057950e+001
6720262500 -1.266988e+000 -1.735661e+002 -6.347247e+001 1.251385e+002 -6.254608e+001 1.236205e+002 -3.579059e+000 -1.193561e+001
6739006250 -1.273399e+000 -1.740006e+002 -6.383696e+001 1.227301e+002 -6.258033e+001 1.207491e+002 -3.569590e+000 -1.329763e+001
6757750000 -1.282621e+000 -1.744288e+002 -6.387688e+001 1.250427e+002 -6.312635e+001 1.172812e+002 -3.558764e+000 -1.470267e+001
6776493750 -1.286009e+000 -1.748745e+002 -6.352554e+001 1.204847e+002 -6.324128e+001 1.113339e+002 -3.547147e+000 -1.606740e+001
6795237500 -1.291346e+000 -1.753098e+002 -6.312809e+001 1.221701e+002 -6.301651e+001 1.050856e+002 -3.538852e+000 -1.744824e+001
6813981250 -1.298914e+000 -1.757401e+002 -6.416280e+001 1.157089e+002 -6.316454e+001 1.035075e+002 -3.529299e+000 -1.887726e+001
6832725000 -1.303074e+000 -1.761926e+002 -6.413805e+001 1.144113e+002 -6.373174e+001 1.054510e+002 -3.517740e+000 -2.025793e+001
6851468750 -1.311071e+000 -1.766229e+002 -6.449248e+001 1.129682e+002 -6.344644e+001 1.019827e+002 -3.507159e+000 -2.165641e+001
6870212500 -1.317800e+000 -1.770606e+002 -6.482227e+001 1.136195e+002 -6.368211e+001 9.533631e+001 -3.496540e+000 -2.308085e+001
6888956250 -1.323447e+000 -1.775059e+002 -6.500330e+001 1.126766e+002 -6.401257e+001 9.417311e+001 -3.482864e+000 -2.448082e+001
6907700000 -1.330710e+000 -1.779249e+002 -6.508420e+001 1.109923e+002 -6.377835e+001 9.169267e+001 -3.471006e+000 -2.588728e+001
6926443750 -1.339985e+000 -1.783781e+002 -6.541204e+001 1.112173e+002 -6.375748e+001 9.184634e+001 -3.461245e+000 -2.731990e+001
6945187500 -1.347307e+000 -1.788278e+002 -6.611054e+001 1.115958e+002 -6.390568e+001 9.429939e+001 -3.446184e+000 -2.874881e+001
6963931250 -1.354275e+000 -1.792654e+002 -6.557428e+001 1.100367e+002 -6.458705e+001 9.589525e+001 -3.433914e+000 -3.016119e+001
6982675000 -1.362178e+000 -1.797144e+002 -6.569319e+001 1.096751e+002 -6.480610e+001 9.585633e+001 -3.424031e+000 -3.159712e+001
7001418750 -1.368142e+000 1.798505e+002 -6.583826e+001 1.090777e+002 -6.466447e+001 9.909885e+001 -3.409467e+000 -3.303193e+001
7020162500 -1.375349e+000 1.794284e+002 -6.619841e+001 1.045357e+002 -6.498314e+001 9.808953e+001 -3.398897e+000 -3.445502e+001
7038906250 -1.383970e+000 1.789849e+002 -6.641095e+001 1.028169e+002 -6.522532e+001 9.887247e+001 -3.388431e+000 -3.590695e+001
7057650000 -1.390585e+000 1.785485e+002 -6.653619e+001 9.977738e+001 -6.548908e+001 9.738275e+001 -3.372861e+000 -3.734509e+001
7076393750 -1.395368e+000 1.781130e+002 -6.666458e+001 1.037006e+002 -6.563641e+001 9.837433e+001 -3.362089e+000 -3.877605e+001
7095137500 -1.403937e+000 1.776701e+002 -6.724556e+001 1.026073e+002 -6.571298e+001 9.261721e+001 -3.350235e+000 -4.023462e+001
7113881250 -1.408889e+000 1.772308e+002 -6.748952e+001 9.924306e+001 -6.581717e+001 8.655440e+001 -3.336573e+000 -4.169495e+001
7132625000 -1.416481e+000 1.768052e+002 -6.729197e+001 1.033181e+002 -6.634441e+001 8.895790e+001 -3.325158e+000 -4.313502e+001
7151368750 -1.425702e+000 1.763691e+002 -6.797623e+001 1.061000e+002 -6.677628e+001 9.011623e+001 -3.312912e+000 -4.461582e+001
7170112500 -1.432439e+000 1.759364e+002 -6.777343e+001 1.061329e+002 -6.759393e+001 8.830061e+001 -3.298939e+000 -4.607282e+001
7188856250 -1.441096e+000 1.755093e+002 -6.740758e+001 1.036071e+002 -6.721008e+001 9.074797e+001 -3.286530e+000 -4.752637e+001
7207600000 -1.448166e+000 1.750607e+002 -6.753465e+001 1.096183e+002 -6.703743e+001 9.629842e+001 -3.275737e+000 -4.900161e+001
7226343750 -1.455092e+000 1.746342e+002 -6.759521e+001 1.082441e+002 -6.718675e+001 9.675510e+001 -3.258475e+000 -5.047190e+001
7245087500 -1.464299e+000 1.742279e+002 -6.696863e+001 1.107765e+002 -6.731448e+001 9.677476e+001 -3.244833e+000 -5.193551e+001
7263831250 -1.471632e+000 1.737883e+002 -6.699861e+001 1.110520e+002 -6.731626e+001 9.230421e+001 -3.231737e+000 -5.343356e+001
7282575000 -1.477790e+000 1.733446e+002 -6.711730e+001 1.088450e+002 -6.781384e+001 9.149438e+001 -3.217173e+000 -5.489700e+001
7301318750 -1.486877e+000 1.729110e+002 -6.684665e+001 1.054818e+002 -6.719877e+001 9.151685e+001 -3.205052e+000 -5.637454e+001
7320062500 -1.492212e+000 1.724544e+002 -6.687579e+001 1.052345e+002 -6.734970e+001 9.191497e+001 -3.193077e+000 -5.788375e+001
7338806250 -1.500460e+000 1.720239e+002 -6.725044e+001 1.101277e+002 -6.729907e+001 9.104979e+001 -3.179252e+000 -5.935310e+001
7357550000 -1.508604e+000 1.716060e+002 -6.735435e+001 1.153393e+002 -6.749071e+001 8.792181e+001 -3.168376e+000 -6.084521e+001
7376293750 -1.514436e+000 1.711714e+002 -6.673676e+001 1.165511e+002 -6.702163e+001 9.415029e+001 -3.156675e+000 -6.234205e+001
7395037500 -1.520242e+000 1.707402e+002 -6.692011e+001 1.165302e+002 -6.702988e+001 8.886296e+001 -3.143850e+000 -6.381663e+001
7413781250 -1.529592e+000 1.703113e+002 -6.726521e+001 1.180476e+002 -6.690503e+001 8.914757e+001 -3.130856e+000 -6.533694e+001
7432525000 -1.537183e+000 1.698417e+002 -6.714849e+001 1.189722e+002 -6.728665e+001 8.447424e+001 -3.114886e+000 -6.682676e+001
7451268750 -1.542222e+000 1.694054e+002 -6.665118e+001 1.217471e+002 -6.706996e+001 7.320638e+001 -3.101412e+000 -6.829813e+001
7470012500 -1.548719e+000 1.689839e+002 -6.683197e+001 1.226070e+002 -6.704675e+001 6.037492e+001 -3.089162e+000 -6.981859e+001
7488756250 -1.557177e+000 1.685216e+002 -6.702724e+001 1.206868e+002 -6.710475e+001 4.400431e+001 -3.074566e+000 -7.131988e+001
7507500000 -1.565013e+000 1.680824e+002 -6.701491e+001 1.090537e+002 -6.770415e+001 3.279356e+001 -3.060377e+000 -7.280936e+001
7526243750 -1.572598e+000 1.676485e+002 -6.684915e+001 9.655737e+001 -6.773444e+001 3.069301e+001 -3.047853e+000 -7.432657e+001
7544987500 -1.581142e+000 1.671880e+002 -6.659547e+001 8.293817e+001 -6.752798e+001 3.370373e+001 -3.035037e+000 -7.581479e+001
7563731250 -1.587180e+000 1.667581e+002 -6.653346e+001 6.153415e+001 -6.746252e+001 3.316339e+001 -3.022906e+000 -7.730634e+001
7582475000 -1.594088e+000 1.663335e+002 -6.597922e+001 4.001394e+001 -6.700056e+001 3.877065e+001 -3.009962e+000 -7.881450e+001
7601218750 -1.601663e+000 1.658668e+002 -6.621594e+001 2.490937e+001 -6.678213e+001 4.763935e+001 -2.997201e+000 -8.031231e+001
7619962500 -1.607645e+000 1.654227e+002 -6.628966e+001 1.033793e+001 -6.700786e+001 4.478388e+001 -2.985693e+000 -8.180774e+001
7638706250 -1.615582e+000 1.649767e+002 -6.606736e+001 -1.260574e+001 -6.698705e+001 4.606983e+001 -2.972745e+000 -8.331747e+001
7657450000 -1.622062e+000 1.645130e+002 -6.609595e+001 -3.258704e+001 -6.706747e+001 4.591756e+001 -2.962979e+000 -8.482006e+001
7676193750 -1.626691e+000 1.640692e+002 -6.581814e+001 -4.369344e+001 -6.782237e+001 3.944505e+001 -2.950654e+000 -8.631633e+001
7694937500 -1.634482e+000 1.636316e+002 -6.654147e+001 -5.768450e+001 -6.758391e+001 2.639119e+001 -2.939041e+000 -8.781734e+001
7713681250 -1.641082e+000 1.631769e+002 -6.654377e+001 -6.109636e+001 -6.705373e+001 1.327044e+001 -2.927982e+000 -8.931564e+001
7732425000 -1.647639e+000 1.627496e+002 -6.690417e+001 -7.408988e+001 -6.749803e+001 1.766992e+000 -2.914757e+000 -9.081777e+001
7751168750 -1.657327e+000 1.623076e+002 -6.675296e+001 -8.092825e+001 -6.720676e+001 -1.652634e+001 -2.904142e+000 -9.231489e+001
7769912500 -1.664603e+000 1.618495e+002 -6.668793e+001 -9.646524e+001 -6.708817e+001 -2.799195e+001 -2.894791e+000 -9.382005e+001
7788656250 -1.671011e+000 1.614189e+002 -6.698418e+001 -1.151507e+002 -6.690050e+001 -3.591759e+001 -2.879788e+000 -9.532157e+001
7807400000 -1.679523e+000 1.609767e+002 -6.700914e+001 -1.370699e+002 -6.707432e+001 -5.509642e+001 -2.869077e+000 -9.682479e+001
7826143750 -1.688225e+000 1.605251e+002 -6.710587e+001 -1.542556e+002 -6.651515e+001 -6.226934e+001 -2.858238e+000 -9.832153e+001
7844887500 -1.695449e+000 1.600856e+002 -6.694439e+001 -1.710901e+002 -6.660307e+001 -7.423126e+001 -2.844995e+000 -9.979449e+001
7863631250 -1.703145e+000 1.596476e+002 -6.725464e+001 1.737018e+002 -6.623575e+001 -8.586768e+001 -2.838774e+000 -1.012907e+002
7882375000 -1.713070e+000 1.591949e+002 -6.726647e+001 1.592062e+002 -6.645150e+001 -9.071214e+001 -2.826616e+000 -1.027779e+002
7901118750 -1.721886e+000 1.587509e+002 -6.666532e+001 1.443042e+002 -6.674856e+001 -9.038100e+001 -2.814618e+000 -1.042623e+002
7919862500 -1.728313e+000 1.583218e+002 -6.674197e+001 1.394988e+002 -6.677834e+001 -9.306224e+001 -2.805455e+000 -1.057517e+002
7938606250 -1.738991e+000 1.578774e+002 -6.665414e+001 1.312740e+002 -6.637038e+001 -9.523650e+001 -2.795810e+000 -1.072129e+002
7957350000 -1.747397e+000 1.574175e+002 -6.706242e+001 1.309857e+002 -6.624575e+001 -1.005558e+002 -2.783895e+000 -1.086911e+002
7976093750 -1.753956e+000 1.569729e+002 -6.699552e+001 1.308567e+002 -6.605351e+001 -1.134691e+002 -2.775352e+000 -1.101787e+002
7994837500 -1.763176e+000 1.565205e+002 -6.689292e+001 1.349591e+002 -6.579910e+001 -1.270750e+002 -2.763350e+000 -1.116279e+002
8013581250 -1.769765e+000 1.560651e+002 -6.686543e+001 1.407874e+002 -6.594501e+001 -1.514455e+002 -2.753884e+000 -1.130995e+002
8032325000 -1.775843e+000 1.556311e+002 -6.687725e+001 1.503543e+002 -6.536467e+001 -1.728703e+002 -2.747624e+000 -1.145415e+002
8051068750 -1.787177e+000 1.551999e+002 -6.713074e+001 1.598045e+002 -6.522420e+001 1.715461e+002 -2.736287e+000 -1.159994e+002
8069812500 -1.796079e+000 1.547300e+002 -6.720640e+001 1.779212e+002 -6.543882e+001 1.514551e+002 -2.730678e+000 -1.174549e+002
8088556250 -1.804099e+000 1.542763e+002 -6.688752e+001 -1.618016e+002 -6.514583e+001 1.356106e+002 -2.721659e+000 -1.188963e+002
8107300000 -1.814619e+000 1.538196e+002 -6.665344e+001 -1.495817e+002 -6.463718e+001 1.272958e+002 -2.710819e+000 -1.203448e+002
8126043750 -1.822176e+000 1.533705e+002 -6.613773e+001 -1.314915e+002 -6.479836e+001 1.235876e+002 -2.703538e+000 -1.217822e+002
8144787500 -1.829590e+000 1.529379e+002 -6.584376e+001 -1.255102e+002 -6.538493e+001 1.218436e+002 -2.697605e+000 -1.232187e+002
8163531250 -1.841329e+000 1.524894e+002 -6.551028e+001 -1.105581e+002 -6.576599e+001 1.242381e+002 -2.688239e+000 -1.246530e+002
8182275000 -1.849931e+000 1.520226e+002 -6.546455e+001 -1.069061e+002 -6.585598e+001 1.323358e+002 -2.681128e+000 -1.260542e+002
8201018750 -1.855532e+000 1.515577e+002 -6.515590e+001 -9.243608e+001 -6.644818e+001 1.378535e+002 -2.674015e+000 -1.274889e+002
8219762500 -1.865046e+000 1.511049e+002 -6.462363e+001 -7.973650e+001 -6.653307e+001 1.469098e+002 -2.666802e+000 -1.288957e+002
8238506250 -1.873294e+000 1.506365e+002 -6.439172e+001 -5.958177e+001 -6.667638e+001 1.589807e+002 -2.660045e+000 -1.302878e+002
8257250000 -1.881243e+000 1.501946e+002 -6.410093e+001 -4.011930e+001 -6.637510e+001 1.697404e+002 -2.655041e+000 -1.317021e+002
8275993750 -1.890678e+000 1.497511e+002 -6.371779e+001 -2.651106e+001 -6.633131e+001 -1.777576e+002 -2.647705e+000 -1.331045e+002
8294737500 -1.899853e+000 1.492900e+002 -6.318686e+001 -1.333845e+001 -6.703891e+001 -1.625002e+002 -2.643614e+000 -1.344918e+002
8313481250 -1.908455e+000 1.488362e+002 -6.325291e+001 -1.401333e+000 -6.704556e+001 -1.438869e+002 -2.639010e+000 -1.359026e+002
8332225000 -1.915749e+000 1.484022e+002 -6.398002e+001 1.457421e+001 -6.679430e+001 -1.324389e+002 -2.631157e+000 -1.372780e+002
8350968750 -1.924010e+000 1.479419e+002 -6.342889e+001 2.265618e+001 -6.669695e+001 -1.130566e+002 -2.628746e+000 -1.386419e+002
8369712500 -1.932037e+000 1.474987e+002 -6.327556e+001 3.808713e+001 -6.722177e+001 -9.992418e+001 -2.625054e+000 -1.400301e+002
8388456250 -1.941634e+000 1.470573e+002 -6.246827e+001 5.024392e+001 -6.738709e+001 -9.050874e+001 -2.619983e+000 -1.414051e+002
8407200000 -1.951102e+000 1.465833e+002 -6.252983e+001 6.378427e+001 -6.753883e+001 -7.847597e+001 -2.616695e+000 -1.427472e+002
8425943750 -1.959554e+000 1.461321e+002 -6.294693e+001 7.586399e+001 -6.805088e+001 -6.792056e+001 -2.614262e+000 -1.441250e+002
8444687500 -1.967625e+000 1.456743e+002 -6.285530e+001 8.497590e+001 -6.796790e+001 -5.419023e+001 -2.610916e+000 -1.454778e+002
8463431250 -1.975511e+000 1.452149e+002 -6.250991e+001 8.790130e+001 -6.822025e+001 -3.914948e+001 -2.605053e+000 -1.468301e+002
8482175000 -1.983427e+000 1.447592e+002 -6.236535e+001 9.368523e+001 -6.794463e+001 -2.650684e+001 -2.604887e+000 -1.481676e+002
8500918750 -1.993566e+000 1.443218e+002 -6.228977e+001 9.191430e+001 -6.776912e+001 -1.349789e+001 -2.598166e+000 -1.495087e+002
8519662500 -2.001230e+000 1.438474e+002 -6.265625e+001 8.637749e+001 -6.799373e+001 -2.007931e+000 -2.595796e+000 -1.508356e+002
8538406250 -2.011642e+000 1.433954e+002 -6.345734e+001 8.518333e+001 -6.764552e+001 1.328027e+001 -2.598400e+000 -1.521535e+002
8557150000 -2.020581e+000 1.429261e+002 -6.346564e+001 7.838068e+001 -6.726803e+001 2.721975e+001 -2.596443e+000 -1.534686e+002
8575893750 -2.029561e+000 1.424539e+002 -6.345017e+001 7.871279e+001 -6.687232e+001 4.029433e+001 -2.593999e+000 -1.547689e+002
8594637500 -2.038913e+000 1.420138e+002 -6.376200e+001 7.976160e+001 -6.622720e+001 5.056734e+001 -2.596720e+000 -1.560701e+002
8613381250 -2.049603e+000 1.415546e+002 -6.367517e+001 8.037872e+001 -6.606728e+001 5.530441e+001 -2.594662e+000 -1.573699e+002
8632125000 -2.060035e+000 1.410831e+002 -6.372777e+001 7.580118e+001 -6.586021e+001 5.565269e+001 -2.594156e+000 -1.586404e+002
8650868750 -2.068713e+000 1.406361e+002 -6.376287e+001 7.066457e+001 -6.577957e+001 5.257654e+001 -2.597833e+000 -1.599286e+002
8669612500 -2.077640e+000 1.401753e+002 -6.426002e+001 6.424696e+001 -6.564611e+001 5.428090e+001 -2.598263e+000 -1.612149e+002
8688356250 -2.086525e+000 1.397154e+002 -6.414393e+001 6.033213e+001 -6.583614e+001 5.248710e+001 -2.599769e+000 -1.624869e+002
8707100000 -2.095330e+000 1.392662e+002 -6.438689e+001 5.582551e+001 -6.626833e+001 4.306068e+001 -2.604341e+000 -1.637531e+002
8725843750 -2.105444e+000 1.387861e+002 -6.511572e+001 4.605133e+001 -6.563680e+001 3.791682e+001 -2.603575e+000 -1.650140e+002
8744587500 -2.111851e+000 1.383072e+002 -6.555506e+001 4.497344e+001 -6.516074e+001 3.051996e+001 -2.610458e+000 -1.662555e+002
8763331250 -2.120908e+000 1.378359e+002 -6.498016e+001 3.973541e+001 -6.549874e+001 2.881508e+001 -2.617843e+000 -1.675210e+002
8782075000 -2.129151e+000 1.373614e+002 -6.520533e+001 3.638745e+001 -6.554106e+001 2.369132e+001 -2.618596e+000 -1.687675e+002
8800818750 -2.136714e+000 1.368911e+002 -6.558371e+001 3.081862e+001 -6.496265e+001 1.988250e+001 -2.623549e+000 -1.700086e+002
8819562500 -2.147009e+000 1.364498e+002 -6.566495e+001 2.442180e+001 -6.476087e+001 1.588366e+001 -2.630417e+000 -1.712523e+002
8838306250 -2.158837e+000 1.359762e+002 -6.560287e+001 1.984716e+001 -6.553786e+001 7.817678e+000 -2.631408e+000 -1.724775e+002
8857050000 -2.165985e+000 1.354975e+002 -6.544364e+001 1.569482e+001 -6.535818e+001 -2.798378e+000 -2.639185e+000 -1.737027e+002
8875793750 -2.176648e+000 1.350391e+002 -6.546512e+001 1.189590e+001 -6.517846e+001 -6.181361e+000 -2.644933e+000 -1.749413e+002
8894537500 -2.186738e+000 1.345615e+002 -6.553791e+001 3.193062e+000 -6.501933e+001 -1.231643e+001 -2.649339e+000 -1.761462e+002
8913281250 -2.193440e+000 1.340966e+002 -6.535983e+001 -1.584021e+001 -6.522052e+001 -2.087260e+001 -2.659431e+000 -1.773525e+002
8932025000 -2.201908e+000 1.336422e+002 -6.558664e+001 -3.933881e+001 -6.543943e+001 -3.116291e+001 -2.668643e+000 -1.785723e+002
8950768750 -2.213125e+000 1.331650e+002 -6.534838e+001 -6.052982e+001 -6.525048e+001 -4.435415e+001 -2.672478e+000 -1.797595e+002
8969512500 -2.219440e+000 1.326928e+002 -6.499101e+001 -8.487254e+001 -6.561069e+001 -5.559177e+001 -2.683417e+000 1.790459e+002
8988256250 -2.227831e+000 1.322176e+002 -6.492198e+001 -1.108626e+002 -6.632668e+001 -5.816222e+001 -2.690278e+000 1.778279e+002
9007000000 -2.237081e+000 1.317551e+002 -6.501176e+001 -1.434061e+002 -6.672718e+001 -6.397369e+001 -2.694661e+000 1.766507e+002
9025743750 -2.244168e+000 1.312850e+002 -6.482090e+001 1.750283e+002 -6.680673e+001 -7.068207e+001 -2.705308e+000 1.754678e+002
9044487500 -2.253976e+000 1.308353e+002 -6.511627e+001 1.448750e+002 -6.686491e+001 -7.363589e+001 -2.714104e+000 1.742608e+002
9063231250 -2.262472e+000 1.303659e+002 -6.499989e+001 1.228009e+002 -6.659807e+001 -7.498353e+001 -2.720288e+000 1.730954e+002
9081975000 -2.272044e+000 1.298849e+002 -6.491617e+001 1.003269e+002 -6.653734e+001 -7.885905e+001 -2.733028e+000 1.719126e+002
9100718750 -2.281310e+000 1.294168e+002 -6.513630e+001 7.466053e+001 -6.665102e+001 -8.609268e+001 -2.739259e+000 1.707245e+002
9119462500 -2.287609e+000 1.289324e+002 -6.539667e+001 4.744217e+001 -6.680141e+001 -9.471230e+001 -2.746742e+000 1.695860e+002
9138206250 -2.296426e+000 1.284758e+002 -6.539949e+001 2.703492e+001 -6.612556e+001 -1.013497e+002 -2.760722e+000 1.684169e+002
9156950000 -2.305248e+000 1.280204e+002 -6.501748e+001 1.418034e+001 -6.630705e+001 -1.092295e+002 -2.767789e+000 1.672487e+002
9175693750 -2.315430e+000 1.275341e+002 -6.486573e+001 -1.256594e+001 -6.643716e+001 -1.101713e+002 -2.773461e+000 1.661079e+002
9194437500 -2.324930e+000 1.270720e+002 -6.511032e+001 -3.459639e+001 -6.724580e+001 -1.093386e+002 -2.786961e+000 1.649544e+002
9213181250 -2.334423e+000 1.265933e+002 -6.511125e+001 -5.526272e+001 -6.753221e+001 -1.073193e+002 -2.793426e+000 1.638055e+002
9231925000 -2.343624e+000 1.261144e+002 -6.479850e+001 -7.225811e+001 -6.794753e+001 -1.012136e+002 -2.803157e+000 1.626866e+002
9250668750 -2.348770e+000 1.256541e+002 -6.519176e+001 -8.227776e+001 -6.839994e+001 -9.389980e+001 -2.816506e+000 1.615474e+002
9269412500 -2.360098e+000 1.251854e+002 -6.557529e+001 -9.739784e+001 -6.785940e+001 -8.094625e+001 -2.823621e+000 1.604166e+002
9288156250 -2.368517e+000 1.246926e+002 -6.568842e+001 -1.179122e+002 -6.783845e+001 -6.226976e+001 -2.835655e+000 1.593037e+002
9306900000 -2.376826e+000 1.242137e+002 -6.586081e+001 -1.418848e+002 -6.801203e+001 -4.988662e+001 -2.849295e+000 1.581740e+002
9325643750 -2.386626e+000 1.237372e+002 -6.592494e+001 -1.590970e+002 -6.815188e+001 -3.890547e+001 -2.856509e+000 1.570473e+002
9344387500 -2.394410e+000 1.232559e+002 -6.577253e+001 -1.638330e+002 -6.839520e+001 -1.717243e+001 -2.867262e+000 1.559375e+002
9363131250 -2.402410e+000 1.227983e+002 -6.639114e+001 -1.608687e+002 -6.823512e+001 2.463167e-001 -2.880020e+000 1.548085e+002
9381875000 -2.414133e+000 1.223353e+002 -6.640532e+001 -1.494946e+002 -6.859645e+001 2.342620e+001 -2.888445e+000 1.537072e+002
9400618750 -2.422224e+000 1.218394e+002 -6.646349e+001 -1.338686e+002 -6.825091e+001 3.791943e+001 -2.900418e+000 1.526073e+002
9419362500 -2.431110e+000 1.213676e+002 -6.638567e+001 -1.149287e+002 -6.784663e+001 5.023679e+001 -2.912379e+000 1.514819e+002
9438106250 -2.441734e+000 1.208658e+002 -6.634750e+001 -9.376124e+001 -6.776919e+001 6.042939e+001 -2.919629e+000 1.503837e+002
9456850000 -2.448277e+000 1.203710e+002 -6.630099e+001 -6.545496e+001 -6.801062e+001 7.070383e+001 -2.934998e+000 1.493019e+002
9475593750 -2.453812e+000 1.199081e+002 -6.609167e+001 -4.472918e+001 -6.812782e+001 8.329790e+001 -2.948146e+000 1.481910e+002
9494337500 -2.466017e+000 1.194157e+002 -6.643863e+001 -2.977054e+001 -6.841179e+001 9.676189e+001 -2.955678e+000 1.471151e+002
9513081250 -2.473281e+000 1.189252e+002 -6.710423e+001 -6.607814e+000 -6.858743e+001 1.037082e+002 -2.967811e+000 1.460425e+002
9531825000 -2.480355e+000 1.184352e+002 -6.644551e+001 2.892058e+001 -6.836275e+001 1.166642e+002 -2.982118e+000 1.449454e+002
9550568750 -2.491634e+000 1.179412e+002 -6.708330e+001 6.815553e+001 -6.823760e+001 1.299393e+002 -2.989281e+000 1.438701e+002
9569312500 -2.497661e+000 1.174486e+002 -6.718932e+001 9.659230e+001 -6.825851e+001 1.485680e+002 -3.004004e+000 1.428142e+002
9588056250 -2.505184e+000 1.169840e+002 -6.797724e+001 1.255987e+002 -6.786845e+001 1.632493e+002 -3.017582e+000 1.417240e+002
9606800000 -2.518366e+000 1.165168e+002 -6.755603e+001 1.645865e+002 -6.780861e+001 1.717765e+002 -3.025994e+000 1.406647e+002
9625543750 -2.525577e+000 1.160131e+002 -6.737397e+001 -1.653070e+002 -6.707416e+001 1.724737e+002 -3.039873e+000 1.396059e+002
9644287500 -2.535633e+000 1.155305e+002 -6.715952e+001 -1.401049e+002 -6.653794e+001 1.764081e+002 -3.054401e+000 1.385250e+002
9663031250 -2.545282e+000 1.150383e+002 -6.715764e+001 -1.153392e+002 -6.572438e+001 1.738779e+002 -3.061464e+000 1.374690e+002
9681775000 -2.552872e+000 1.145328e+002 -6.721074e+001 -8.798772e+001 -6.536914e+001 1.746763e+002 -3.075616e+000 1.364342e+002
9700518750 -2.562005e+000 1.140730e+002 -6.693712e+001 -6.160846e+001 -6.498146e+001 1.737578e+002 -3.088804e+000 1.353503e+002
9719262500 -2.573962e+000 1.135745e+002 -6.648606e+001 -3.322128e+001 -6.510524e+001 1.739246e+002 -3.097924e+000 1.343184e+002
9738006250 -2.580710e+000 1.130887e+002 -6.700903e+001 4.319917e+000 -6.480987e+001 1.683613e+002 -3.114633e+000 1.332766e+002
9756750000 -2.592685e+000 1.125909e+002 -6.705740e+001 4.689127e+001 -6.487843e+001 1.682188e+002 -3.128974e+000 1.322122e+002
9775493750 -2.604200e+000 1.120744e+002 -6.721136e+001 8.634281e+001 -6.450990e+001 1.596631e+002 -3.137727e+000 1.311815e+002
9794237500 -2.613532e+000 1.115561e+002 -6.666880e+001 1.263070e+002 -6.426928e+001 1.558497e+002 -3.147531e+000 1.301601e+002
9812981250 -2.619537e+000 1.110800e+002 -6.656922e+001 1.585125e+002 -6.427421e+001 1.529316e+002 -3.164544e+000 1.291279e+002
9831725000 -2.631435e+000 1.106026e+002 -6.638008e+001 -1.728990e+002 -6.402114e+001 1.486526e+002 -3.176300e+000 1.280905e+002
9850468750 -2.643646e+000 1.100861e+002 -6.622757e+001 -1.494347e+002 -6.381115e+001 1.447338e+002 -3.188036e+000 1.270952e+002
9869212500 -2.645880e+000 1.095893e+002 -6.690620e+001 -1.253078e+002 -6.345372e+001 1.432804e+002 -3.203978e+000 1.260971e+002
9887956250 -2.653729e+000 1.091157e+002 -6.708018e+001 -9.490372e+001 -6.342967e+001 1.438917e+002 -3.219606e+000 1.250746e+002
9906700000 -2.667846e+000 1.086042e+002 -6.682310e+001 -6.783198e+001 -6.357811e+001 1.350276e+002 -3.231778e+000 1.240307e+002
9925443750 -2.670532e+000 1.081237e+002 -6.630669e+001 -3.981978e+001 -6.311728e+001 1.319143e+002 -3.246797e+000 1.230462e+002
9944187500 -2.683299e+000 1.076563e+002 -6.572261e+001 -1.832719e+001 -6.294268e+001 1.341306e+002 -3.265817e+000 1.220321e+002
9962931250 -2.699373e+000 1.071382e+002 -6.544863e+001 -5.700192e+000 -6.275415e+001 1.299493e+002 -3.278180e+000 1.209966e+002
9981675000 -2.701668e+000 1.066316e+002 -6.509540e+001 1.889066e+000 -6.260874e+001 1.273182e+002 -3.292243e+000 1.200088e+002
10000418750 -2.713552e+000 1.061476e+002 -6.489388e+001 1.802148e+001 -6.269761e+001 1.240620e+002 -3.307662e+000 1.189976e+002
10019162500 -2.726452e+000 1.056381e+002 -6.384934e+001 2.572816e+001 -6.318155e+001 1.240541e+002 -3.320776e+000 1.179819e+002
10037906250 -2.729024e+000 1.051352e+002 -6.445591e+001 3.581786e+001 -6.376046e+001 1.162956e+002 -3.337022e+000 1.170096e+002
10056650000 -2.743720e+000 1.046672e+002 -6.460458e+001 4.658351e+001 -6.326924e+001 1.156886e+002 -3.354940e+000 1.159932e+002
10075393750 -2.758225e+000 1.041434e+002 -6.466756e+001 6.007261e+001 -6.343323e+001 1.142082e+002 -3.368663e+000 1.149814e+002
10094137500 -2.761745e+000 1.036223e+002 -6.540440e+001 7.684135e+001 -6.348796e+001 1.114300e+002 -3.385676e+000 1.139930e+002
10112881250 -2.775220e+000 1.031502e+002 -6.493865e+001 8.095876e+001 -6.368058e+001 1.095855e+002 -3.403101e+000 1.129720e+002
10131625000 -2.783634e+000 1.026139e+002 -6.523421e+001 9.528345e+001 -6.379944e+001 1.072473e+002 -3.416509e+000 1.119855e+002
10150368750 -2.787668e+000 1.021265e+002 -6.543729e+001 1.120917e+002 -6.317191e+001 1.029341e+002 -3.434683e+000 1.110047e+002
10169112500 -2.804841e+000 1.016445e+002 -6.548125e+001 1.252918e+002 -6.321023e+001 9.774268e+001 -3.447941e+000 1.099770e+002
10187856250 -2.814590e+000 1.011057e+002 -6.563239e+001 1.312187e+002 -6.278002e+001 9.551730e+001 -3.462110e+000 1.090000e+002
10206600000 -2.816655e+000 1.006070e+002 -6.573318e+001 1.289619e+002 -6.279562e+001 9.743163e+001 -3.481373e+000 1.080300e+002
10225343750 -2.830259e+000 1.001427e+002 -6.596108e+001 1.266980e+002 -6.292914e+001 9.646384e+001 -3.502115e+000 1.070144e+002
10244087500 -2.842849e+000 9.960294e+001 -6.612573e+001 1.225154e+002 -6.239077e+001 9.443192e+001 -3.511646e+000 1.060320e+002
10262831250 -2.848458e+000 9.909421e+001 -6.618177e+001 1.185586e+002 -6.253068e+001 9.570216e+001 -3.531233e+000 1.050740e+002
10281575000 -2.861801e+000 9.862760e+001 -6.645443e+001 1.218084e+002 -6.302717e+001 9.540461e+001 -3.549570e+000 1.040372e+002
10300318750 -2.879315e+000 9.808666e+001 -6.575327e+001 1.244183e+002 -6.324630e+001 9.434661e+001 -3.561219e+000 1.030402e+002
10319062500 -2.886261e+000 9.756374e+001 -6.585017e+001 1.208402e+002 -6.301262e+001 8.746410e+001 -3.575479e+000 1.020681e+002
10337806250 -2.893727e+000 9.706927e+001 -6.612324e+001 1.206959e+002 -6.312445e+001 9.156792e+001 -3.592775e+000 1.010895e+002
10356550000 -2.907162e+000 9.655009e+001 -6.628300e+001 1.192598e+002 -6.378489e+001 8.444139e+001 -3.607068e+000 1.000860e+002
10375293750 -2.913660e+000 9.603013e+001 -6.607824e+001 1.160971e+002 -6.404095e+001 7.122999e+001 -3.621181e+000 9.912673e+001
10394037500 -2.925066e+000 9.554195e+001 -6.666130e+001 1.117457e+002 -6.431860e+001 5.724125e+001 -3.638718e+000 9.814119e+001
10412781250 -2.938744e+000 9.500945e+001 -6.646079e+001 1.149797e+002 -6.436009e+001 4.336537e+001 -3.656164e+000 9.715593e+001
10431525000 -2.944463e+000 9.448118e+001 -6.641010e+001 1.124440e+002 -6.442696e+001 2.812212e+001 -3.670579e+000 9.619434e+001
10450268750 -2.953725e+000 9.397266e+001 -6.682195e+001 1.135361e+002 -6.413244e+001 1.649065e+001 -3.687736e+000 9.520692e+001
10469012500 -2.964174e+000 9.345537e+001 -6.677058e+001 1.088924e+002 -6.348668e+001 1.792219e+001 -3.701785e+000 9.423420e+001
10487756250 -2.972994e+000 9.293565e+001 -6.656033e+001 1.089704e+002 -6.373850e+001 8.895823e+000 -3.715423e+000 9.329240e+001
10506500000 -2.983929e+000 9.244099e+001 -6.680281e+001 1.067687e+002 -6.366225e+001 3.640949e+000 -3.731093e+000 9.231482e+001
10525243750 -2.993510e+000 9.190788e+001 -6.619707e+001 9.990755e+001 -6.423049e+001 2.342148e+000 -3.744496e+000 9.135735e+001
10543987500 -3.001047e+000 9.137775e+001 -6.676230e+001 1.046079e+002 -6.410249e+001 3.631803e+000 -3.758753e+000 9.041006e+001
10562731250 -3.012128e+000 9.087589e+001 -6.690942e+001 1.108501e+002 -6.461320e+001 -7.445538e-001 -3.777039e+000 8.944063e+001
10581475000 -3.020633e+000 9.035796e+001 -6.694471e+001 1.215715e+002 -6.499031e+001 -4.503722e-001 -3.791460e+000 8.847893e+001
10600218750 -3.029477e+000 8.984489e+001 -6.636414e+001 1.320554e+002 -6.544254e+001 3.776829e+000 -3.807651e+000 8.755483e+001
10618962500 -3.042838e+000 8.932610e+001 -6.595992e+001 1.430206e+002 -6.572083e+001 3.724768e+000 -3.822705e+000 8.657294e+001
10637706250 -3.052050e+000 8.878989e+001 -6.650430e+001 1.587360e+002 -6.639947e+001 7.869843e-001 -3.835802e+000 8.560575e+001
10656450000 -3.058873e+000 8.825609e+001 -6.623226e+001 1.638307e+002 -6.640187e+001 1.425249e+000 -3.849963e+000 8.467789e+001
10675193750 -3.070092e+000 8.773471e+001 -6.616312e+001 1.736983e+002 -6.643466e+001 -4.779703e+000 -3.868027e+000 8.370956e+001
10693937500 -3.077703e+000 8.720048e+001 -6.677320e+001 1.779869e+002 -6.669157e+001 -5.719867e+000 -3.880726e+000 8.277289e+001
10712681250 -3.084346e+000 8.669631e+001 -6.687820e+001 1.731300e+002 -6.640335e+001 -2.710429e+000 -3.896678e+000 8.184881e+001
10731425000 -3.096492e+000 8.616759e+001 -6.687305e+001 1.745959e+002 -6.630354e+001 9.878247e+000 -3.916674e+000 8.088209e+001
10750168750 -3.104422e+000 8.560891e+001 -6.701128e+001 1.721556e+002 -6.613493e+001 3.353465e+001 -3.927339e+000 7.994195e+001
10768912500 -3.113245e+000 8.507930e+001 -6.690685e+001 1.709652e+002 -6.588406e+001 5.137786e+001 -3.943595e+000 7.901416e+001
10787656250 -3.124068e+000 8.454472e+001 -6.754116e+001 1.733546e+002 -6.557906e+001 7.599962e+001 -3.961677e+000 7.805471e+001
10806400000 -3.130756e+000 8.400657e+001 -6.785767e+001 -1.774797e+002 -6.536516e+001 1.009184e+002 -3.975920e+000 7.711349e+001
10825143750 -3.138387e+000 8.348416e+001 -6.817335e+001 -1.637247e+002 -6.506523e+001 1.341441e+002 -3.991236e+000 7.619136e+001
10843887500 -3.152573e+000 8.294055e+001 -6.834222e+001 -1.545629e+002 -6.540003e+001 1.613678e+002 -4.004574e+000 7.523523e+001
10862631250 -3.160422e+000 8.237760e+001 -6.863874e+001 -1.353123e+002 -6.564352e+001 -1.632398e+002 -4.018950e+000 7.430460e+001
10881375000 -3.169965e+000 8.183516e+001 -6.846690e+001 -1.146499e+002 -6.608836e+001 -1.357093e+002 -4.035285e+000 7.337367e+001
10900118750 -3.181050e+000 8.128651e+001 -6.825562e+001 -9.561983e+001 -6.641042e+001 -1.114021e+002 -4.053027e+000 7.241409e+001
10918862500 -3.186556e+000 8.072593e+001 -6.876783e+001 -8.237602e+001 -6.689716e+001 -7.886882e+001 -4.068271e+000 7.147107e+001
10937606250 -3.195057e+000 8.019178e+001 -6.867574e+001 -6.246786e+001 -6.690947e+001 -5.473301e+001 -4.086602e+000 7.053787e+001
10956350000 -3.207413e+000 7.964321e+001 -6.850003e+001 -4.827794e+001 -6.669568e+001 -3.343285e+001 -4.104007e+000 6.957877e+001
10975093750 -3.215341e+000 7.908243e+001 -6.823123e+001 -3.861163e+001 -6.673805e+001 -1.138136e+001 -4.118831e+000 6.865635e+001
10993837500 -3.224592e+000 7.853025e+001 -6.773170e+001 -3.336197e+001 -6.648241e+001 9.518255e+000 -4.136744e+000 6.772469e+001
11012581250 -3.235162e+000 7.797305e+001 -6.798721e+001 -2.608063e+001 -6.626195e+001 2.757627e+001 -4.151433e+000 6.678429e+001
11031325000 -3.239477e+000 7.742112e+001 -6.773437e+001 -1.876093e+001 -6.587787e+001 4.720503e+001 -4.166307e+000 6.586070e+001
11050068750 -3.250150e+000 7.690923e+001 -6.786988e+001 -6.722973e+000 -6.630498e+001 6.838794e+001 -4.187207e+000 6.493557e+001
11068812500 -3.263353e+000 7.634940e+001 -6.753619e+001 3.073361e+000 -6.588945e+001 8.835311e+001 -4.201672e+000 6.399721e+001
11087556250 -3.271224e+000 7.578776e+001 -6.790451e+001 2.756790e+001 -6.618559e+001 1.135191e+002 -4.218512e+000 6.307803e+001
11106300000 -3.281624e+000 7.525012e+001 -6.778277e+001 5.383479e+001 -6.639845e+001 1.507050e+002 -4.237801e+000 6.212945e+001
11125043750 -3.291669e+000 7.469847e+001 -6.709752e+001 8.531799e+001 -6.623566e+001 -1.751774e+002 -4.253153e+000 6.116964e+001
11143787500 -3.298321e+000 7.413799e+001 -6.694097e+001 1.191014e+002 -6.591298e+001 -1.463960e+002 -4.271143e+000 6.025297e+001
11162531250 -3.310411e+000 7.362118e+001 -6.727299e+001 1.505018e+002 -6.555171e+001 -1.257256e+002 -4.289527e+000 5.931359e+001
11181275000 -3.322599e+000 7.304099e+001 -6.693784e+001 -1.735035e+002 -6.591620e+001 -1.137790e+002 -4.304251e+000 5.837011e+001
11200018750 -3.330766e+000 7.248922e+001 -6.705210e+001 -1.413573e+002 -6.570648e+001 -1.009713e+002 -4.320104e+000 5.747454e+001
11218762500 -3.343076e+000 7.193488e+001 -6.651981e+001 -1.192670e+002 -6.555069e+001 -8.604463e+001 -4.340071e+000 5.653973e+001
11237506250 -3.351133e+000 7.135531e+001 -6.634493e+001 -9.675430e+001 -6.588062e+001 -5.913660e+001 -4.354499e+000 5.559326e+001
11256250000 -3.358902e+000 7.082742e+001 -6.582223e+001 -7.724555e+001 -6.650600e+001 -4.489448e+001 -4.372292e+000 5.467646e+001
11274993750 -3.373184e+000 7.029983e+001 -6.569856e+001 -5.524215e+001 -6.648357e+001 -2.653819e+001 -4.395678e+000 5.373422e+001
11293737500 -3.384094e+000 6.971251e+001 -6.548447e+001 -3.675383e+001 -6.658942e+001 -1.081726e+001 -4.408933e+000 5.278014e+001
11312481250 -3.390997e+000 6.915547e+001 -6.550786e+001 -2.347440e+001 -6.644471e+001 7.548088e+000 -4.425527e+000 5.190067e+001
11331225000 -3.405500e+000 6.860220e+001 -6.610774e+001 -9.123893e+000 -6.632051e+001 2.207467e+001 -4.442744e+000 5.095965e+001
11349968750 -3.412316e+000 6.801727e+001 -6.573279e+001 9.537792e+000 -6.569221e+001 3.052877e+001 -4.457177e+000 5.002050e+001
11368712500 -3.420231e+000 6.747404e+001 -6.556755e+001 2.328221e+001 -6.602174e+001 4.320455e+001 -4.472860e+000 4.911173e+001
11387456250 -3.433290e+000 6.692088e+001 -6.541147e+001 4.527510e+001 -6.591921e+001 5.477374e+001 -4.490815e+000 4.817420e+001
11406200000 -3.442816e+000 6.632769e+001 -6.568761e+001 6.781049e+001 -6.649179e+001 5.690841e+001 -4.505530e+000 4.723520e+001
11424943750 -3.450664e+000 6.578252e+001 -6.569433e+001 8.268616e+001 -6.636841e+001 5.711633e+001 -4.523515e+000 4.631726e+001
11443687500 -3.462540e+000 6.520200e+001 -6.556815e+001 9.352386e+001 -6.650027e+001 5.948843e+001 -4.541885e+000 4.537010e+001
11462431250 -3.468562e+000 6.461544e+001 -6.558328e+001 1.050336e+002 -6.642772e+001 5.946450e+001 -4.556149e+000 4.443674e+001
11481175000 -3.476716e+000 6.405857e+001 -6.541291e+001 1.113447e+002 -6.649619e+001 5.465385e+001 -4.570568e+000 4.350461e+001
11499918750 -3.489317e+000 6.347585e+001 -6.511913e+001 1.182792e+002 -6.640313e+001 4.978086e+001 -4.589629e+000 4.254374e+001
11518662500 -3.494174e+000 6.288522e+001 -6.438914e+001 1.168630e+002 -6.602969e+001 4.294805e+001 -4.602686e+000 4.161097e+001
11537406250 -3.504243e+000 6.231322e+001 -6.467097e+001 1.160354e+002 -6.689153e+001 2.404714e+001 -4.619893e+000 4.068968e+001
11556150000 -3.513988e+000 6.170439e+001 -6.452362e+001 1.224492e+002 -6.686776e+001 8.925854e+000 -4.637007e+000 3.974387e+001
11574893750 -3.520935e+000 6.111412e+001 -6.431503e+001 1.402664e+002 -6.698736e+001 -8.889737e+000 -4.651429e+000 3.880348e+001
11593637500 -3.530229e+000 6.055728e+001 -6.389486e+001 1.568750e+002 -6.714520e+001 -2.290413e+001 -4.667696e+000 3.785982e+001
11612381250 -3.541279e+000 5.997758e+001 -6.356373e+001 1.725747e+002 -6.700653e+001 -4.058188e+001 -4.686087e+000 3.688787e+001
11631125000 -3.546492e+000 5.935894e+001 -6.347078e+001 -1.690983e+002 -6.729531e+001 -5.626831e+001 -4.700640e+000 3.594757e+001
11649868750 -3.556807e+000 5.881510e+001 -6.307728e+001 -1.456149e+002 -6.735100e+001 -7.167142e+001 -4.717651e+000 3.501809e+001
11668612500 -3.566717e+000 5.819471e+001 -6.300809e+001 -1.261823e+002 -6.702322e+001 -9.340201e+001 -4.732034e+000 3.405706e+001
11687356250 -3.571601e+000 5.759228e+001 -6.331360e+001 -1.065664e+002 -6.654415e+001 -1.105151e+002 -4.745850e+000 3.313768e+001
11706100000 -3.582383e+000 5.703382e+001 -6.347282e+001 -9.297447e+001 -6.624069e+001 -1.280909e+002 -4.760413e+000 3.218656e+001
11724843750 -3.592797e+000 5.642281e+001 -6.327715e+001 -8.132349e+001 -6.598113e+001 -1.570836e+002 -4.776004e+000 3.122018e+001
11743587500 -3.598633e+000 5.583905e+001 -6.293025e+001 -6.836171e+001 -6.625913e+001 1.692648e+002 -4.789460e+000 3.027676e+001
11762331250 -3.607876e+000 5.526125e+001 -6.241361e+001 -5.095022e+001 -6.616427e+001 1.382865e+002 -4.808776e+000 2.932650e+001
11781075000 -3.617689e+000 5.463156e+001 -6.217499e+001 -3.192334e+001 -6.609733e+001 1.084248e+002 -4.824935e+000 2.836751e+001
11799818750 -3.621034e+000 5.401722e+001 -6.227050e+001 -1.734137e+001 -6.578912e+001 7.278989e+001 -4.840230e+000 2.743478e+001
11818562500 -3.630014e+000 5.346859e+001 -6.299061e+001 7.581217e-001 -6.592414e+001 3.739187e+001 -4.858893e+000 2.647832e+001
11837306250 -3.644062e+000 5.286588e+001 -6.233503e+001 1.241812e+001 -6.560413e+001 2.709557e+000 -4.871996e+000 2.551802e+001
11856050000 -3.649867e+000 5.224311e+001 -6.248538e+001 3.482889e+001 -6.551130e+001 -2.558304e+001 -4.886394e+000 2.460339e+001
11874793750 -3.662060e+000 5.171159e+001 -6.242942e+001 5.138990e+001 -6.566180e+001 -6.110155e+001 -4.903845e+000 2.365184e+001
11893537500 -3.681932e+000 5.105638e+001 -6.267033e+001 6.399689e+001 -6.599134e+001 -8.946252e+001 -4.921921e+000 2.270876e+001
11912281250 -3.678566e+000 5.045520e+001 -6.305264e+001 8.353992e+001 -6.525795e+001 -1.215189e+002 -4.939590e+000 2.175527e+001
11931025000 -3.691525e+000 4.993134e+001 -6.310467e+001 1.061319e+002 -6.513497e+001 -1.512148e+002 -4.955192e+000 2.080544e+001
11949768750 -3.713907e+000 4.927628e+001 -6.341219e+001 1.250885e+002 -6.526621e+001 1.769830e+002 -4.971493e+000 1.985252e+001
11968512500 -3.708289e+000 4.866510e+001 -6.325779e+001 1.377722e+002 -6.424296e+001 1.502717e+002 -4.985497e+000 1.889006e+001
11987256250 -3.724101e+000 4.811804e+001 -6.385542e+001 1.458982e+002 -6.445892e+001 1.152170e+002 -5.000272e+000 1.794644e+001
12006000000 -3.740165e+000 4.745567e+001 -6.409064e+001 1.456892e+002 -6.446970e+001 8.453000e+001 -5.017076e+000 1.700878e+001
12024743750 -3.734568e+000 4.685228e+001 -6.451678e+001 1.470118e+002 -6.487093e+001 5.148777e+001 -5.033743e+000 1.604023e+001
12043487500 -3.752988e+000 4.630124e+001 -6.521188e+001 1.461890e+002 -6.466589e+001 2.461903e+001 -5.047267e+000 1.510189e+001
12062231250 -3.768392e+000 4.564854e+001 -6.508643e+001 1.429861e+002 -6.450271e+001 -2.586626e+000 -5.063359e+000 1.415340e+001
12080975000 -3.764925e+000 4.502038e+001 -6.566396e+001 1.395713e+002 -6.456915e+001 -3.359217e+001 -5.075751e+000 1.316842e+001
12099718750 -3.781978e+000 4.446402e+001 -6.631306e+001 1.400811e+002 -6.494430e+001 -6.474822e+001 -5.091928e+000 1.224065e+001
12118462500 -3.791241e+000 4.379912e+001 -6.595844e+001 1.378145e+002 -6.489118e+001 -9.641928e+001 -5.109731e+000 1.128266e+001
12137206250 -3.787034e+000 4.321089e+001 -6.561565e+001 1.383556e+002 -6.492321e+001 -1.307625e+002 -5.125072e+000 1.029959e+001
12155950000 -3.805645e+000 4.264718e+001 -6.579426e+001 1.337837e+002 -6.495364e+001 -1.577049e+002 -5.138171e+000 9.347832e+000
12174693750 -3.816887e+000 4.198438e+001 -6.587581e+001 1.334777e+002 -6.424778e+001 -1.733659e+002 -5.157415e+000 8.381986e+000
12193437500 -3.819005e+000 4.137988e+001 -6.546923e+001 1.307303e+002 -6.432141e+001 1.624451e+002 -5.171970e+000 7.384131e+000
12212181250 -3.839170e+000 4.080482e+001 -6.549294e+001 1.277032e+002 -6.463473e+001 1.417485e+002 -5.185748e+000 6.455477e+000
12230925000 -3.845480e+000 4.016401e+001 -6.568559e+001 1.303297e+002 -6.466608e+001 1.310951e+002 -5.204155e+000 5.482053e+000
12249668750 -3.852092e+000 3.956995e+001 -6.514385e+001 1.258229e+002 -6.472762e+001 1.160124e+002 -5.219071e+000 4.492444e+000
12268412500 -3.869124e+000 3.896186e+001 -6.530875e+001 1.255927e+002 -6.431441e+001 1.097197e+002 -5.231784e+000 3.544570e+000
12287156250 -3.874992e+000 3.831142e+001 -6.532968e+001 1.253130e+002 -6.496780e+001 1.087515e+002 -5.248756e+000 2.539569e+000
12305900000 -3.881074e+000 3.768906e+001 -6.511147e+001 1.221217e+002 -6.537401e+001 1.136363e+002 -5.258827e+000 1.544338e+000
12324643750 -3.892599e+000 3.708594e+001 -6.484732e+001 1.235499e+002 -6.520388e+001 1.137811e+002 -5.269385e+000 5.829416e-001
12343387500 -3.901811e+000 3.645339e+001 -6.472382e+001 1.205477e+002 -6.574197e+001 1.217842e+002 -5.285082e+000 -4.071092e-001
12362131250 -3.907999e+000 3.584151e+001 -6.446985e+001 1.153351e+002 -6.554761e+001 1.232339e+002 -5.297967e+000 -1.390404e+000
12380875000 -3.918935e+000 3.525630e+001 -6.448885e+001 1.173455e+002 -6.573199e+001 1.247281e+002 -5.309757e+000 -2.346088e+000
12399618750 -3.929849e+000 3.462786e+001 -6.492193e+001 1.236348e+002 -6.583467e+001 1.322066e+002 -5.325239e+000 -3.329415e+000
12418362500 -3.938036e+000 3.401967e+001 -6.446195e+001 1.224174e+002 -6.557319e+001 1.365416e+002 -5.336576e+000 -4.306116e+000
12437106250 -3.950349e+000 3.341312e+001 -6.411491e+001 1.216421e+002 -6.565178e+001 1.377071e+002 -5.350760e+000 -5.271761e+000
12455850000 -3.960378e+000 3.277187e+001 -6.411613e+001 1.261936e+002 -6.541792e+001 1.387277e+002 -5.364283e+000 -6.277006e+000
12474593750 -3.966714e+000 3.216260e+001 -6.375198e+001 1.287882e+002 -6.569685e+001 1.356835e+002 -5.374709e+000 -7.259554e+000
12493337500 -3.981090e+000 3.156608e+001 -6.379899e+001 1.353265e+002 -6.541532e+001 1.353198e+002 -5.385511e+000 -8.236638e+000
12512081250 -3.991451e+000 3.092226e+001 -6.383024e+001 1.397919e+002 -6.524583e+001 1.356105e+002 -5.397922e+000 -9.231452e+000
12530825000 -4.001143e+000 3.029870e+001 -6.311849e+001 1.420865e+002 -6.486386e+001 1.367208e+002 -5.407355e+000 -1.020521e+001
12549568750 -4.014240e+000 2.967888e+001 -6.340641e+001 1.422359e+002 -6.515549e+001 1.400390e+002 -5.420960e+000 -1.118648e+001
12568312500 -4.022247e+000 2.902643e+001 -6.340628e+001 1.412393e+002 -6.510736e+001 1.462617e+002 -5.433563e+000 -1.220672e+001
12587056250 -4.026276e+000 2.839853e+001 -6.338515e+001 1.448161e+002 -6.498488e+001 1.520993e+002 -5.445591e+000 -1.320269e+001
12605800000 -4.036545e+000 2.779006e+001 -6.346616e+001 1.474585e+002 -6.484344e+001 1.507315e+002 -5.450946e+000 -1.418433e+001
12624543750 -4.049331e+000 2.714879e+001 -6.377527e+001 1.518168e+002 -6.484483e+001 1.544753e+002 -5.459979e+000 -1.513339e+001
12643287500 -4.054081e+000 2.651015e+001 -6.394204e+001 1.554738e+002 -6.483813e+001 1.611279e+002 -5.469846e+000 -1.614046e+001
12662031250 -4.066511e+000 2.590491e+001 -6.368119e+001 1.568817e+002 -6.479130e+001 1.580620e+002 -5.477717e+000 -1.709979e+001
12680775000 -4.077213e+000 2.528546e+001 -6.360895e+001 1.572328e+002 -6.437158e+001 1.634821e+002 -5.489164e+000 -1.811060e+001
12699518750 -4.084877e+000 2.463910e+001 -6.368727e+001 1.583293e+002 -6.510757e+001 1.689437e+002 -5.494633e+000 -1.909775e+001
12718262500 -4.092205e+000 2.404006e+001 -6.344760e+001 1.548892e+002 -6.541769e+001 1.645688e+002 -5.504100e+000 -2.004956e+001
12737006250 -4.103365e+000 2.340608e+001 -6.352023e+001 1.593138e+002 -6.460674e+001 1.586902e+002 -5.514660e+000 -2.104279e+001
12755750000 -4.109651e+000 2.276311e+001 -6.387056e+001 1.553949e+002 -6.466347e+001 1.552919e+002 -5.521857e+000 -2.201059e+001
12774493750 -4.121299e+000 2.214041e+001 -6.351074e+001 1.562046e+002 -6.437351e+001 1.458644e+002 -5.533617e+000 -2.296315e+001
12793237500 -4.130256e+000 2.150786e+001 -6.369727e+001 1.562638e+002 -6.418818e+001 1.445827e+002 -5.541682e+000 -2.398391e+001
12811981250 -4.136487e+000 2.085195e+001 -6.368490e+001 1.550728e+002 -6.406035e+001 1.427773e+002 -5.545209e+000 -2.495830e+001
12830725000 -4.148059e+000 2.025738e+001 -6.380596e+001 1.500600e+002 -6.385351e+001 1.352166e+002 -5.554677e+000 -2.592008e+001
12849468750 -4.156527e+000 1.960951e+001 -6.371826e+001 1.490458e+002 -6.380287e+001 1.325557e+002 -5.560824e+000 -2.692802e+001
12868212500 -4.162532e+000 1.897716e+001 -6.387276e+001 1.509605e+002 -6.369481e+001 1.314856e+002 -5.564095e+000 -2.788623e+001
12886956250 -4.172678e+000 1.836272e+001 -6.356569e+001 1.432848e+002 -6.350146e+001 1.323718e+002 -5.575535e+000 -2.885105e+001
12905700000 -4.181140e+000 1.772493e+001 -6.348824e+001 1.405414e+002 -6.291228e+001 1.366625e+002 -5.582021e+000 -2.986218e+001
12924443750 -4.185456e+000 1.707858e+001 -6.354671e+001 1.374285e+002 -6.308185e+001 1.362791e+002 -5.584260e+000 -3.084253e+001
12943187500 -4.196529e+000 1.648082e+001 -6.344726e+001 1.349496e+002 -6.301014e+001 1.355858e+002 -5.592461e+000 -3.180767e+001
12961931250 -4.205228e+000 1.584298e+001 -6.331905e+001 1.321604e+002 -6.279689e+001 1.346670e+002 -5.593159e+000 -3.279910e+001
12980675000 -4.211919e+000 1.520511e+001 -6.313071e+001 1.358497e+002 -6.242462e+001 1.333683e+002 -5.594092e+000 -3.374865e+001
12999418750 -4.224923e+000 1.457985e+001 -6.305828e+001 1.365861e+002 -6.256939e+001 1.329441e+002 -5.601033e+000 -3.468804e+001
13018162500 -4.238503e+000 1.393913e+001 -6.280960e+001 1.382956e+002 -6.234442e+001 1.327583e+002 -5.601287e+000 -3.566093e+001
13036906250 -4.246803e+000 1.328405e+001 -6.279330e+001 1.387337e+002 -6.229224e+001 1.342974e+002 -5.606108e+000 -3.661702e+001
13055650000 -4.252729e+000 1.267645e+001 -6.238505e+001 1.341600e+002 -6.197251e+001 1.376854e+002 -5.609300e+000 -3.759793e+001
13074393750 -4.264885e+000 1.204056e+001 -6.217297e+001 1.319842e+002 -6.147991e+001 1.390798e+002 -5.606035e+000 -3.854517e+001
13093137500 -4.273581e+000 1.139310e+001 -6.208761e+001 1.307614e+002 -6.134345e+001 1.407648e+002 -5.611640e+000 -3.950268e+001
13111881250 -4.280488e+000 1.073600e+001 -6.179128e+001 1.317977e+002 -6.108685e+001 1.407785e+002 -5.612469e+000 -4.044455e+001
13130625000 -4.286938e+000 1.011843e+001 -6.137032e+001 1.314915e+002 -6.031914e+001 1.363835e+002 -5.613335e+000 -4.142842e+001
13149368750 -4.299019e+000 9.481916e+000 -6.117206e+001 1.293704e+002 -5.891477e+001 1.382876e+002 -5.610903e+000 -4.239936e+001
13168112500 -4.304012e+000 8.857674e+000 -6.087183e+001 1.295367e+002 -5.867105e+001 1.389180e+002 -5.610996e+000 -4.334066e+001
13186856250 -4.314405e+000 8.255702e+000 -6.043990e+001 1.360325e+002 -5.834249e+001 1.371147e+002 -5.609610e+000 -4.430619e+001
13205600000 -4.326208e+000 7.614980e+000 -6.057272e+001 1.349046e+002 -5.801956e+001 1.398802e+002 -5.608844e+000 -4.525820e+001
13224343750 -4.335289e+000 6.969398e+000 -6.030293e+001 1.370980e+002 -5.802127e+001 1.413983e+002 -5.607978e+000 -4.619839e+001
13243087500 -4.342967e+000 6.365979e+000 -5.983643e+001 1.361052e+002 -5.762136e+001 1.412459e+002 -5.606644e+000 -4.717791e+001
13261831250 -4.353484e+000 5.699905e+000 -5.912496e+001 1.365929e+002 -5.760550e+001 1.410793e+002 -5.603125e+000 -4.812410e+001
13280575000 -4.361631e+000 5.074245e+000 -5.869347e+001 1.373114e+002 -5.745653e+001 1.411243e+002 -5.601208e+000 -4.906068e+001
13299318750 -4.370489e+000 4.452973e+000 -5.845527e+001 1.351354e+002 -5.734428e+001 1.385363e+002 -5.596869e+000 -5.002495e+001
13318062500 -4.382810e+000 3.798707e+000 -5.807459e+001 1.361316e+002 -5.707074e+001 1.363202e+002 -5.593063e+000 -5.094983e+001
13336806250 -4.390146e+000 3.161406e+000 -5.775234e+001 1.371020e+002 -5.710896e+001 1.355786e+002 -5.591271e+000 -5.190342e+001
13355550000 -4.399240e+000 2.537780e+000 -5.737939e+001 1.366204e+002 -5.681955e+001 1.352676e+002 -5.588609e+000 -5.285737e+001
13374293750 -4.407661e+000 1.890289e+000 -5.690355e+001 1.372168e+002 -5.652503e+001 1.331924e+002 -5.583021e+000 -5.378245e+001
13393037500 -4.414367e+000 1.279821e+000 -5.692999e+001 1.356509e+002 -5.634465e+001 1.311211e+002 -5.581085e+000 -5.473663e+001
13411781250 -4.423840e+000 6.662166e-001 -5.645132e+001 1.324214e+002 -5.597805e+001 1.290305e+002 -5.576190e+000 -5.568435e+001
13430525000 -4.432938e+000 2.886952e-002 -5.632569e+001 1.321262e+002 -5.561828e+001 1.290643e+002 -5.573110e+000 -5.661887e+001
13449268750 -4.437904e+000 -5.922652e-001 -5.637814e+001 1.277161e+002 -5.548993e+001 1.290509e+002 -5.569963e+000 -5.757217e+001
13468012500 -4.445966e+000 -1.211844e+000 -5.596981e+001 1.261580e+002 -5.543171e+001 1.282979e+002 -5.564616e+000 -5.853580e+001
13486756250 -4.452309e+000 -1.841310e+000 -5.594584e+001 1.257661e+002 -5.517331e+001 1.261419e+002 -5.558585e+000 -5.947324e+001
13505500000 -4.456784e+000 -2.436406e+000 -5.577069e+001 1.243198e+002 -5.508171e+001 1.227610e+002 -5.555276e+000 -6.042979e+001
13524243750 -4.465330e+000 -3.056823e+000 -5.558117e+001 1.239714e+002 -5.497670e+001 1.215887e+002 -5.548230e+000 -6.138178e+001
13542987500 -4.474720e+000 -3.701190e+000 -5.565928e+001 1.214818e+002 -5.491919e+001 1.197665e+002 -5.541349e+000 -6.233351e+001
13561731250 -4.479622e+000 -4.334189e+000 -5.572466e+001 1.203582e+002 -5.468017e+001 1.191027e+002 -5.537610e+000 -6.329799e+001
13580475000 -4.486982e+000 -4.971720e+000 -5.569073e+001 1.204065e+002 -5.482993e+001 1.190017e+002 -5.530082e+000 -6.425359e+001
13599218750 -4.493598e+000 -5.622567e+000 -5.576759e+001 1.181450e+002 -5.472739e+001 1.172983e+002 -5.522795e+000 -6.520452e+001
13617962500 -4.494200e+000 -6.232575e+000 -5.564270e+001 1.137782e+002 -5.449582e+001 1.168141e+002 -5.518327e+000 -6.616619e+001
13636706250 -4.502031e+000 -6.859227e+000 -5.536869e+001 1.115146e+002 -5.427803e+001 1.136621e+002 -5.508902e+000 -6.710913e+001
13655450000 -4.507679e+000 -7.504887e+000 -5.530149e+001 1.084074e+002 -5.437226e+001 1.120159e+002 -5.504251e+000 -6.805104e+001
13674193750 -4.512244e+000 -8.129993e+000 -5.529131e+001 1.064727e+002 -5.438883e+001 1.112085e+002 -5.497833e+000 -6.903419e+001
13692937500 -4.518466e+000 -8.762817e+000 -5.520856e+001 1.045749e+002 -5.420567e+001 1.097299e+002 -5.489087e+000 -6.999299e+001
13711681250 -4.521506e+000 -9.398871e+000 -5.515163e+001 1.038073e+002 -5.414380e+001 1.086902e+002 -5.481515e+000 -7.095822e+001
13730425000 -4.523630e+000 -1.000182e+001 -5.514555e+001 1.022520e+002 -5.403672e+001 1.095002e+002 -5.475549e+000 -7.192075e+001
13749168750 -4.531363e+000 -1.061148e+001 -5.514909e+001 9.963102e+001 -5.416513e+001 1.084579e+002 -5.467781e+000 -7.287881e+001
13767912500 -4.536679e+000 -1.126091e+001 -5.540886e+001 9.660371e+001 -5.408401e+001 1.058949e+002 -5.458707e+000 -7.383786e+001
13786656250 -4.539304e+000 -1.188151e+001 -5.591177e+001 9.367696e+001 -5.404728e+001 1.025307e+002 -5.452805e+000 -7.480797e+001
13805400000 -4.548002e+000 -1.251602e+001 -5.580132e+001 9.291167e+001 -5.411944e+001 1.015138e+002 -5.444664e+000 -7.578397e+001
13824143750 -4.549440e+000 -1.315835e+001 -5.563249e+001 9.054285e+001 -5.422745e+001 1.011412e+002 -5.436178e+000 -7.677071e+001
13842887500 -4.552861e+000 -1.375905e+001 -5.569789e+001 8.943645e+001 -5.450794e+001 9.943057e+001 -5.430196e+000 -7.775732e+001
13861631250 -4.559272e+000 -1.438082e+001 -5.589740e+001 8.678399e+001 -5.447840e+001 9.641825e+001 -5.420338e+000 -7.872668e+001
13880375000 -4.562743e+000 -1.500938e+001 -5.594843e+001 8.755690e+001 -5.436663e+001 9.278638e+001 -5.412887e+000 -7.971728e+001
13899118750 -4.567369e+000 -1.563662e+001 -5.638525e+001 8.669421e+001 -5.444739e+001 9.066505e+001 -5.406091e+000 -8.069691e+001
13917862500 -4.572512e+000 -1.628187e+001 -5.658674e+001 8.476888e+001 -5.477276e+001 9.037777e+001 -5.396504e+000 -8.169173e+001
13936606250 -4.573093e+000 -1.691618e+001 -5.710727e+001 8.475940e+001 -5.484023e+001 8.942473e+001 -5.389338e+000 -8.270442e+001
13955350000 -4.576766e+000 -1.752628e+001 -5.735119e+001 8.243418e+001 -5.522781e+001 8.876794e+001 -5.381805e+000 -8.370018e+001
13974093750 -4.581033e+000 -1.813006e+001 -5.734252e+001 8.154348e+001 -5.558029e+001 8.989313e+001 -5.374986e+000 -8.470358e+001
13992837500 -4.582370e+000 -1.876169e+001 -5.758125e+001 8.000427e+001 -5.560495e+001 8.853177e+001 -5.370247e+000 -8.570915e+001
14011581250 -4.586312e+000 -1.938866e+001 -5.770985e+001 7.955134e+001 -5.567223e+001 8.712822e+001 -5.365427e+000 -8.672057e+001
14030325000 -4.590989e+000 -2.003141e+001 -5.785120e+001 7.788208e+001 -5.597641e+001 8.651307e+001 -5.357998e+000 -8.773685e+001
14049068750 -4.591584e+000 -2.067003e+001 -5.793573e+001 7.778598e+001 -5.620275e+001 8.540701e+001 -5.350968e+000 -8.876311e+001
14067812500 -4.592432e+000 -2.128675e+001 -5.827365e+001 7.815079e+001 -5.633901e+001 8.357360e+001 -5.344346e+000 -8.978519e+001
14086556250 -4.596219e+000 -2.191489e+001 -5.846225e+001 7.782776e+001 -5.618826e+001 8.220435e+001 -5.337143e+000 -9.083395e+001
14105300000 -4.595498e+000 -2.255981e+001 -5.859077e+001 7.734097e+001 -5.610119e+001 8.260265e+001 -5.334404e+000 -9.186819e+001
14124043750 -4.597993e+000 -2.319392e+001 -5.867535e+001 7.773092e+001 -5.640797e+001 8.349068e+001 -5.330496e+000 -9.292195e+001
14142787500 -4.599509e+000 -2.383284e+001 -5.886127e+001 7.940609e+001 -5.655135e+001 8.250310e+001 -5.326092e+000 -9.397552e+001
14161531250 -4.598237e+000 -2.448232e+001 -5.891236e+001 8.007251e+001 -5.659871e+001 8.342576e+001 -5.324040e+000 -9.503082e+001
14180275000 -4.598504e+000 -2.509977e+001 -5.922627e+001 8.168703e+001 -5.667561e+001 8.376462e+001 -5.320095e+000 -9.610143e+001
14199018750 -4.600263e+000 -2.572260e+001 -5.930390e+001 8.280437e+001 -5.699673e+001 8.185160e+001 -5.318554e+000 -9.718180e+001
14217762500 -4.600262e+000 -2.636462e+001 -5.900915e+001 8.472665e+001 -5.710068e+001 8.297497e+001 -5.319202e+000 -9.825253e+001
14236506250 -4.600400e+000 -2.700413e+001 -5.925541e+001 8.371109e+001 -5.724665e+001 8.314911e+001 -5.319674e+000 -9.934508e+001
14255250000 -4.599638e+000 -2.766439e+001 -5.940058e+001 8.442001e+001 -5.749390e+001 8.434914e+001 -5.322892e+000 -1.004413e+002
14273993750 -4.595231e+000 -2.831938e+001 -5.959309e+001 8.466833e+001 -5.752580e+001 8.492252e+001 -5.324621e+000 -1.015296e+002
14292737500 -4.595387e+000 -2.895355e+001 -5.930708e+001 8.580272e+001 -5.763578e+001 8.680730e+001 -5.327178e+000 -1.026251e+002
14311481250 -4.594700e+000 -2.959655e+001 -5.913021e+001 8.669135e+001 -5.787326e+001 8.946552e+001 -5.331602e+000 -1.037198e+002
14330225000 -4.592000e+000 -3.024692e+001 -5.887549e+001 8.533636e+001 -5.778892e+001 8.977813e+001 -5.338910e+000 -1.048390e+002
14348968750 -4.591727e+000 -3.089815e+001 -5.873547e+001 8.575217e+001 -5.765396e+001 8.812179e+001 -5.345135e+000 -1.059627e+002
14367712500 -4.590260e+000 -3.156932e+001 -5.839914e+001 8.582848e+001 -5.752887e+001 8.805640e+001 -5.353525e+000 -1.070744e+002
14386456250 -4.585665e+000 -3.224501e+001 -5.821733e+001 8.781271e+001 -5.725305e+001 8.807513e+001 -5.360731e+000 -1.081815e+002
14405200000 -4.584475e+000 -3.290365e+001 -5.835102e+001 8.773348e+001 -5.692488e+001 8.788522e+001 -5.368752e+000 -1.092855e+002
14423943750 -4.583369e+000 -3.355549e+001 -5.808067e+001 8.964946e+001 -5.704958e+001 8.886989e+001 -5.380572e+000 -1.104088e+002
14442687500 -4.580317e+000 -3.421427e+001 -5.791932e+001 8.969805e+001 -5.707730e+001 9.050594e+001 -5.392817e+000 -1.115263e+002
14461431250 -4.580145e+000 -3.487144e+001 -5.781032e+001 8.991584e+001 -5.686272e+001 8.910567e+001 -5.405146e+000 -1.126565e+002
14480175000 -4.579214e+000 -3.557008e+001 -5.784109e+001 9.042614e+001 -5.675493e+001 8.953626e+001 -5.419445e+000 -1.137813e+002
14498918750 -4.575537e+000 -3.624291e+001 -5.736864e+001 8.899287e+001 -5.669533e+001 9.067688e+001 -5.433595e+000 -1.149202e+002
14517662500 -4.572624e+000 -3.689804e+001 -5.705268e+001 8.905247e+001 -5.688678e+001 9.177267e+001 -5.450361e+000 -1.160421e+002
14536406250 -4.571229e+000 -3.757643e+001 -5.702785e+001 9.015336e+001 -5.686188e+001 9.083717e+001 -5.468435e+000 -1.171740e+002
14555150000 -4.568296e+000 -3.823824e+001 -5.689574e+001 8.916593e+001 -5.674508e+001 9.000769e+001 -5.487095e+000 -1.183118e+002
14573893750 -4.566902e+000 -3.891066e+001 -5.681916e+001 8.706087e+001 -5.672794e+001 9.112796e+001 -5.504887e+000 -1.194442e+002
14592637500 -4.564765e+000 -3.961002e+001 -5.660219e+001 8.743256e+001 -5.668557e+001 9.032248e+001 -5.526347e+000 -1.205663e+002
14611381250 -4.561786e+000 -4.030232e+001 -5.625255e+001 8.731279e+001 -5.645808e+001 8.963371e+001 -5.545080e+000 -1.216906e+002
14630125000 -4.558278e+000 -4.098627e+001 -5.590717e+001 8.582681e+001 -5.609821e+001 9.124178e+001 -5.568725e+000 -1.227951e+002
14648868750 -4.556183e+000 -4.167188e+001 -5.567281e+001 8.453266e+001 -5.595919e+001 8.963268e+001 -5.591926e+000 -1.239195e+002
14667612500 -4.553989e+000 -4.234861e+001 -5.558053e+001 8.518828e+001 -5.569153e+001 8.954269e+001 -5.613841e+000 -1.250502e+002
14686356250 -4.555684e+000 -4.303223e+001 -5.529613e+001 8.487080e+001 -5.530860e+001 8.748574e+001 -5.637028e+000 -1.261723e+002
14705100000 -4.555584e+000 -4.374802e+001 -5.494125e+001 8.357075e+001 -5.507627e+001 8.692493e+001 -5.664322e+000 -1.272999e+002
14723843750 -4.553788e+000 -4.442609e+001 -5.480717e+001 8.240244e+001 -5.488630e+001 8.553896e+001 -5.687446e+000 -1.284382e+002
14742587500 -4.554751e+000 -4.512425e+001 -5.463323e+001 7.981591e+001 -5.465410e+001 8.326216e+001 -5.715469e+000 -1.295622e+002
14761331250 -4.554953e+000 -4.581386e+001 -5.436928e+001 7.943732e+001 -5.462317e+001 8.321942e+001 -5.741178e+000 -1.306830e+002
14780075000 -4.557841e+000 -4.649598e+001 -5.407970e+001 7.909514e+001 -5.437324e+001 8.324023e+001 -5.770702e+000 -1.318091e+002
14798818750 -4.561160e+000 -4.720094e+001 -5.370596e+001 7.818530e+001 -5.426671e+001 8.193869e+001 -5.797713e+000 -1.329304e+002
14817562500 -4.562003e+000 -4.790592e+001 -5.355084e+001 7.655534e+001 -5.395872e+001 8.111151e+001 -5.828143e+000 -1.340822e+002
14836306250 -4.564996e+000 -4.859983e+001 -5.314586e+001 7.586446e+001 -5.385336e+001 7.893330e+001 -5.858545e+000 -1.352121e+002
14855050000 -4.567329e+000 -4.932843e+001 -5.299325e+001 7.343427e+001 -5.344804e+001 7.751445e+001 -5.889997e+000 -1.363319e+002
14873793750 -4.571097e+000 -5.003674e+001 -5.280622e+001 7.124619e+001 -5.314426e+001 7.489207e+001 -5.920025e+000 -1.374780e+002
14892537500 -4.573590e+000 -5.072480e+001 -5.250422e+001 6.902137e+001 -5.305148e+001 7.378347e+001 -5.955252e+000 -1.386075e+002
14911281250 -4.577110e+000 -5.143702e+001 -5.216422e+001 6.720650e+001 -5.278979e+001 7.112020e+001 -5.990950e+000 -1.397381e+002
14930025000 -4.578246e+000 -5.216373e+001 -5.208298e+001 6.576833e+001 -5.268309e+001 6.987223e+001 -6.027899e+000 -1.408757e+002
14948768750 -4.582108e+000 -5.285660e+001 -5.201487e+001 6.367915e+001 -5.224539e+001 6.695437e+001 -6.065553e+000 -1.419979e+002
14967512500 -4.586880e+000 -5.356710e+001 -5.178268e+001 6.103889e+001 -5.206617e+001 6.430539e+001 -6.105474e+000 -1.431172e+002
14986256250 -4.592883e+000 -5.428012e+001 -5.154065e+001 5.931625e+001 -5.166092e+001 6.164157e+001 -6.142222e+000 -1.442307e+002
15005000000 -4.598364e+000 -5.500997e+001 -5.130989e+001 5.649456e+001 -5.137884e+001 5.892381e+001 -6.189137e+000 -1.453447e+002
15023743750 -4.603571e+000 -5.571780e+001 -5.125230e+001 5.323493e+001 -5.108134e+001 5.606741e+001 -6.229290e+000 -1.464945e+002
15042487500 -4.608189e+000 -5.642432e+001 -5.103997e+001 4.998777e+001 -5.090115e+001 5.364621e+001 -6.274624e+000 -1.476161e+002
15061231250 -4.612682e+000 -5.713803e+001 -5.085909e+001 4.787890e+001 -5.065237e+001 5.160286e+001 -6.324767e+000 -1.487496e+002
15079975000 -4.625416e+000 -5.782067e+001 -5.075157e+001 4.538519e+001 -5.041079e+001 4.958672e+001 -6.373459e+000 -1.498778e+002
15098718750 -4.632266e+000 -5.855062e+001 -5.038425e+001 4.170522e+001 -5.020779e+001 4.623614e+001 -6.426382e+000 -1.510086e+002
15117462500 -4.634755e+000 -5.926447e+001 -5.024812e+001 3.845514e+001 -5.008989e+001 4.346328e+001 -6.480773e+000 -1.521185e+002
15136206250 -4.648628e+000 -5.995854e+001 -5.026634e+001 3.585954e+001 -4.982127e+001 4.016155e+001 -6.536606e+000 -1.532063e+002
15154950000 -4.651532e+000 -6.069547e+001 -5.008273e+001 3.343891e+001 -4.960296e+001 3.696789e+001 -6.602255e+000 -1.543168e+002
15173693750 -4.653944e+000 -6.137794e+001 -5.000024e+001 3.023596e+001 -4.952999e+001 3.371682e+001 -6.664521e+000 -1.554181e+002
15192437500 -4.668035e+000 -6.205541e+001 -4.997813e+001 2.742715e+001 -4.942325e+001 2.904715e+001 -6.731747e+000 -1.565135e+002
15211181250 -4.671933e+000 -6.278775e+001 -4.990759e+001 2.401033e+001 -4.932583e+001 2.573445e+001 -6.802565e+000 -1.576097e+002
15229925000 -4.677464e+000 -6.348148e+001 -4.994196e+001 1.945732e+001 -4.935599e+001 2.260558e+001 -6.875573e+000 -1.586653e+002
15248668750 -4.690322e+000 -6.417973e+001 -4.971277e+001 1.595645e+001 -4.923242e+001 1.922915e+001 -6.954052e+000 -1.597094e+002
15267412500 -4.689355e+000 -6.490082e+001 -4.965352e+001 1.334212e+001 -4.913557e+001 1.601664e+001 -7.039628e+000 -1.607913e+002
15286156250 -4.698421e+000 -6.554633e+001 -4.948822e+001 1.036721e+001 -4.911868e+001 1.343395e+001 -7.121589e+000 -1.618308e+002
15304900000 -4.711542e+000 -6.621867e+001 -4.942172e+001 7.566398e+000 -4.905505e+001 9.592800e+000 -7.210513e+000 -1.628528e+002
15323643750 -4.715983e+000 -6.694454e+001 -4.943452e+001 5.223672e+000 -4.895514e+001 6.399581e+000 -7.301555e+000 -1.638673e+002
15342387500 -4.726941e+000 -6.760267e+001 -4.938288e+001 1.747771e+000 -4.897643e+001 3.622653e+000 -7.392127e+000 -1.648235e+002
15361131250 -4.738627e+000 -6.830119e+001 -4.928174e+001 -1.388312e+000 -4.878825e+001 -8.572268e-002 -7.492588e+000 -1.657602e+002
15379875000 -4.740323e+000 -6.902806e+001 -4.917147e+001 -4.936368e+000 -4.875180e+001 -2.899818e+000 -7.597087e+000 -1.667144e+002
15398618750 -4.751386e+000 -6.967024e+001 -4.909998e+001 -7.943229e+000 -4.861887e+001 -5.367308e+000 -7.702077e+000 -1.676219e+002
15417362500 -4.762931e+000 -7.037099e+001 -4.893076e+001 -1.093375e+001 -4.848130e+001 -8.114011e+000 -7.815097e+000 -1.685231e+002
15436106250 -4.768252e+000 -7.106117e+001 -4.872992e+001 -1.346042e+001 -4.830024e+001 -1.125194e+001 -7.921913e+000 -1.693938e+002
15454850000 -4.782700e+000 -7.173540e+001 -4.859483e+001 -1.614058e+001 -4.813930e+001 -1.402434e+001 -8.037708e+000 -1.701753e+002
15473593750 -4.793913e+000 -7.245126e+001 -4.846357e+001 -1.949842e+001 -4.804305e+001 -1.736287e+001 -8.161088e+000 -1.709498e+002
15492337500 -4.797522e+000 -7.312529e+001 -4.825474e+001 -2.313524e+001 -4.789370e+001 -2.093229e+001 -8.281604e+000 -1.717001e+002
15511081250 -4.807916e+000 -7.380233e+001 -4.796667e+001 -2.657864e+001 -4.775784e+001 -2.426427e+001 -8.398541e+000 -1.723881e+002
15529825000 -4.818301e+000 -7.449435e+001 -4.781528e+001 -2.931210e+001 -4.758055e+001 -2.715141e+001 -8.523478e+000 -1.730288e+002
15548568750 -4.828691e+000 -7.517873e+001 -4.768120e+001 -3.219665e+001 -4.737101e+001 -2.987743e+001 -8.647866e+000 -1.736328e+002
15567312500 -4.838556e+000 -7.586594e+001 -4.744811e+001 -3.493822e+001 -4.715549e+001 -3.291885e+001 -8.770641e+000 -1.741726e+002
15586056250 -4.849107e+000 -7.657597e+001 -4.721283e+001 -3.798760e+001 -4.698160e+001 -3.625146e+001 -8.898912e+000 -1.746755e+002
15604800000 -4.858272e+000 -7.726201e+001 -4.690768e+001 -4.070358e+001 -4.665807e+001 -3.856955e+001 -9.023955e+000 -1.751535e+002
15623543750 -4.867985e+000 -7.793625e+001 -4.658205e+001 -4.353858e+001 -4.632360e+001 -4.149229e+001 -9.143986e+000 -1.755718e+002
15642287500 -4.881632e+000 -7.862337e+001 -4.629098e+001 -4.622432e+001 -4.610735e+001 -4.496235e+001 -9.264352e+000 -1.759399e+002
15661031250 -4.892075e+000 -7.930579e+001 -4.595533e+001 -4.833573e+001 -4.568462e+001 -4.746097e+001 -9.378335e+000 -1.762859e+002
15679775000 -4.902971e+000 -7.998277e+001 -4.578362e+001 -5.112187e+001 -4.541970e+001 -5.032987e+001 -9.492021e+000 -1.765307e+002
15698518750 -4.915740e+000 -8.067715e+001 -4.545327e+001 -5.411447e+001 -4.518076e+001 -5.352768e+001 -9.607234e+000 -1.767298e+002
15717262500 -4.922765e+000 -8.135998e+001 -4.515317e+001 -5.760160e+001 -4.485244e+001 -5.710389e+001 -9.716903e+000 -1.769343e+002
15736006250 -4.933610e+000 -8.202599e+001 -4.486282e+001 -6.075683e+001 -4.454428e+001 -5.991968e+001 -9.818136e+000 -1.770924e+002
15754750000 -4.947284e+000 -8.270381e+001 -4.449669e+001 -6.393083e+001 -4.418890e+001 -6.228713e+001 -9.916759e+000 -1.772272e+002
15773493750 -4.956973e+000 -8.337508e+001 -4.409332e+001 -6.669300e+001 -4.379910e+001 -6.525962e+001 -1.000364e+001 -1.773405e+002
15792237500 -4.967519e+000 -8.403597e+001 -4.375552e+001 -6.955253e+001 -4.353743e+001 -6.819230e+001 -1.008412e+001 -1.773873e+002
15810981250 -4.985322e+000 -8.470128e+001 -4.344730e+001 -7.254001e+001 -4.319000e+001 -7.140834e+001 -1.016844e+001 -1.773796e+002
15829725000 -4.993579e+000 -8.538060e+001 -4.309739e+001 -7.555692e+001 -4.289248e+001 -7.465448e+001 -1.024609e+001 -1.774106e+002
15848468750 -5.005093e+000 -8.602033e+001 -4.282505e+001 -7.839157e+001 -4.259339e+001 -7.768143e+001 -1.030962e+001 -1.774275e+002
15867212500 -5.020715e+000 -8.670515e+001 -4.253146e+001 -8.135024e+001 -4.228252e+001 -8.056403e+001 -1.036826e+001 -1.774195e+002
15885956250 -5.032897e+000 -8.735246e+001 -4.214884e+001 -8.439045e+001 -4.199283e+001 -8.351350e+001 -1.042190e+001 -1.774361e+002
15904700000 -5.048467e+000 -8.803287e+001 -4.180701e+001 -8.707712e+001 -4.165792e+001 -8.653963e+001 -1.046445e+001 -1.774331e+002
15923443750 -5.066177e+000 -8.871799e+001 -4.147742e+001 -8.909676e+001 -4.136866e+001 -8.884474e+001 -1.050829e+001 -1.774223e+002
15942187500 -5.075027e+000 -8.934954e+001 -4.120904e+001 -9.193135e+001 -4.102825e+001 -9.170808e+001 -1.055422e+001 -1.774706e+002
15960931250 -5.095355e+000 -9.001598e+001 -4.084502e+001 -9.455524e+001 -4.074492e+001 -9.422356e+001 -1.057971e+001 -1.775648e+002
15979675000 -5.111826e+000 -9.071426e+001 -4.048272e+001 -9.722242e+001 -4.043472e+001 -9.683452e+001 -1.060041e+001 -1.776259e+002
15998418750 -5.123339e+000 -9.135706e+001 -4.010294e+001 -9.977634e+001 -4.009050e+001 -9.914384e+001 -1.062150e+001 -1.777333e+002
16017162500 -5.148211e+000 -9.201851e+001 -3.978076e+001 -1.025235e+002 -3.972136e+001 -1.014847e+002 -1.063346e+001 -1.778630e+002
16035906250 -5.164409e+000 -9.270532e+001 -3.945356e+001 -1.048842e+002 -3.937428e+001 -1.039426e+002 -1.064904e+001 -1.779865e+002
16054650000 -5.180032e+000 -9.335342e+001 -3.912235e+001 -1.072052e+002 -3.908432e+001 -1.060893e+002 -1.066345e+001 -1.782068e+002
16073393750 -5.204034e+000 -9.402169e+001 -3.875581e+001 -1.094633e+002 -3.873938e+001 -1.082590e+002 -1.066612e+001 -1.784826e+002
16092137500 -5.221855e+000 -9.471903e+001 -3.841172e+001 -1.119379e+002 -3.840464e+001 -1.105964e+002 -1.066826e+001 -1.787325e+002
16110881250 -5.238475e+000 -9.536441e+001 -3.802155e+001 -1.141772e+002 -3.801131e+001 -1.129062e+002 -1.067164e+001 -1.790695e+002
16129625000 -5.265145e+000 -9.605743e+001 -3.768179e+001 -1.165132e+002 -3.762007e+001 -1.152656e+002 -1.066962e+001 -1.794467e+002
16148368750 -5.283438e+000 -9.674017e+001 -3.731866e+001 -1.184969e+002 -3.726273e+001 -1.177621e+002 -1.067246e+001 -1.798398e+002
16167112500 -5.301996e+000 -9.738413e+001 -3.693113e+001 -1.206799e+002 -3.688839e+001 -1.201214e+002 -1.067853e+001 1.796819e+002
16185856250 -5.331790e+000 -9.806583e+001 -3.656201e+001 -1.228850e+002 -3.653808e+001 -1.223155e+002 -1.067725e+001 1.791694e+002
16204600000 -5.350847e+000 -9.875388e+001 -3.624351e+001 -1.253250e+002 -3.618981e+001 -1.246559e+002 -1.068719e+001 1.786699e+002
16223343750 -5.377521e+000 -9.940450e+001 -3.590185e+001 -1.276815e+002 -3.583158e+001 -1.268900e+002 -1.070359e+001 1.780950e+002
16242087500 -5.403343e+000 -1.001009e+002 -3.549340e+001 -1.297604e+002 -3.548878e+001 -1.291049e+002 -1.071229e+001 1.774443e+002
16260831250 -5.423563e+000 -1.007718e+002 -3.513045e+001 -1.316405e+002 -3.510715e+001 -1.313365e+002 -1.072998e+001 1.768150e+002
16279575000 -5.451191e+000 -1.014365e+002 -3.471946e+001 -1.339889e+002 -3.473252e+001 -1.335629e+002 -1.075461e+001 1.761009e+002
16298318750 -5.480385e+000 -1.020961e+002 -3.433226e+001 -1.360435e+002 -3.436643e+001 -1.356299e+002 -1.078040e+001 1.753495e+002
16317062500 -5.501113e+000 -1.027803e+002 -3.398071e+001 -1.381409e+002 -3.397147e+001 -1.377093e+002 -1.081146e+001 1.746452e+002
16335806250 -5.528963e+000 -1.034161e+002 -3.358609e+001 -1.403010e+002 -3.357136e+001 -1.399276e+002 -1.085357e+001 1.738744e+002
16354550000 -5.557577e+000 -1.040758e+002 -3.320441e+001 -1.424205e+002 -3.319827e+001 -1.422509e+002 -1.089559e+001 1.730598e+002
16373293750 -5.585334e+000 -1.047590e+002 -3.282992e+001 -1.443728e+002 -3.282814e+001 -1.442734e+002 -1.094788e+001 1.722324e+002
16392037500 -5.617255e+000 -1.053854e+002 -3.246638e+001 -1.466034e+002 -3.246105e+001 -1.465132e+002 -1.100635e+001 1.713828e+002
16410781250 -5.650086e+000 -1.060201e+002 -3.208085e+001 -1.487236e+002 -3.208427e+001 -1.488148e+002 -1.106445e+001 1.704930e+002
16429525000 -5.679370e+000 -1.066749e+002 -3.173501e+001 -1.509706e+002 -3.173362e+001 -1.510552e+002 -1.113366e+001 1.696342e+002
16448268750 -5.708152e+000 -1.072891e+002 -3.136671e+001 -1.531893e+002 -3.135274e+001 -1.533588e+002 -1.121431e+001 1.687611e+002
16467012500 -5.743027e+000 -1.079197e+002 -3.100898e+001 -1.553787e+002 -3.099061e+001 -1.555546e+002 -1.129898e+001 1.678476e+002
16485756250 -5.774806e+000 -1.085560e+002 -3.063781e+001 -1.577458e+002 -3.061260e+001 -1.578640e+002 -1.140149e+001 1.669666e+002
16504500000 -5.808922e+000 -1.091620e+002 -3.026864e+001 -1.600506e+002 -3.022307e+001 -1.602191e+002 -1.150910e+001 1.660336e+002
16523243750 -5.845435e+000 -1.097626e+002 -2.991737e+001 -1.623377e+002 -2.985378e+001 -1.626587e+002 -1.161977e+001 1.651202e+002
16541987500 -5.881052e+000 -1.103886e+002 -2.954871e+001 -1.648503e+002 -2.950599e+001 -1.651498e+002 -1.174023e+001 1.642375e+002
16560731250 -5.917771e+000 -1.109756e+002 -2.918941e+001 -1.672557e+002 -2.913770e+001 -1.674502e+002 -1.187233e+001 1.633500e+002
16579475000 -5.958652e+000 -1.115716e+002 -2.883754e+001 -1.696542e+002 -2.876837e+001 -1.698148e+002 -1.201699e+001 1.624996e+002
16598218750 -5.998280e+000 -1.121753e+002 -2.847447e+001 -1.722343e+002 -2.842519e+001 -1.723367e+002 -1.217664e+001 1.616249e+002
16616962500 -6.037591e+000 -1.127512e+002 -2.810843e+001 -1.747716e+002 -2.806282e+001 -1.748680e+002 -1.234012e+001 1.607315e+002
16635706250 -6.078644e+000 -1.133429e+002 -2.774228e+001 -1.772061e+002 -2.771051e+001 -1.773138e+002 -1.250577e+001 1.598652e+002
16654450000 -6.116899e+000 -1.139274e+002 -2.738885e+001 -1.797423e+002 -2.735676e+001 -1.797549e+002 -1.268647e+001 1.590507e+002
16673193750 -6.159364e+000 -1.144790e+002 -2.704068e+001 1.777245e+002 -2.700933e+001 1.776078e+002 -1.287745e+001 1.582717e+002
16691937500 -6.203707e+000 -1.150567e+002 -2.670247e+001 1.750592e+002 -2.667773e+001 1.750205e+002 -1.307197e+001 1.575181e+002
16710681250 -6.245565e+000 -1.156156e+002 -2.636630e+001 1.724742e+002 -2.634656e+001 1.723709e+002 -1.329069e+001 1.568098e+002
16729425000 -6.291623e+000 -1.161545e+002 -2.604515e+001 1.697718e+002 -2.599830e+001 1.696629e+002 -1.350989e+001 1.560671e+002
16748168750 -6.336635e+000 -1.167099e+002 -2.571795e+001 1.670573e+002 -2.567722e+001 1.669771e+002 -1.372555e+001 1.554299e+002
16766912500 -6.378760e+000 -1.172473e+002 -2.540279e+001 1.644099e+002 -2.535973e+001 1.643370e+002 -1.395887e+001 1.548490e+002
16785656250 -6.427003e+000 -1.177781e+002 -2.509437e+001 1.617214e+002 -2.504464e+001 1.616255e+002 -1.419951e+001 1.543185e+002
16804400000 -6.470214e+000 -1.183139e+002 -2.478143e+001 1.589489e+002 -2.474100e+001 1.588782e+002 -1.445088e+001 1.538819e+002
16823143750 -6.512194e+000 -1.188456e+002 -2.447359e+001 1.562365e+002 -2.443884e+001 1.560896e+002 -1.472328e+001 1.534237e+002
16841887500 -6.558419e+000 -1.193610e+002 -2.418084e+001 1.535047e+002 -2.414526e+001 1.533452e+002 -1.499133e+001 1.529842e+002
16860631250 -6.601799e+000 -1.198724e+002 -2.387624e+001 1.507026e+002 -2.385581e+001 1.505577e+002 -1.525684e+001 1.527176e+002
16879375000 -6.647169e+000 -1.203837e+002 -2.358156e+001 1.479395e+002 -2.356991e+001 1.477711e+002 -1.553028e+001 1.525125e+002
16898118750 -6.695623e+000 -1.208749e+002 -2.329971e+001 1.451497e+002 -2.329289e+001 1.449698e+002 -1.581088e+001 1.523840e+002
16916862500 -6.740271e+000 -1.213780e+002 -2.302053e+001 1.423279e+002 -2.302366e+001 1.421812e+002 -1.609539e+001 1.524019e+002
16935606250 -6.786268e+000 -1.218362e+002 -2.275251e+001 1.395193e+002 -2.275495e+001 1.393304e+002 -1.639437e+001 1.524333e+002
16954350000 -6.833548e+000 -1.223133e+002 -2.248472e+001 1.366510e+002 -2.249370e+001 1.365466e+002 -1.668826e+001 1.524702e+002
16973093750 -6.878789e+000 -1.227715e+002 -2.222530e+001 1.338289e+002 -2.223812e+001 1.336893e+002 -1.697543e+001 1.526961e+002
16991837500 -6.923813e+000 -1.232045e+002 -2.198667e+001 1.310156e+002 -2.198895e+001 1.308404e+002 -1.727425e+001 1.530573e+002
17010581250 -6.969821e+000 -1.236409e+002 -2.174139e+001 1.281326e+002 -2.175494e+001 1.279982e+002 -1.757139e+001 1.534339e+002
17029325000 -7.014982e+000 -1.240969e+002 -2.150798e+001 1.253351e+002 -2.151319e+001 1.251199e+002 -1.787061e+001 1.540049e+002
17048068750 -7.061850e+000 -1.245112e+002 -2.128414e+001 1.224875e+002 -2.128272e+001 1.222701e+002 -1.818315e+001 1.545838e+002
17066812500 -7.112222e+000 -1.249314e+002 -2.105429e+001 1.195680e+002 -2.106434e+001 1.194145e+002 -1.848009e+001 1.551727e+002
17085556250 -7.158872e+000 -1.253296e+002 -2.084176e+001 1.167975e+002 -2.084730e+001 1.165214e+002 -1.876272e+001 1.559805e+002
17104300000 -7.205189e+000 -1.257174e+002 -2.063696e+001 1.139131e+002 -2.063458e+001 1.136746e+002 -1.906071e+001 1.569080e+002
17123043750 -7.252209e+000 -1.261049e+002 -2.042072e+001 1.110310e+002 -2.042926e+001 1.107968e+002 -1.934493e+001 1.579294e+002
17141787500 -7.300723e+000 -1.264629e+002 -2.022881e+001 1.082512e+002 -2.022955e+001 1.079722e+002 -1.962392e+001 1.591400e+002
17160531250 -7.347375e+000 -1.268282e+002 -2.003922e+001 1.053873e+002 -2.003868e+001 1.051331e+002 -1.992464e+001 1.603512e+002
17179275000 -7.394775e+000 -1.272086e+002 -1.983804e+001 1.025294e+002 -1.984660e+001 1.022859e+002 -2.020132e+001 1.615458e+002
17198018750 -7.440051e+000 -1.275485e+002 -1.965872e+001 9.974545e+001 -1.966068e+001 9.948721e+001 -2.046369e+001 1.630512e+002
17216762500 -7.484342e+000 -1.278857e+002 -1.947754e+001 9.686856e+001 -1.948450e+001 9.666794e+001 -2.073551e+001 1.646298e+002
17235506250 -7.532209e+000 -1.282246e+002 -1.929035e+001 9.404488e+001 -1.930604e+001 9.384979e+001 -2.098105e+001 1.662192e+002
17254250000 -7.577312e+000 -1.285163e+002 -1.912856e+001 9.129333e+001 -1.913510e+001 9.108875e+001 -2.122826e+001 1.681095e+002
17272993750 -7.625310e+000 -1.288061e+002 -1.896519e+001 8.839683e+001 -1.897452e+001 8.827626e+001 -2.148737e+001 1.699909e+002
17291737500 -7.671423e+000 -1.291260e+002 -1.880106e+001 8.560422e+001 -1.881039e+001 8.547755e+001 -2.169530e+001 1.717346e+002
17310481250 -7.713755e+000 -1.294016e+002 -1.865414e+001 8.279910e+001 -1.865732e+001 8.270860e+001 -2.189264e+001 1.738150e+002
17329225000 -7.755134e+000 -1.296724e+002 -1.849465e+001 7.994863e+001 -1.850929e+001 7.990414e+001 -2.207846e+001 1.760034e+002
17347968750 -7.795487e+000 -1.299373e+002 -1.834893e+001 7.718092e+001 -1.835655e+001 7.709943e+001 -2.223439e+001 1.782483e+002
17366712500 -7.833700e+000 -1.301795e+002 -1.821308e+001 7.439339e+001 -1.821911e+001 7.436739e+001 -2.238966e+001 -1.791955e+002
17385456250 -7.875058e+000 -1.304268e+002 -1.806803e+001 7.160297e+001 -1.808359e+001 7.150661e+001 -2.255370e+001 -1.767241e+002
17404200000 -7.912189e+000 -1.306880e+002 -1.793227e+001 6.886395e+001 -1.794341e+001 6.876684e+001 -2.267402e+001 -1.743914e+002
17422943750 -7.945004e+000 -1.309337e+002 -1.780770e+001 6.606026e+001 -1.781871e+001 6.603201e+001 -2.273933e+001 -1.719191e+002
17441687500 -7.979342e+000 -1.311774e+002 -1.767754e+001 6.326622e+001 -1.769104e+001 6.324856e+001 -2.278767e+001 -1.692693e+002
17460431250 -8.008077e+000 -1.313901e+002 -1.755513e+001 6.057000e+001 -1.756695e+001 6.054227e+001 -2.279953e+001 -1.666484e+002
17479175000 -8.034109e+000 -1.315881e+002 -1.744237e+001 5.779921e+001 -1.745850e+001 5.781435e+001 -2.279267e+001 -1.638054e+002
17497918750 -8.058987e+000 -1.317978e+002 -1.732497e+001 5.506348e+001 -1.734482e+001 5.504739e+001 -2.278574e+001 -1.610844e+002
17516662500 -8.080409e+000 -1.320463e+002 -1.721979e+001 5.236453e+001 -1.722852e+001 5.239084e+001 -2.274039e+001 -1.585654e+002
17535406250 -8.097299e+000 -1.322554e+002 -1.711806e+001 4.963683e+001 -1.712561e+001 4.968613e+001 -2.264790e+001 -1.560081e+002
17554150000 -8.115961e+000 -1.324614e+002 -1.701463e+001 4.696665e+001 -1.702417e+001 4.695766e+001 -2.254465e+001 -1.534881e+002
17572893750 -8.126902e+000 -1.326532e+002 -1.691586e+001 4.430249e+001 -1.692785e+001 4.431029e+001 -2.240814e+001 -1.510706e+002
17591637500 -8.140515e+000 -1.328229e+002 -1.682144e+001 4.156924e+001 -1.684417e+001 4.164493e+001 -2.223283e+001 -1.485265e+002
17610381250 -8.155942e+000 -1.330045e+002 -1.672971e+001 3.893533e+001 -1.675074e+001 3.895482e+001 -2.206716e+001 -1.461478e+002
17629125000 -8.161257e+000 -1.332136e+002 -1.664782e+001 3.627683e+001 -1.666592e+001 3.633025e+001 -2.186316e+001 -1.440560e+002
17647868750 -8.168512e+000 -1.334131e+002 -1.656233e+001 3.363715e+001 -1.658804e+001 3.367271e+001 -2.162346e+001 -1.419736e+002
17666612500 -8.169370e+000 -1.336176e+002 -1.648496e+001 3.106315e+001 -1.650492e+001 3.102692e+001 -2.137586e+001 -1.399297e+002
17685356250 -8.165565e+000 -1.338022e+002 -1.641065e+001 2.842654e+001 -1.643039e+001 2.847427e+001 -2.109398e+001 -1.380763e+002
17704100000 -8.163631e+000 -1.339916e+002 -1.633282e+001 2.584529e+001 -1.635985e+001 2.586384e+001 -2.079428e+001 -1.362304e+002
17722843750 -8.161921e+000 -1.342124e+002 -1.626411e+001 2.329468e+001 -1.628803e+001 2.326469e+001 -2.051921e+001 -1.345034e+002
17741587500 -8.156120e+000 -1.344506e+002 -1.619903e+001 2.074574e+001 -1.622560e+001 2.075039e+001 -2.021263e+001 -1.330881e+002
17760331250 -8.146017e+000 -1.347045e+002 -1.613428e+001 1.821070e+001 -1.616828e+001 1.819452e+001 -1.989229e+001 -1.318087e+002
17779075000 -8.135489e+000 -1.349772e+002 -1.607254e+001 1.568203e+001 -1.610918e+001 1.568636e+001 -1.957135e+001 -1.307094e+002
17797818750 -8.119699e+000 -1.352370e+002 -1.601650e+001 1.317387e+001 -1.605842e+001 1.319786e+001 -1.922470e+001 -1.298343e+002
17816562500 -8.107956e+000 -1.354979e+002 -1.596354e+001 1.069339e+001 -1.601244e+001 1.069293e+001 -1.886625e+001 -1.289497e+002
17835306250 -8.097835e+000 -1.357962e+002 -1.591168e+001 8.220016e+000 -1.595795e+001 8.226501e+000 -1.852852e+001 -1.281485e+002
17854050000 -8.084761e+000 -1.361107e+002 -1.586215e+001 5.769969e+000 -1.591337e+001 5.827091e+000 -1.820942e+001 -1.275669e+002
17872793750 -8.068935e+000 -1.364459e+002 -1.581393e+001 3.380345e+000 -1.587012e+001 3.352304e+000 -1.788413e+001 -1.271944e+002
17891537500 -8.050070e+000 -1.368022e+002 -1.576914e+001 9.420216e-001 -1.582018e+001 9.725851e-001 -1.756524e+001 -1.269136e+002
17910281250 -8.030785e+000 -1.371423e+002 -1.572695e+001 -1.451749e+000 -1.578027e+001 -1.397255e+000 -1.724621e+001 -1.268248e+002
17929025000 -8.016888e+000 -1.375111e+002 -1.568725e+001 -3.812178e+000 -1.574267e+001 -3.792295e+000 -1.693134e+001 -1.267068e+002
17947768750 -8.004121e+000 -1.379047e+002 -1.564493e+001 -6.165894e+000 -1.570507e+001 -6.137461e+000 -1.663557e+001 -1.266580e+002
17966512500 -7.989024e+000 -1.383278e+002 -1.560169e+001 -8.499237e+000 -1.567135e+001 -8.461924e+000 -1.634899e+001 -1.267831e+002
17985256250 -7.972973e+000 -1.387675e+002 -1.556882e+001 -1.084011e+001 -1.563716e+001 -1.080480e+001 -1.606801e+001 -1.269616e+002
18004000000 -7.954491e+000 -1.392548e+002 -1.553558e+001 -1.315827e+001 -1.560003e+001 -1.305894e+001 -1.579639e+001 -1.271988e+002
18022743750 -7.931761e+000 -1.397191e+002 -1.550308e+001 -1.539906e+001 -1.556935e+001 -1.534780e+001 -1.553839e+001 -1.275224e+002
18041487500 -7.916326e+000 -1.402028e+002 -1.547519e+001 -1.768478e+001 -1.553714e+001 -1.766187e+001 -1.528025e+001 -1.278796e+002
18060231250 -7.906466e+000 -1.407071e+002 -1.544053e+001 -1.994187e+001 -1.550597e+001 -1.986603e+001 -1.503868e+001 -1.282681e+002
18078975000 -7.888896e+000 -1.412365e+002 -1.541312e+001 -2.216685e+001 -1.547972e+001 -2.208999e+001 -1.480376e+001 -1.287142e+002
18097718750 -7.875599e+000 -1.417758e+002 -1.538713e+001 -2.441190e+001 -1.545273e+001 -2.430948e+001 -1.457504e+001 -1.292066e+002
18116462500 -7.859495e+000 -1.423368e+002 -1.535537e+001 -2.659219e+001 -1.542871e+001 -2.648945e+001 -1.435658e+001 -1.297628e+002
18135206250 -7.844054e+000 -1.428918e+002 -1.532980e+001 -2.877687e+001 -1.540947e+001 -2.865247e+001 -1.415287e+001 -1.303343e+002
18153950000 -7.837142e+000 -1.434420e+002 -1.530315e+001 -3.096341e+001 -1.538070e+001 -3.082829e+001 -1.395192e+001 -1.308785e+002
18172693750 -7.829102e+000 -1.440344e+002 -1.527377e+001 -3.311291e+001 -1.535989e+001 -3.295105e+001 -1.376660e+001 -1.314984e+002
18191437500 -7.823134e+000 -1.446278e+002 -1.525066e+001 -3.522044e+001 -1.533595e+001 -3.507482e+001 -1.358811e+001 -1.321204e+002
18210181250 -7.814423e+000 -1.452188e+002 -1.522632e+001 -3.734941e+001 -1.531103e+001 -3.722224e+001 -1.341582e+001 -1.327593e+002
18228925000 -7.807159e+000 -1.458396e+002 -1.519828e+001 -3.945835e+001 -1.528240e+001 -3.929860e+001 -1.325024e+001 -1.334271e+002
18247668750 -7.802163e+000 -1.464411e+002 -1.517601e+001 -4.155287e+001 -1.525630e+001 -4.139130e+001 -1.308692e+001 -1.341100e+002
18266412500 -7.801608e+000 -1.470472e+002 -1.515094e+001 -4.366987e+001 -1.523424e+001 -4.346676e+001 -1.293299e+001 -1.347964e+002
18285156250 -7.803904e+000 -1.476844e+002 -1.512323e+001 -4.572349e+001 -1.521047e+001 -4.551347e+001 -1.278428e+001 -1.355080e+002
18303900000 -7.804583e+000 -1.483385e+002 -1.510015e+001 -4.779956e+001 -1.518832e+001 -4.755827e+001 -1.264241e+001 -1.362265e+002
18322643750 -7.807885e+000 -1.489791e+002 -1.507154e+001 -4.984565e+001 -1.516355e+001 -4.962626e+001 -1.250894e+001 -1.369477e+002
18341387500 -7.812395e+000 -1.496347e+002 -1.504276e+001 -5.185605e+001 -1.514282e+001 -5.164161e+001 -1.238242e+001 -1.376699e+002
18360131250 -7.821445e+000 -1.502540e+002 -1.502112e+001 -5.387728e+001 -1.511979e+001 -5.366321e+001 -1.225650e+001 -1.384010e+002
18378875000 -7.836525e+000 -1.508880e+002 -1.499505e+001 -5.593270e+001 -1.509084e+001 -5.565994e+001 -1.213373e+001 -1.391255e+002
18397618750 -7.853800e+000 -1.515606e+002 -1.496961e+001 -5.791496e+001 -1.506861e+001 -5.764590e+001 -1.201803e+001 -1.398171e+002
18416362500 -7.869697e+000 -1.522453e+002 -1.494831e+001 -5.990612e+001 -1.504206e+001 -5.964926e+001 -1.190649e+001 -1.405286e+002
18435106250 -7.888088e+000 -1.529030e+002 -1.491635e+001 -6.191241e+001 -1.501731e+001 -6.162969e+001 -1.180248e+001 -1.412449e+002
18453850000 -7.912728e+000 -1.535705e+002 -1.488716e+001 -6.387080e+001 -1.499149e+001 -6.359270e+001 -1.170261e+001 -1.419530e+002
18472593750 -7.937266e+000 -1.542103e+002 -1.486123e+001 -6.584436e+001 -1.496715e+001 -6.554944e+001 -1.160743e+001 -1.426407e+002
18491337500 -7.967990e+000 -1.548888e+002 -1.482824e+001 -6.781752e+001 -1.493964e+001 -6.751804e+001 -1.151783e+001 -1.433370e+002
18510081250 -8.002668e+000 -1.555688e+002 -1.480109e+001 -6.975553e+001 -1.490940e+001 -6.945221e+001 -1.143381e+001 -1.440299e+002
18528825000 -8.034890e+000 -1.562587e+002 -1.477095e+001 -7.173195e+001 -1.487608e+001 -7.139547e+001 -1.135461e+001 -1.447179e+002
18547568750 -8.073576e+000 -1.569561e+002 -1.473548e+001 -7.369293e+001 -1.484368e+001 -7.333915e+001 -1.127772e+001 -1.453660e+002
18566312500 -8.111668e+000 -1.576396e+002 -1.470759e+001 -7.562525e+001 -1.480761e+001 -7.527775e+001 -1.119817e+001 -1.460301e+002
18585056250 -8.154116e+000 -1.582952e+002 -1.467697e+001 -7.760642e+001 -1.477571e+001 -7.722256e+001 -1.112630e+001 -1.467089e+002
18603800000 -8.202140e+000 -1.589683e+002 -1.464229e+001 -7.952934e+001 -1.474037e+001 -7.918147e+001 -1.105988e+001 -1.473384e+002
18622543750 -8.253618e+000 -1.596873e+002 -1.461342e+001 -8.147395e+001 -1.470883e+001 -8.112845e+001 -1.099945e+001 -1.479715e+002
18641287500 -8.306808e+000 -1.603913e+002 -1.457965e+001 -8.345703e+001 -1.467505e+001 -8.305172e+001 -1.093827e+001 -1.485967e+002
18660031250 -8.362326e+000 -1.610880e+002 -1.454004e+001 -8.537167e+001 -1.464126e+001 -8.499731e+001 -1.088515e+001 -1.492136e+002
18678775000 -8.417060e+000 -1.617442e+002 -1.451135e+001 -8.728945e+001 -1.460344e+001 -8.689780e+001 -1.083550e+001 -1.498200e+002
18697518750 -8.477447e+000 -1.623782e+002 -1.447737e+001 -8.925351e+001 -1.456961e+001 -8.884008e+001 -1.078600e+001 -1.504245e+002
18716262500 -8.544735e+000 -1.630431e+002 -1.443848e+001 -9.116975e+001 -1.453328e+001 -9.080257e+001 -1.074271e+001 -1.509760e+002
18735006250 -8.613774e+000 -1.637137e+002 -1.440774e+001 -9.310342e+001 -1.449529e+001 -9.271999e+001 -1.070423e+001 -1.515183e+002
18753750000 -8.685061e+000 -1.643655e+002 -1.437247e+001 -9.506918e+001 -1.446207e+001 -9.464764e+001 -1.066854e+001 -1.520795e+002
18772493750 -8.755625e+000 -1.650128e+002 -1.433338e+001 -9.699698e+001 -1.442344e+001 -9.659875e+001 -1.063508e+001 -1.526383e+002
18791237500 -8.826663e+000 -1.656286e+002 -1.430228e+001 -9.896359e+001 -1.438627e+001 -9.851884e+001 -1.060045e+001 -1.532046e+002
18809981250 -8.904120e+000 -1.661934e+002 -1.426259e+001 -1.009320e+002 -1.435309e+001 -1.004782e+002 -1.057187e+001 -1.537425e+002
18828725000 -8.988355e+000 -1.667607e+002 -1.422302e+001 -1.028506e+002 -1.431372e+001 -1.024467e+002 -1.054304e+001 -1.542428e+002
18847468750 -9.074264e+000 -1.673260e+002 -1.418892e+001 -1.048232e+002 -1.427681e+001 -1.043453e+002 -1.052084e+001 -1.547549e+002
18866212500 -9.161945e+000 -1.678865e+002 -1.414820e+001 -1.067909e+002 -1.423470e+001 -1.063076e+002 -1.049669e+001 -1.552630e+002
18884956250 -9.248190e+000 -1.684209e+002 -1.411035e+001 -1.087330e+002 -1.419365e+001 -1.082591e+002 -1.047583e+001 -1.557517e+002
18903700000 -9.338913e+000 -1.688930e+002 -1.407465e+001 -1.107371e+002 -1.415701e+001 -1.101860e+002 -1.045788e+001 -1.562346e+002
18922443750 -9.435103e+000 -1.693273e+002 -1.403349e+001 -1.127044e+002 -1.412059e+001 -1.121672e+002 -1.044017e+001 -1.566884e+002
18941187500 -9.537648e+000 -1.697617e+002 -1.399636e+001 -1.146503e+002 -1.408016e+001 -1.141298e+002 -1.042550e+001 -1.571236e+002
18959931250 -9.643437e+000 -1.701923e+002 -1.396301e+001 -1.166575e+002 -1.404911e+001 -1.160952e+002 -1.041448e+001 -1.575625e+002
18978675000 -9.745642e+000 -1.705925e+002 -1.392481e+001 -1.186186e+002 -1.401543e+001 -1.180892e+002 -1.040510e+001 -1.580023e+002
18997418750 -9.850084e+000 -1.709689e+002 -1.388824e+001 -1.205709e+002 -1.397590e+001 -1.200643e+002 -1.039513e+001 -1.584147e+002
19016162500 -9.957411e+000 -1.712919e+002 -1.385226e+001 -1.225911e+002 -1.394474e+001 -1.220206e+002 -1.038407e+001 -1.587901e+002
19034906250 -1.007083e+001 -1.715530e+002 -1.381423e+001 -1.245676e+002 -1.390965e+001 -1.240316e+002 -1.037297e+001 -1.591337e+002
19053650000 -1.018693e+001 -1.717902e+002 -1.378010e+001 -1.265470e+002 -1.387063e+001 -1.259926e+002 -1.036031e+001 -1.594746e+002
19072393750 -1.030704e+001 -1.720255e+002 -1.374390e+001 -1.285713e+002 -1.383954e+001 -1.279596e+002 -1.035438e+001 -1.597981e+002
19091137500 -1.042342e+001 -1.722254e+002 -1.370784e+001 -1.305681e+002 -1.380856e+001 -1.299670e+002 -1.034591e+001 -1.601411e+002
19109881250 -1.053854e+001 -1.724017e+002 -1.367723e+001 -1.325789e+002 -1.377131e+001 -1.319534e+002 -1.033924e+001 -1.604739e+002
19128625000 -1.065737e+001 -1.725045e+002 -1.364063e+001 -1.345944e+002 -1.374373e+001 -1.339401e+002 -1.032878e+001 -1.607574e+002
19147368750 -1.077777e+001 -1.725185e+002 -1.360801e+001 -1.365883e+002 -1.371072e+001 -1.359686e+002 -1.031685e+001 -1.610488e+002
19166112500 -1.090494e+001 -1.725346e+002 -1.357882e+001 -1.386168e+002 -1.367755e+001 -1.379383e+002 -1.030646e+001 -1.613089e+002
19184856250 -1.102981e+001 -1.725434e+002 -1.354692e+001 -1.406622e+002 -1.365168e+001 -1.399688e+002 -1.030121e+001 -1.615410e+002
19203600000 -1.115294e+001 -1.725224e+002 -1.351790e+001 -1.426422e+002 -1.361643e+001 -1.420029e+002 -1.029430e+001 -1.618097e+002
19222343750 -1.126910e+001 -1.724408e+002 -1.348873e+001 -1.446607e+002 -1.358576e+001 -1.439878e+002 -1.028549e+001 -1.620416e+002
19241087500 -1.138259e+001 -1.723010e+002 -1.345653e+001 -1.466833e+002 -1.356110e+001 -1.460150e+002 -1.027440e+001 -1.622667e+002
19259831250 -1.149115e+001 -1.720959e+002 -1.343088e+001 -1.486988e+002 -1.353202e+001 -1.480595e+002 -1.026560e+001 -1.624787e+002
19278575000 -1.161005e+001 -1.718634e+002 -1.340314e+001 -1.507431e+002 -1.350597e+001 -1.500491e+002 -1.025517e+001 -1.626467e+002
19297318750 -1.172268e+001 -1.716072e+002 -1.337591e+001 -1.527791e+002 -1.348788e+001 -1.520967e+002 -1.024831e+001 -1.628247e+002
19316062500 -1.182729e+001 -1.713521e+002 -1.335273e+001 -1.548063e+002 -1.346115e+001 -1.541420e+002 -1.024009e+001 -1.630488e+002
19334806250 -1.191969e+001 -1.710595e+002 -1.333188e+001 -1.568513e+002 -1.343859e+001 -1.561415e+002 -1.022855e+001 -1.632662e+002
19353550000 -1.200787e+001 -1.706812e+002 -1.331007e+001 -1.588781e+002 -1.341875e+001 -1.581914e+002 -1.021531e+001 -1.634476e+002
19372293750 -1.209296e+001 -1.702420e+002 -1.329081e+001 -1.609106e+002 -1.339306e+001 -1.602278e+002 -1.019624e+001 -1.636271e+002
19391037500 -1.217909e+001 -1.697513e+002 -1.327115e+001 -1.629510e+002 -1.337406e+001 -1.622203e+002 -1.017533e+001 -1.637709e+002
19409781250 -1.226179e+001 -1.692940e+002 -1.324972e+001 -1.649783e+002 -1.335655e+001 -1.642694e+002 -1.016151e+001 -1.639158e+002
19428525000 -1.232723e+001 -1.688195e+002 -1.323217e+001 -1.670002e+002 -1.333401e+001 -1.663063e+002 -1.014576e+001 -1.640952e+002
19447268750 -1.238291e+001 -1.683427e+002 -1.321711e+001 -1.690365e+002 -1.332147e+001 -1.683209e+002 -1.012797e+001 -1.642618e+002
19466012500 -1.242610e+001 -1.677908e+002 -1.320186e+001 -1.710539e+002 -1.330603e+001 -1.703535e+002 -1.010581e+001 -1.644624e+002
19484756250 -1.246925e+001 -1.671649e+002 -1.318846e+001 -1.730851e+002 -1.328286e+001 -1.724014e+002 -1.008398e+001 -1.646682e+002
19503500000 -1.250813e+001 -1.665537e+002 -1.317659e+001 -1.751110e+002 -1.327295e+001 -1.744012e+002 -1.005860e+001 -1.648413e+002
19522243750 -1.254234e+001 -1.660010e+002 -1.316453e+001 -1.771206e+002 -1.326027e+001 -1.764599e+002 -1.003967e+001 -1.650103e+002
19540987500 -1.256377e+001 -1.654328e+002 -1.314790e+001 -1.791575e+002 -1.324522e+001 -1.784535e+002 -1.001733e+001 -1.652278e+002
19559731250 -1.256886e+001 -1.648618e+002 -1.313514e+001 1.787962e+002 -1.323471e+001 1.795459e+002 -9.992394e+000 -1.654461e+002
19578475000 -1.256584e+001 -1.642644e+002 -1.312391e+001 1.767773e+002 -1.322407e+001 1.774967e+002 -9.968134e+000 -1.656700e+002
19597218750 -1.255328e+001 -1.636002e+002 -1.311315e+001 1.747639e+002 -1.320909e+001 1.754916e+002 -9.940474e+000 -1.659184e+002
19615962500 -1.254503e+001 -1.629435e+002 -1.310535e+001 1.727304e+002 -1.320034e+001 1.735005e+002 -9.909668e+000 -1.661351e+002
19634706250 -1.252953e+001 -1.623707e+002 -1.309693e+001 1.706988e+002 -1.319292e+001 1.714441e+002 -9.880847e+000 -1.663695e+002
19653450000 -1.250293e+001 -1.618367e+002 -1.308983e+001 1.686820e+002 -1.318583e+001 1.694442e+002 -9.850915e+000 -1.666494e+002
19672193750 -1.246636e+001 -1.613300e+002 -1.308713e+001 1.666593e+002 -1.318390e+001 1.674597e+002 -9.815310e+000 -1.669193e+002
19690937500 -1.242404e+001 -1.608042e+002 -1.308282e+001 1.646273e+002 -1.317851e+001 1.654341e+002 -9.780685e+000 -1.672164e+002
19709681250 -1.237172e+001 -1.602773e+002 -1.308266e+001 1.626371e+002 -1.317463e+001 1.634296e+002 -9.744541e+000 -1.675234e+002
19728425000 -1.232605e+001 -1.597758e+002 -1.308571e+001 1.606347e+002 -1.317268e+001 1.614259e+002 -9.711892e+000 -1.677748e+002
19747168750 -1.228106e+001 -1.593463e+002 -1.308270e+001 1.586203e+002 -1.316696e+001 1.593835e+002 -9.681247e+000 -1.680893e+002
19765912500 -1.222785e+001 -1.589791e+002 -1.307957e+001 1.566329e+002 -1.316165e+001 1.574227e+002 -9.642003e+000 -1.684021e+002
19784656250 -1.216221e+001 -1.586719e+002 -1.307738e+001 1.546310e+002 -1.316226e+001 1.554332e+002 -9.604821e+000 -1.687360e+002
19803400000 -1.209237e+001 -1.583151e+002 -1.307446e+001 1.526052e+002 -1.316530e+001 1.534531e+002 -9.574025e+000 -1.691013e+002
19822143750 -1.201873e+001 -1.580140e+002 -1.307091e+001 1.506685e+002 -1.316696e+001 1.514593e+002 -9.534699e+000 -1.694579e+002
19840887500 -1.194544e+001 -1.577527e+002 -1.308208e+001 1.486385e+002 -1.316071e+001 1.494775e+002 -9.497348e+000 -1.697975e+002
19859631250 -1.188122e+001 -1.575524e+002 -1.307709e+001 1.466115e+002 -1.316599e+001 1.474853e+002 -9.464079e+000 -1.701364e+002
19878375000 -1.181086e+001 -1.574089e+002 -1.307624e+001 1.446627e+002 -1.316775e+001 1.454926e+002 -9.432092e+000 -1.705334e+002
19897118750 -1.174205e+001 -1.573357e+002 -1.308589e+001 1.426868e+002 -1.316939e+001 1.435547e+002 -9.398996e+000 -1.709605e+002
19915862500 -1.165677e+001 -1.572956e+002 -1.308548e+001 1.407063e+002 -1.317581e+001 1.416179e+002 -9.367527e+000 -1.713508e+002
19934606250 -1.157878e+001 -1.571952e+002 -1.308583e+001 1.387531e+002 -1.317484e+001 1.395984e+002 -9.341515e+000 -1.717493e+002
19953350000 -1.150511e+001 -1.571360e+002 -1.309270e+001 1.367860e+002 -1.317656e+001 1.376653e+002 -9.310366e+000 -1.721643e+002
19972093750 -1.143121e+001 -1.571609e+002 -1.309578e+001 1.348559e+002 -1.318240e+001 1.356959e+002 -9.285015e+000 -1.725498e+002
19990837500 -1.136130e+001 -1.572720e+002 -1.310436e+001 1.329308e+002 -1.317741e+001 1.337299e+002 -9.262389e+000 -1.729886e+002
20009581250 -1.128358e+001 -1.573838e+002 -1.310875e+001 1.309443e+002 -1.318233e+001 1.318168e+002 -9.240203e+000 -1.734456e+002
20028325000 -1.120752e+001 -1.575473e+002 -1.311414e+001 1.290003e+002 -1.319471e+001 1.298761e+002 -9.217875e+000 -1.739005e+002
20047068750 -1.112903e+001 -1.577375e+002 -1.312432e+001 1.270848e+002 -1.319758e+001 1.279378e+002 -9.202300e+000 -1.743782e+002
20065812500 -1.105945e+001 -1.578826e+002 -1.313335e+001 1.251450e+002 -1.320704e+001 1.261109e+002 -9.182218e+000 -1.748408e+002
20084556250 -1.099656e+001 -1.581016e+002 -1.313822e+001 1.232315e+002 -1.321634e+001 1.241544e+002 -9.172833e+000 -1.753232e+002
20103300000 -1.093190e+001 -1.583979e+002 -1.314771e+001 1.213244e+002 -1.321654e+001 1.221941e+002 -9.166116e+000 -1.758088e+002
20122043750 -1.086373e+001 -1.587202e+002 -1.315260e+001 1.193762e+002 -1.322417e+001 1.203491e+002 -9.156449e+000 -1.763348e+002
20140787500 -1.079862e+001 -1.590002e+002 -1.315504e+001 1.174826e+002 -1.322514e+001 1.184047e+002 -9.144638e+000 -1.768300e+002
20159531250 -1.073595e+001 -1.592809e+002 -1.315983e+001 1.155561e+002 -1.322448e+001 1.164967e+002 -9.137654e+000 -1.773785e+002
20178275000 -1.067485e+001 -1.595610e+002 -1.316808e+001 1.135965e+002 -1.323147e+001 1.146229e+002 -9.132718e+000 -1.778739e+002
20197018750 -1.062500e+001 -1.599271e+002 -1.317193e+001 1.116991e+002 -1.324049e+001 1.126362e+002 -9.140089e+000 -1.784025e+002
20215762500 -1.057333e+001 -1.603245e+002 -1.318499e+001 1.097914e+002 -1.324436e+001 1.107778e+002 -9.142611e+000 -1.789765e+002
20234506250 -1.051998e+001 -1.607642e+002 -1.318799e+001 1.078761e+002 -1.325466e+001 1.088801e+002 -9.144233e+000 -1.795212e+002
20253250000 -1.046880e+001 -1.611383e+002 -1.319511e+001 1.059944e+002 -1.325585e+001 1.069747e+002 -9.156380e+000 1.799093e+002
20271993750 -1.042380e+001 -1.615209e+002 -1.319854e+001 1.041030e+002 -1.326123e+001 1.051002e+002 -9.168703e+000 1.793248e+002
20290737500 -1.038876e+001 -1.618844e+002 -1.321097e+001 1.021912e+002 -1.326817e+001 1.032064e+002 -9.177298e+000 1.787420e+002
20309481250 -1.035613e+001 -1.623072e+002 -1.321576e+001 1.003365e+002 -1.327214e+001 1.013579e+002 -9.189855e+000 1.781973e+002
20328225000 -1.031672e+001 -1.627451e+002 -1.321970e+001 9.840569e+001 -1.327203e+001 9.948906e+001 -9.207363e+000 1.776688e+002
20346968750 -1.028759e+001 -1.631761e+002 -1.322510e+001 9.649957e+001 -1.327793e+001 9.758915e+001 -9.221087e+000 1.771109e+002
20365712500 -1.025333e+001 -1.636260e+002 -1.323291e+001 9.466084e+001 -1.327880e+001 9.572530e+001 -9.237850e+000 1.765440e+002
20384456250 -1.022834e+001 -1.640162e+002 -1.324120e+001 9.273816e+001 -1.328293e+001 9.386034e+001 -9.261216e+000 1.760075e+002
20403200000 -1.021730e+001 -1.644246e+002 -1.324043e+001 9.084209e+001 -1.329307e+001 9.194847e+001 -9.284522e+000 1.754676e+002
20421943750 -1.020383e+001 -1.648476e+002 -1.324894e+001 8.898617e+001 -1.329531e+001 9.002721e+001 -9.312233e+000 1.749028e+002
20440687500 -1.018931e+001 -1.653732e+002 -1.325676e+001 8.709747e+001 -1.329734e+001 8.816880e+001 -9.340030e+000 1.743215e+002
20459431250 -1.017120e+001 -1.658158e+002 -1.325366e+001 8.522112e+001 -1.330251e+001 8.625665e+001 -9.366574e+000 1.737936e+002
20478175000 -1.016166e+001 -1.662504e+002 -1.326096e+001 8.337062e+001 -1.330284e+001 8.437737e+001 -9.396963e+000 1.732678e+002
20496918750 -1.015403e+001 -1.666317e+002 -1.326219e+001 8.141097e+001 -1.331002e+001 8.245177e+001 -9.433264e+000 1.728174e+002
20515662500 -1.015646e+001 -1.670654e+002 -1.326189e+001 7.952789e+001 -1.330982e+001 8.053132e+001 -9.475119e+000 1.723691e+002
20534406250 -1.016285e+001 -1.675023e+002 -1.326968e+001 7.765402e+001 -1.330824e+001 7.865647e+001 -9.520030e+000 1.719098e+002
20553150000 -1.017383e+001 -1.679805e+002 -1.326887e+001 7.570927e+001 -1.331633e+001 7.673243e+001 -9.570007e+000 1.714602e+002
20571893750 -1.017427e+001 -1.684442e+002 -1.326574e+001 7.385448e+001 -1.332257e+001 7.479559e+001 -9.623342e+000 1.709810e+002
20590637500 -1.017229e+001 -1.688904e+002 -1.327664e+001 7.198987e+001 -1.332241e+001 7.291647e+001 -9.670568e+000 1.705727e+002
20609381250 -1.017793e+001 -1.692764e+002 -1.327747e+001 7.013804e+001 -1.333555e+001 7.107797e+001 -9.722878e+000 1.702012e+002
20628125000 -1.019189e+001 -1.696297e+002 -1.328310e+001 6.829752e+001 -1.334031e+001 6.918908e+001 -9.775618e+000 1.698545e+002
20646868750 -1.020974e+001 -1.700162e+002 -1.328889e+001 6.636167e+001 -1.333640e+001 6.727007e+001 -9.840783e+000 1.695002e+002
20665612500 -1.022846e+001 -1.704460e+002 -1.329089e+001 6.447318e+001 -1.334224e+001 6.535938e+001 -9.905472e+000 1.691419e+002
20684356250 -1.024631e+001 -1.708662e+002 -1.329496e+001 6.262395e+001 -1.334713e+001 6.344790e+001 -9.966784e+000 1.688058e+002
20703100000 -1.025556e+001 -1.712202e+002 -1.330061e+001 6.073153e+001 -1.335313e+001 6.157463e+001 -1.003017e+001 1.685594e+002
20721843750 -1.027003e+001 -1.715407e+002 -1.330052e+001 5.880347e+001 -1.336054e+001 5.964954e+001 -1.010344e+001 1.683075e+002
20740587500 -1.029609e+001 -1.718545e+002 -1.330924e+001 5.692877e+001 -1.336337e+001 5.770454e+001 -1.018262e+001 1.680475e+002
20759331250 -1.032486e+001 -1.722126e+002 -1.331381e+001 5.499037e+001 -1.337014e+001 5.578063e+001 -1.026527e+001 1.677921e+002
20778075000 -1.035121e+001 -1.725952e+002 -1.330923e+001 5.307113e+001 -1.337938e+001 5.384037e+001 -1.034890e+001 1.675270e+002
20796818750 -1.037708e+001 -1.729581e+002 -1.332010e+001 5.113576e+001 -1.338111e+001 5.191758e+001 -1.043209e+001 1.673323e+002
20815562500 -1.039239e+001 -1.732810e+002 -1.332565e+001 4.919462e+001 -1.338734e+001 5.000616e+001 -1.051483e+001 1.671677e+002
20834306250 -1.041619e+001 -1.735508e+002 -1.333010e+001 4.724963e+001 -1.339577e+001 4.806363e+001 -1.060393e+001 1.670675e+002
20853050000 -1.044726e+001 -1.737882e+002 -1.333586e+001 4.534684e+001 -1.340529e+001 4.614965e+001 -1.069980e+001 1.670137e+002
20871793750 -1.048148e+001 -1.740642e+002 -1.334344e+001 4.337571e+001 -1.341221e+001 4.421093e+001 -1.079697e+001 1.669738e+002
20890537500 -1.052191e+001 -1.743519e+002 -1.335099e+001 4.141904e+001 -1.342000e+001 4.223591e+001 -1.088954e+001 1.668810e+002
20909281250 -1.054530e+001 -1.746215e+002 -1.336046e+001 3.949569e+001 -1.342238e+001 4.027861e+001 -1.097126e+001 1.668894e+002
20928025000 -1.057283e+001 -1.748987e+002 -1.336820e+001 3.756634e+001 -1.342803e+001 3.832608e+001 -1.106435e+001 1.669393e+002
20946768750 -1.060443e+001 -1.750307e+002 -1.337721e+001 3.565144e+001 -1.343818e+001 3.639936e+001 -1.115763e+001 1.670313e+002
20965512500 -1.063989e+001 -1.751828e+002 -1.339048e+001 3.367716e+001 -1.344248e+001 3.444444e+001 -1.125534e+001 1.671682e+002
20984256250 -1.067216e+001 -1.753642e+002 -1.340579e+001 3.172133e+001 -1.344908e+001 3.247415e+001 -1.135773e+001 1.672926e+002
21003000000 -1.071361e+001 -1.755982e+002 -1.341619e+001 2.974749e+001 -1.346500e+001 3.055794e+001 -1.144621e+001 1.674300e+002
21021743750 -1.074369e+001 -1.757564e+002 -1.342371e+001 2.776911e+001 -1.347002e+001 2.860365e+001 -1.153248e+001 1.676446e+002
21040487500 -1.077173e+001 -1.759312e+002 -1.343486e+001 2.574784e+001 -1.347997e+001 2.658332e+001 -1.162099e+001 1.679375e+002
21059231250 -1.080773e+001 -1.760048e+002 -1.344719e+001 2.379321e+001 -1.349351e+001 2.462088e+001 -1.171348e+001 1.682297e+002
21077975000 -1.085139e+001 -1.760671e+002 -1.346109e+001 2.185657e+001 -1.350784e+001 2.266279e+001 -1.180272e+001 1.686276e+002
21096718750 -1.088667e+001 -1.761842e+002 -1.347297e+001 1.990597e+001 -1.351723e+001 2.068335e+001 -1.189501e+001 1.689572e+002
21115462500 -1.092340e+001 -1.763220e+002 -1.348965e+001 1.792593e+001 -1.352472e+001 1.872149e+001 -1.197624e+001 1.693393e+002
21134206250 -1.095343e+001 -1.764148e+002 -1.350314e+001 1.588656e+001 -1.353646e+001 1.670907e+001 -1.205345e+001 1.697724e+002
21152950000 -1.098557e+001 -1.764832e+002 -1.351201e+001 1.395170e+001 -1.354913e+001 1.476573e+001 -1.212690e+001 1.702852e+002
21171693750 -1.101397e+001 -1.764585e+002 -1.353080e+001 1.198071e+001 -1.356264e+001 1.278154e+001 -1.220057e+001 1.708884e+002
21190437500 -1.106046e+001 -1.764152e+002 -1.354427e+001 1.002286e+001 -1.357865e+001 1.078139e+001 -1.227395e+001 1.714758e+002
21209181250 -1.110266e+001 -1.764493e+002 -1.356328e+001 8.038153e+000 -1.359669e+001 8.775841e+000 -1.234699e+001 1.720735e+002
21227925000 -1.113135e+001 -1.765067e+002 -1.358077e+001 6.096949e+000 -1.361649e+001 6.783206e+000 -1.239524e+001 1.725999e+002
21246668750 -1.115562e+001 -1.765499e+002 -1.359462e+001 4.093580e+000 -1.363073e+001 4.786397e+000 -1.243648e+001 1.732286e+002
21265412500 -1.117531e+001 -1.765647e+002 -1.361623e+001 2.130381e+000 -1.364448e+001 2.755866e+000 -1.247273e+001 1.738450e+002
21284156250 -1.120669e+001 -1.765189e+002 -1.363533e+001 1.319300e-001 -1.366090e+001 7.590901e-001 -1.249825e+001 1.745851e+002
21302900000 -1.123832e+001 -1.764240e+002 -1.365344e+001 -1.861939e+000 -1.367371e+001 -1.210102e+000 -1.253422e+001 1.753451e+002
21321643750 -1.126386e+001 -1.764115e+002 -1.367009e+001 -3.818127e+000 -1.368843e+001 -3.213003e+000 -1.257105e+001 1.760800e+002
21340387500 -1.129069e+001 -1.764053e+002 -1.368966e+001 -5.867602e+000 -1.371313e+001 -5.232676e+000 -1.258868e+001 1.767573e+002
21359131250 -1.130162e+001 -1.764037e+002 -1.370928e+001 -7.867761e+000 -1.373295e+001 -7.266430e+000 -1.258903e+001 1.774665e+002
21377875000 -1.130527e+001 -1.763701e+002 -1.373661e+001 -9.879124e+000 -1.375418e+001 -9.280549e+000 -1.258662e+001 1.781733e+002
21396618750 -1.132065e+001 -1.762775e+002 -1.375756e+001 -1.189234e+001 -1.378396e+001 -1.130759e+001 -1.257757e+001 1.789534e+002
21415362500 -1.134221e+001 -1.761478e+002 -1.377947e+001 -1.383109e+001 -1.380270e+001 -1.334066e+001 -1.256741e+001 1.797450e+002
21434106250 -1.136008e+001 -1.760998e+002 -1.380562e+001 -1.585844e+001 -1.381912e+001 -1.537951e+001 -1.256186e+001 -1.795538e+002
21452850000 -1.137543e+001 -1.761134e+002 -1.383343e+001 -1.789720e+001 -1.385368e+001 -1.744682e+001 -1.254218e+001 -1.788956e+002
21471593750 -1.138278e+001 -1.760400e+002 -1.385611e+001 -1.987267e+001 -1.387868e+001 -1.943743e+001 -1.251882e+001 -1.781994e+002
21490337500 -1.137144e+001 -1.759799e+002 -1.388081e+001 -2.189866e+001 -1.390214e+001 -2.145705e+001 -1.248286e+001 -1.774905e+002
21509081250 -1.136969e+001 -1.758226e+002 -1.390451e+001 -2.395480e+001 -1.393219e+001 -2.354024e+001 -1.243444e+001 -1.767526e+002
21527825000 -1.137667e+001 -1.756967e+002 -1.393930e+001 -2.597017e+001 -1.396108e+001 -2.560360e+001 -1.239847e+001 -1.760143e+002
21546568750 -1.138107e+001 -1.756136e+002 -1.395985e+001 -2.805617e+001 -1.400118e+001 -2.769012e+001 -1.235617e+001 -1.754371e+002
21565312500 -1.139334e+001 -1.756215e+002 -1.398831e+001 -2.999975e+001 -1.402961e+001 -2.972894e+001 -1.229650e+001 -1.748808e+002
21584056250 -1.137757e+001 -1.755926e+002 -1.402607e+001 -3.206539e+001 -1.406298e+001 -3.177627e+001 -1.223352e+001 -1.743160e+002
21602800000 -1.135640e+001 -1.755341e+002 -1.405428e+001 -3.413361e+001 -1.410036e+001 -3.375558e+001 -1.215746e+001 -1.738475e+002
21621543750 -1.133424e+001 -1.754006e+002 -1.408356e+001 -3.619146e+001 -1.413103e+001 -3.583118e+001 -1.207932e+001 -1.732785e+002
21640287500 -1.133100e+001 -1.752068e+002 -1.412201e+001 -3.825835e+001 -1.416200e+001 -3.787198e+001 -1.201672e+001 -1.727497e+002
21659031250 -1.132925e+001 -1.751126e+002 -1.415425e+001 -4.033850e+001 -1.420721e+001 -3.991552e+001 -1.195122e+001 -1.722976e+002
21677775000 -1.132636e+001 -1.750476e+002 -1.419175e+001 -4.235486e+001 -1.424598e+001 -4.198711e+001 -1.186851e+001 -1.718660e+002
21696518750 -1.131058e+001 -1.749608e+002 -1.422806e+001 -4.444397e+001 -1.427980e+001 -4.396669e+001 -1.179189e+001 -1.714686e+002
21715262500 -1.127346e+001 -1.748725e+002 -1.426635e+001 -4.650255e+001 -1.433170e+001 -4.600066e+001 -1.171535e+001 -1.711966e+002
21734006250 -1.125393e+001 -1.746848e+002 -1.430168e+001 -4.851952e+001 -1.437386e+001 -4.813793e+001 -1.162680e+001 -1.708324e+002
21752750000 -1.124857e+001 -1.745316e+002 -1.434544e+001 -5.059692e+001 -1.441041e+001 -5.019716e+001 -1.154907e+001 -1.705336e+002
21771493750 -1.124362e+001 -1.744680e+002 -1.438278e+001 -5.263773e+001 -1.445504e+001 -5.223410e+001 -1.147465e+001 -1.703100e+002
21790237500 -1.122965e+001 -1.744211e+002 -1.442512e+001 -5.465247e+001 -1.449563e+001 -5.428639e+001 -1.139626e+001 -1.701106e+002
21808981250 -1.120424e+001 -1.744207e+002 -1.446249e+001 -5.673933e+001 -1.453506e+001 -5.634897e+001 -1.131315e+001 -1.698841e+002
21827725000 -1.116573e+001 -1.743030e+002 -1.449641e+001 -5.881154e+001 -1.457817e+001 -5.841326e+001 -1.122179e+001 -1.697179e+002
21846468750 -1.113594e+001 -1.741311e+002 -1.453847e+001 -6.089129e+001 -1.462227e+001 -6.046526e+001 -1.113305e+001 -1.695198e+002
21865212500 -1.112250e+001 -1.739264e+002 -1.458635e+001 -6.300231e+001 -1.466842e+001 -6.251840e+001 -1.105746e+001 -1.693457e+002
21883956250 -1.111095e+001 -1.738754e+002 -1.462310e+001 -6.501635e+001 -1.470984e+001 -6.457470e+001 -1.097061e+001 -1.692269e+002
21902700000 -1.109038e+001 -1.739039e+002 -1.466992e+001 -6.703983e+001 -1.475034e+001 -6.668526e+001 -1.087607e+001 -1.691811e+002
21921443750 -1.105967e+001 -1.739182e+002 -1.471262e+001 -6.914891e+001 -1.479856e+001 -6.874130e+001 -1.078953e+001 -1.691050e+002
21940187500 -1.101488e+001 -1.738722e+002 -1.476396e+001 -7.118050e+001 -1.484368e+001 -7.079963e+001 -1.070488e+001 -1.691066e+002
21958931250 -1.098108e+001 -1.737241e+002 -1.481208e+001 -7.327450e+001 -1.488547e+001 -7.286406e+001 -1.061648e+001 -1.690082e+002
21977675000 -1.096144e+001 -1.736232e+002 -1.486309e+001 -7.533165e+001 -1.492457e+001 -7.485862e+001 -1.053769e+001 -1.689545e+002
21996418750 -1.093664e+001 -1.735861e+002 -1.491281e+001 -7.741809e+001 -1.498710e+001 -7.698412e+001 -1.046457e+001 -1.689960e+002
22015162500 -1.091044e+001 -1.736381e+002 -1.496747e+001 -7.946738e+001 -1.503396e+001 -7.909964e+001 -1.038864e+001 -1.690277e+002
22033906250 -1.087714e+001 -1.736563e+002 -1.501364e+001 -8.155824e+001 -1.508189e+001 -8.118555e+001 -1.032085e+001 -1.690452e+002
22052650000 -1.083140e+001 -1.736235e+002 -1.506047e+001 -8.358793e+001 -1.514682e+001 -8.325496e+001 -1.024582e+001 -1.691081e+002
22071393750 -1.078468e+001 -1.735352e+002 -1.511716e+001 -8.561533e+001 -1.519554e+001 -8.530691e+001 -1.016930e+001 -1.691407e+002
22090137500 -1.075949e+001 -1.734574e+002 -1.516371e+001 -8.777053e+001 -1.524564e+001 -8.734164e+001 -1.010439e+001 -1.691654e+002
22108881250 -1.072589e+001 -1.734410e+002 -1.521649e+001 -8.981070e+001 -1.531056e+001 -8.942531e+001 -1.005050e+001 -1.692511e+002
22127625000 -1.068806e+001 -1.735142e+002 -1.527837e+001 -9.189875e+001 -1.536575e+001 -9.151925e+001 -9.983912e+000 -1.692963e+002
22146368750 -1.064866e+001 -1.735585e+002 -1.532375e+001 -9.402843e+001 -1.541280e+001 -9.356011e+001 -9.921914e+000 -1.693380e+002
22165112500 -1.059615e+001 -1.735377e+002 -1.538431e+001 -9.609890e+001 -1.547513e+001 -9.566776e+001 -9.857028e+000 -1.694200e+002
22183856250 -1.055194e+001 -1.734625e+002 -1.544314e+001 -9.819182e+001 -1.553010e+001 -9.770226e+001 -9.798773e+000 -1.694531e+002
22202600000 -1.051749e+001 -1.733920e+002 -1.549526e+001 -1.002575e+002 -1.559694e+001 -9.978805e+001 -9.743046e+000 -1.695410e+002
22221343750 -1.048829e+001 -1.733930e+002 -1.556059e+001 -1.023450e+002 -1.565753e+001 -1.019047e+002 -9.680326e+000 -1.696486e+002
22240087500 -1.045216e+001 -1.733890e+002 -1.561745e+001 -1.044591e+002 -1.571723e+001 -1.039774e+002 -9.619500e+000 -1.697502e+002
22258831250 -1.040886e+001 -1.734528e+002 -1.567509e+001 -1.065108e+002 -1.578486e+001 -1.060581e+002 -9.567617e+000 -1.698832e+002
22277575000 -1.035390e+001 -1.734702e+002 -1.574135e+001 -1.086009e+002 -1.585218e+001 -1.081819e+002 -9.508684e+000 -1.699398e+002
22296318750 -1.029665e+001 -1.734366e+002 -1.580102e+001 -1.107315e+002 -1.591907e+001 -1.102470e+002 -9.450815e+000 -1.699840e+002
22315062500 -1.025500e+001 -1.733698e+002 -1.586237e+001 -1.128244e+002 -1.599095e+001 -1.123153e+002 -9.409593e+000 -1.700934e+002
22333806250 -1.021038e+001 -1.733750e+002 -1.593008e+001 -1.149931e+002 -1.605251e+001 -1.144661e+002 -9.357234e+000 -1.702010e+002
22352550000 -1.017650e+001 -1.733953e+002 -1.600205e+001 -1.171183e+002 -1.611118e+001 -1.165105e+002 -9.306077e+000 -1.702839e+002
22371293750 -1.012702e+001 -1.734951e+002 -1.605729e+001 -1.192332e+002 -1.618316e+001 -1.186235e+002 -9.256325e+000 -1.704010e+002
22390037500 -1.007113e+001 -1.735118e+002 -1.612347e+001 -1.213469e+002 -1.625588e+001 -1.207016e+002 -9.195985e+000 -1.705128e+002
22408781250 -1.001451e+001 -1.734758e+002 -1.619581e+001 -1.234926e+002 -1.632974e+001 -1.227739e+002 -9.149815e+000 -1.705409e+002
22427525000 -9.969031e+000 -1.734068e+002 -1.625398e+001 -1.256156e+002 -1.640124e+001 -1.248706e+002 -9.103318e+000 -1.706098e+002
22446268750 -9.929438e+000 -1.734039e+002 -1.633290e+001 -1.277356e+002 -1.646521e+001 -1.269947e+002 -9.050385e+000 -1.707159e+002
22465012500 -9.884143e+000 -1.735056e+002 -1.640181e+001 -1.298852e+002 -1.654236e+001 -1.290888e+002 -8.996054e+000 -1.707690e+002
22483756250 -9.830140e+000 -1.736133e+002 -1.647926e+001 -1.319586e+002 -1.660840e+001 -1.312674e+002 -8.944775e+000 -1.708224e+002
22502500000 -9.772075e+000 -1.736827e+002 -1.655364e+001 -1.341105e+002 -1.668169e+001 -1.334715e+002 -8.885233e+000 -1.708716e+002
22521243750 -9.714985e+000 -1.736705e+002 -1.661862e+001 -1.362256e+002 -1.674724e+001 -1.355719e+002 -8.831324e+000 -1.708985e+002
22539987500 -9.673318e+000 -1.737118e+002 -1.669384e+001 -1.383262e+002 -1.681234e+001 -1.377430e+002 -8.773665e+000 -1.709602e+002
22558731250 -9.631106e+000 -1.737533e+002 -1.676581e+001 -1.404377e+002 -1.689181e+001 -1.398508e+002 -8.717898e+000 -1.710108e+002
22577475000 -9.582730e+000 -1.738666e+002 -1.684493e+001 -1.425725e+002 -1.697290e+001 -1.420193e+002 -8.661970e+000 -1.710200e+002
22596218750 -9.530714e+000 -1.740420e+002 -1.692102e+001 -1.446965e+002 -1.704893e+001 -1.441051e+002 -8.604483e+000 -1.710600e+002
22614962500 -9.466500e+000 -1.741386e+002 -1.699858e+001 -1.468526e+002 -1.713486e+001 -1.463164e+002 -8.542849e+000 -1.710961e+002
22633706250 -9.403666e+000 -1.741798e+002 -1.707991e+001 -1.490019e+002 -1.721336e+001 -1.484456e+002 -8.486263e+000 -1.710755e+002
22652450000 -9.352574e+000 -1.742459e+002 -1.715485e+001 -1.511524e+002 -1.729226e+001 -1.505578e+002 -8.437022e+000 -1.710978e+002
22671193750 -9.308036e+000 -1.744177e+002 -1.723518e+001 -1.532373e+002 -1.737604e+001 -1.527077e+002 -8.377643e+000 -1.711607e+002
22689937500 -9.254336e+000 -1.746280e+002 -1.732424e+001 -1.554411e+002 -1.745307e+001 -1.548993e+002 -8.314481e+000 -1.711671e+002
22708681250 -9.202230e+000 -1.748377e+002 -1.740622e+001 -1.576162e+002 -1.752940e+001 -1.570181e+002 -8.263923e+000 -1.712287e+002
22727425000 -9.138947e+000 -1.750155e+002 -1.750309e+001 -1.597135e+002 -1.762068e+001 -1.591523e+002 -8.196830e+000 -1.712705e+002
22746168750 -9.078600e+000 -1.751284e+002 -1.758761e+001 -1.619540e+002 -1.770125e+001 -1.612984e+002 -8.130937e+000 -1.712410e+002
22764912500 -9.034781e+000 -1.752195e+002 -1.766668e+001 -1.640691e+002 -1.780046e+001 -1.633864e+002 -8.080337e+000 -1.712773e+002
22783656250 -8.985273e+000 -1.754554e+002 -1.775628e+001 -1.661405e+002 -1.789938e+001 -1.655858e+002 -8.016883e+000 -1.713646e+002
22802400000 -8.936739e+000 -1.756838e+002 -1.785287e+001 -1.683115e+002 -1.798468e+001 -1.677176e+002 -7.957693e+000 -1.713502e+002
22821143750 -8.885679e+000 -1.759228e+002 -1.794191e+001 -1.704622e+002 -1.807422e+001 -1.698285e+002 -7.904585e+000 -1.714053e+002
22839887500 -8.830732e+000 -1.761235e+002 -1.803520e+001 -1.726182e+002 -1.817299e+001 -1.720789e+002 -7.836374e+000 -1.714607e+002
22858631250 -8.772174e+000 -1.762899e+002 -1.812356e+001 -1.748150e+002 -1.825693e+001 -1.742431e+002 -7.770862e+000 -1.714510e+002
22877375000 -8.725042e+000 -1.764722e+002 -1.819536e+001 -1.769371e+002 -1.835166e+001 -1.763802e+002 -7.715527e+000 -1.715006e+002
22896118750 -8.683512e+000 -1.766646e+002 -1.829450e+001 -1.790782e+002 -1.844303e+001 -1.786159e+002 -7.645327e+000 -1.715919e+002
22914862500 -8.636007e+000 -1.769602e+002 -1.838356e+001 1.786308e+002 -1.852563e+001 1.792943e+002 -7.581577e+000 -1.716284e+002
22933606250 -8.582754e+000 -1.772320e+002 -1.846568e+001 1.764511e+002 -1.863054e+001 1.771934e+002 -7.520852e+000 -1.716817e+002
22952350000 -8.523447e+000 -1.775289e+002 -1.857519e+001 1.743170e+002 -1.874055e+001 1.749259e+002 -7.455406e+000 -1.717382e+002
22971093750 -8.471018e+000 -1.777191e+002 -1.867591e+001 1.720465e+002 -1.884483e+001 1.727323e+002 -7.403381e+000 -1.717892e+002
22989837500 -8.427816e+000 -1.779503e+002 -1.877319e+001 1.698936e+002 -1.894114e+001 1.705875e+002 -7.345509e+000 -1.719450e+002
23008581250 -8.391261e+000 -1.782207e+002 -1.887479e+001 1.677400e+002 -1.904232e+001 1.684185e+002 -7.275392e+000 -1.720894e+002
23027325000 -8.345928e+000 -1.785044e+002 -1.896635e+001 1.654556e+002 -1.914165e+001 1.662348e+002 -7.212791e+000 -1.721622e+002
23046068750 -8.301559e+000 -1.788230e+002 -1.907354e+001 1.632792e+002 -1.924182e+001 1.640080e+002 -7.148168e+000 -1.722843e+002
23064812500 -8.256850e+000 -1.791048e+002 -1.917620e+001 1.610604e+002 -1.934948e+001 1.618597e+002 -7.080845e+000 -1.723647e+002
23083556250 -8.211493e+000 -1.793306e+002 -1.927463e+001 1.588124e+002 -1.944516e+001 1.596218e+002 -7.018870e+000 -1.724568e+002
23102300000 -8.176724e+000 -1.795780e+002 -1.938225e+001 1.565694e+002 -1.954517e+001 1.574100e+002 -6.959853e+000 -1.725937e+002
23121043750 -8.147307e+000 -1.798490e+002 -1.948827e+001 1.543433e+002 -1.966689e+001 1.552085e+002 -6.895259e+000 -1.727391e+002
23139787500 -8.110824e+000 1.798448e+002 -1.958321e+001 1.521702e+002 -1.978614e+001 1.529631e+002 -6.825851e+000 -1.728721e+002
23158531250 -8.077383e+000 1.795419e+002 -1.967799e+001 1.500038e+002 -1.990312e+001 1.507188e+002 -6.765398e+000 -1.730179e+002
23177275000 -8.040127e+000 1.792538e+002 -1.978740e+001 1.478533e+002 -2.002163e+001 1.484461e+002 -6.702205e+000 -1.731726e+002
23196018750 -8.002904e+000 1.789962e+002 -1.989592e+001 1.456324e+002 -2.012691e+001 1.462204e+002 -6.635852e+000 -1.733268e+002
23214762500 -7.975218e+000 1.787794e+002 -1.999707e+001 1.433063e+002 -2.022876e+001 1.439713e+002 -6.572126e+000 -1.735001e+002
23233506250 -7.953811e+000 1.784648e+002 -2.011651e+001 1.410915e+002 -2.035641e+001 1.418598e+002 -6.507381e+000 -1.736757e+002
23252250000 -7.923287e+000 1.781286e+002 -2.022363e+001 1.389592e+002 -2.047542e+001 1.395480e+002 -6.441987e+000 -1.738412e+002
23270993750 -7.888608e+000 1.778263e+002 -2.032748e+001 1.366953e+002 -2.058290e+001 1.372905e+002 -6.382185e+000 -1.740115e+002
23289737500 -7.857905e+000 1.775272e+002 -2.044931e+001 1.344283e+002 -2.070394e+001 1.351061e+002 -6.319799e+000 -1.741959e+002
23308481250 -7.829434e+000 1.772921e+002 -2.058410e+001 1.320543e+002 -2.083014e+001 1.329219e+002 -6.257537e+000 -1.743787e+002
23327225000 -7.810054e+000 1.770168e+002 -2.070048e+001 1.297843e+002 -2.094039e+001 1.306317e+002 -6.197501e+000 -1.745852e+002
23345968750 -7.792729e+000 1.767355e+002 -2.082924e+001 1.274767e+002 -2.107528e+001 1.283149e+002 -6.132229e+000 -1.747939e+002
23364712500 -7.771626e+000 1.764175e+002 -2.095627e+001 1.252372e+002 -2.117587e+001 1.260630e+002 -6.067966e+000 -1.749867e+002
23383456250 -7.748708e+000 1.761555e+002 -2.107056e+001 1.230246e+002 -2.129337e+001 1.239319e+002 -6.006033e+000 -1.751807e+002
23402200000 -7.724977e+000 1.758952e+002 -2.119054e+001 1.208202e+002 -2.142215e+001 1.216414e+002 -5.945149e+000 -1.753744e+002
23420943750 -7.706363e+000 1.756800e+002 -2.130930e+001 1.185167e+002 -2.154791e+001 1.194028e+002 -5.886988e+000 -1.755597e+002
23439687500 -7.692494e+000 1.754282e+002 -2.144208e+001 1.163152e+002 -2.168027e+001 1.171589e+002 -5.829312e+000 -1.757981e+002
23458431250 -7.677643e+000 1.751420e+002 -2.159037e+001 1.141144e+002 -2.182512e+001 1.150194e+002 -5.767118e+000 -1.760500e+002
23477175000 -7.652287e+000 1.748747e+002 -2.171025e+001 1.117511e+002 -2.196126e+001 1.128339e+002 -5.704462e+000 -1.762659e+002
23495918750 -7.630647e+000 1.746399e+002 -2.184403e+001 1.094940e+002 -2.207930e+001 1.106015e+002 -5.645813e+000 -1.764855e+002
23514662500 -7.606150e+000 1.744163e+002 -2.198773e+001 1.072152e+002 -2.222345e+001 1.083275e+002 -5.589879e+000 -1.767169e+002
23533406250 -7.586559e+000 1.742537e+002 -2.211693e+001 1.049963e+002 -2.234861e+001 1.061357e+002 -5.538274e+000 -1.769311e+002
23552150000 -7.574174e+000 1.740670e+002 -2.223647e+001 1.027507e+002 -2.247938e+001 1.039847e+002 -5.485983e+000 -1.772110e+002
23570893750 -7.556955e+000 1.738269e+002 -2.239056e+001 1.004374e+002 -2.261982e+001 1.017991e+002 -5.428691e+000 -1.774623e+002
23589637500 -7.536352e+000 1.736407e+002 -2.252009e+001 9.803106e+001 -2.273270e+001 9.956194e+001 -5.376171e+000 -1.776933e+002
23608381250 -7.514466e+000 1.734410e+002 -2.265670e+001 9.572426e+001 -2.287142e+001 9.742767e+001 -5.322521e+000 -1.779444e+002
23627125000 -7.487135e+000 1.732800e+002 -2.280266e+001 9.339358e+001 -2.302090e+001 9.515150e+001 -5.269868e+000 -1.781727e+002
23645868750 -7.465353e+000 1.731557e+002 -2.295059e+001 9.114991e+001 -2.315681e+001 9.292051e+001 -5.223369e+000 -1.784420e+002
23664612500 -7.448447e+000 1.730176e+002 -2.308261e+001 8.898458e+001 -2.329354e+001 9.069119e+001 -5.168620e+000 -1.787443e+002
23683356250 -7.429358e+000 1.728142e+002 -2.322544e+001 8.667669e+001 -2.342235e+001 8.854539e+001 -5.112659e+000 -1.790195e+002
23702100000 -7.404942e+000 1.726187e+002 -2.337047e+001 8.438342e+001 -2.354247e+001 8.634645e+001 -5.062205e+000 -1.792738e+002
23720843750 -7.379812e+000 1.724793e+002 -2.352973e+001 8.223306e+001 -2.370425e+001 8.410831e+001 -5.012737e+000 -1.795352e+002
23739587500 -7.352222e+000 1.723833e+002 -2.365571e+001 8.014363e+001 -2.386727e+001 8.199320e+001 -4.966609e+000 -1.797891e+002
23758331250 -7.328406e+000 1.723049e+002 -2.380917e+001 7.797501e+001 -2.402300e+001 7.975864e+001 -4.921697e+000 1.799218e+002
23777075000 -7.313374e+000 1.721897e+002 -2.396457e+001 7.579552e+001 -2.417661e+001 7.765091e+001 -4.872558e+000 1.796029e+002
23795818750 -7.285735e+000 1.720329e+002 -2.410663e+001 7.354026e+001 -2.435443e+001 7.545831e+001 -4.820162e+000 1.793203e+002
23814562500 -7.257011e+000 1.719049e+002 -2.427883e+001 7.128938e+001 -2.452323e+001 7.315238e+001 -4.773296e+000 1.790111e+002
23833306250 -7.220931e+000 1.717924e+002 -2.445224e+001 6.915567e+001 -2.467431e+001 7.116510e+001 -4.722667e+000 1.787252e+002
23852050000 -7.182420e+000 1.717083e+002 -2.462253e+001 6.699390e+001 -2.482763e+001 6.884940e+001 -4.674780e+000 1.784250e+002
23870793750 -7.150639e+000 1.716603e+002 -2.476916e+001 6.490575e+001 -2.495227e+001 6.671212e+001 -4.629934e+000 1.781238e+002
23889537500 -7.124684e+000 1.715248e+002 -2.492770e+001 6.276277e+001 -2.510667e+001 6.456516e+001 -4.578522e+000 1.778087e+002
23908281250 -7.095920e+000 1.713699e+002 -2.510166e+001 6.072021e+001 -2.526905e+001 6.254055e+001 -4.531491e+000 1.775241e+002
23927025000 -7.053017e+000 1.712355e+002 -2.525999e+001 5.876637e+001 -2.543676e+001 6.028918e+001 -4.487060e+000 1.772082e+002
23945768750 -7.014798e+000 1.711167e+002 -2.541119e+001 5.696544e+001 -2.561196e+001 5.831258e+001 -4.443424e+000 1.769065e+002
23964512500 -6.971929e+000 1.709982e+002 -2.557072e+001 5.470391e+001 -2.577702e+001 5.618303e+001 -4.397593e+000 1.765948e+002
23983256250 -6.932021e+000 1.709214e+002 -2.578137e+001 5.263818e+001 -2.594057e+001 5.408797e+001 -4.355535e+000 1.762690e+002
24002000000 -6.897000e+000 1.707794e+002 -2.593618e+001 5.063747e+001 -2.609387e+001 5.199506e+001 -4.304295e+000 1.759244e+002
24020743750 -6.852902e+000 1.705865e+002 -2.611856e+001 4.865462e+001 -2.627312e+001 4.996827e+001 -4.257483e+000 1.756239e+002
24039487500 -6.804850e+000 1.704409e+002 -2.631621e+001 4.659591e+001 -2.646727e+001 4.781118e+001 -4.215874e+000 1.752821e+002
24058231250 -6.763115e+000 1.702517e+002 -2.649574e+001 4.467289e+001 -2.662990e+001 4.590215e+001 -4.172871e+000 1.749503e+002
24076975000 -6.706803e+000 1.700907e+002 -2.667271e+001 4.260806e+001 -2.684696e+001 4.379353e+001 -4.130731e+000 1.746204e+002
24095718750 -6.663312e+000 1.699798e+002 -2.686874e+001 4.062357e+001 -2.702703e+001 4.166146e+001 -4.088451e+000 1.742625e+002
24114462500 -6.624063e+000 1.697966e+002 -2.706574e+001 3.846538e+001 -2.722283e+001 3.988337e+001 -4.044662e+000 1.739181e+002
24133206250 -6.569441e+000 1.695885e+002 -2.723936e+001 3.651801e+001 -2.742657e+001 3.800454e+001 -4.002036e+000 1.735837e+002
24151950000 -6.513079e+000 1.693811e+002 -2.742727e+001 3.465347e+001 -2.760540e+001 3.617820e+001 -3.960352e+000 1.732355e+002
24170693750 -6.456522e+000 1.691601e+002 -2.762529e+001 3.249326e+001 -2.778577e+001 3.411198e+001 -3.920501e+000 1.728954e+002
24189437500 -6.395798e+000 1.689870e+002 -2.782748e+001 3.072979e+001 -2.797742e+001 3.228719e+001 -3.884447e+000 1.725506e+002
24208181250 -6.343309e+000 1.688219e+002 -2.798944e+001 2.892382e+001 -2.814386e+001 3.012666e+001 -3.849306e+000 1.721625e+002
24226925000 -6.296311e+000 1.686069e+002 -2.820591e+001 2.696428e+001 -2.830995e+001 2.823272e+001 -3.809357e+000 1.717855e+002
24245668750 -6.238999e+000 1.683675e+002 -2.836990e+001 2.510144e+001 -2.850445e+001 2.661682e+001 -3.770969e+000 1.714397e+002
24264412500 -6.182394e+000 1.680774e+002 -2.853938e+001 2.345325e+001 -2.868187e+001 2.466641e+001 -3.728314e+000 1.710675e+002
24283156250 -6.126254e+000 1.677864e+002 -2.869020e+001 2.163561e+001 -2.887923e+001 2.302613e+001 -3.693884e+000 1.707463e+002
24301900000 -6.062753e+000 1.675538e+002 -2.887866e+001 1.973497e+001 -2.908152e+001 2.135127e+001 -3.663546e+000 1.703950e+002
24320643750 -6.008999e+000 1.673530e+002 -2.905723e+001 1.820228e+001 -2.926045e+001 1.950984e+001 -3.632332e+000 1.699834e+002
24339387500 -5.952711e+000 1.670584e+002 -2.924154e+001 1.630271e+001 -2.943029e+001 1.773390e+001 -3.596491e+000 1.696199e+002
24358131250 -5.893993e+000 1.667527e+002 -2.940570e+001 1.430331e+001 -2.961545e+001 1.609518e+001 -3.561282e+000 1.692515e+002
24376875000 -5.837224e+000 1.664236e+002 -2.959079e+001 1.222987e+001 -2.978442e+001 1.435988e+001 -3.525671e+000 1.688672e+002
24395618750 -5.777455e+000 1.661196e+002 -2.978904e+001 1.050747e+001 -2.996512e+001 1.281148e+001 -3.495324e+000 1.684993e+002
24414362500 -5.718126e+000 1.658169e+002 -2.991961e+001 8.978846e+000 -3.012894e+001 1.112360e+001 -3.461481e+000 1.681108e+002
24433106250 -5.662889e+000 1.655097e+002 -3.010850e+001 7.053102e+000 -3.028817e+001 9.532347e+000 -3.432207e+000 1.677164e+002
24451850000 -5.607301e+000 1.651426e+002 -3.025946e+001 5.391241e+000 -3.050669e+001 7.718931e+000 -3.399118e+000 1.673201e+002
24470593750 -5.549363e+000 1.647920e+002 -3.041623e+001 4.004295e+000 -3.064344e+001 5.982142e+000 -3.369025e+000 1.669521e+002
24489337500 -5.494843e+000 1.644408e+002 -3.059479e+001 2.291360e+000 -3.081290e+001 4.165218e+000 -3.338121e+000 1.665674e+002
24508081250 -5.441049e+000 1.640804e+002 -3.077338e+001 7.634595e-001 -3.094431e+001 2.550822e+000 -3.312992e+000 1.662207e+002
24526825000 -5.383775e+000 1.637494e+002 -3.093343e+001 -1.187499e+000 -3.109787e+001 8.679237e-001 -3.289595e+000 1.658239e+002
24545568750 -5.330307e+000 1.634030e+002 -3.109974e+001 -2.656272e+000 -3.125626e+001 -9.056862e-001 -3.258470e+000 1.654167e+002
24564312500 -5.281255e+000 1.630023e+002 -3.130284e+001 -4.280606e+000 -3.141802e+001 -2.731350e+000 -3.227988e+000 1.650376e+002
24583056250 -5.234308e+000 1.626260e+002 -3.144352e+001 -5.897213e+000 -3.156742e+001 -4.504337e+000 -3.198380e+000 1.646402e+002
24601800000 -5.184518e+000 1.621763e+002 -3.156578e+001 -7.151859e+000 -3.171994e+001 -6.204648e+000 -3.168286e+000 1.642513e+002
24620543750 -5.131042e+000 1.617333e+002 -3.170679e+001 -8.617587e+000 -3.184137e+001 -7.749272e+000 -3.145643e+000 1.638844e+002
24639287500 -5.080427e+000 1.613257e+002 -3.186459e+001 -1.034248e+001 -3.203251e+001 -9.047828e+000 -3.120439e+000 1.634984e+002
24658031250 -5.037556e+000 1.608964e+002 -3.205054e+001 -1.211841e+001 -3.225171e+001 -1.058427e+001 -3.094662e+000 1.630960e+002
24676775000 -4.989101e+000 1.604424e+002 -3.217959e+001 -1.374831e+001 -3.236955e+001 -1.239942e+001 -3.068817e+000 1.627231e+002
24695518750 -4.949652e+000 1.600219e+002 -3.235044e+001 -1.550250e+001 -3.253753e+001 -1.375272e+001 -3.047028e+000 1.623538e+002
24714262500 -4.903997e+000 1.595764e+002 -3.252593e+001 -1.714342e+001 -3.271248e+001 -1.521491e+001 -3.018876e+000 1.619460e+002
24733006250 -4.855147e+000 1.591008e+002 -3.267859e+001 -1.905413e+001 -3.285822e+001 -1.664044e+001 -2.992604e+000 1.615789e+002
24751750000 -4.810240e+000 1.586618e+002 -3.282513e+001 -2.049611e+001 -3.301770e+001 -1.815065e+001 -2.966367e+000 1.612165e+002
24770493750 -4.768010e+000 1.581832e+002 -3.299810e+001 -2.208079e+001 -3.318363e+001 -1.967942e+001 -2.939591e+000 1.608236e+002
24789237500 -4.725011e+000 1.577133e+002 -3.318800e+001 -2.354451e+001 -3.333677e+001 -2.103701e+001 -2.917749e+000 1.604693e+002
24807981250 -4.687751e+000 1.572691e+002 -3.338296e+001 -2.569325e+001 -3.349692e+001 -2.279854e+001 -2.892174e+000 1.601106e+002
24826725000 -4.648581e+000 1.567948e+002 -3.353923e+001 -2.716574e+001 -3.368674e+001 -2.441149e+001 -2.864857e+000 1.597585e+002
24845468750 -4.606670e+000 1.563393e+002 -3.370278e+001 -2.915032e+001 -3.387202e+001 -2.579959e+001 -2.846976e+000 1.594075e+002
24864212500 -4.572538e+000 1.558870e+002 -3.383818e+001 -3.064092e+001 -3.402473e+001 -2.737467e+001 -2.824210e+000 1.590169e+002
24882956250 -4.535489e+000 1.554245e+002 -3.403648e+001 -3.220733e+001 -3.416189e+001 -2.883342e+001 -2.796993e+000 1.586572e+002
24901700000 -4.496720e+000 1.549674e+002 -3.426212e+001 -3.373557e+001 -3.436080e+001 -3.012417e+001 -2.768871e+000 1.583171e+002
24920443750 -4.462071e+000 1.545227e+002 -3.442464e+001 -3.518752e+001 -3.452742e+001 -3.128641e+001 -2.743176e+000 1.579553e+002
24939187500 -4.423907e+000 1.540406e+002 -3.458771e+001 -3.671162e+001 -3.461370e+001 -3.247156e+001 -2.711512e+000 1.576012e+002
24957931250 -4.388622e+000 1.535459e+002 -3.469737e+001 -3.780265e+001 -3.473785e+001 -3.384509e+001 -2.683484e+000 1.572417e+002
24976675000 -4.355886e+000 1.530839e+002 -3.481760e+001 -3.951921e+001 -3.497453e+001 -3.518669e+001 -2.659718e+000 1.568752e+002
24995418750 -4.322993e+000 1.526167e+002 -3.490136e+001 -4.077116e+001 -3.511080e+001 -3.662089e+001 -2.630380e+000 1.565003e+002
25014162500 -4.285112e+000 1.521443e+002 -3.506373e+001 -4.247407e+001 -3.528739e+001 -3.814962e+001 -2.609729e+000 1.561208e+002
25032906250 -4.257871e+000 1.516892e+002 -3.529453e+001 -4.347487e+001 -3.554012e+001 -3.937452e+001 -2.582830e+000 1.557185e+002
25051650000 -4.227399e+000 1.512271e+002 -3.550674e+001 -4.532528e+001 -3.568107e+001 -4.083072e+001 -2.553241e+000 1.553036e+002
25070393750 -4.190547e+000 1.507630e+002 -3.568493e+001 -4.672399e+001 -3.581687e+001 -4.232330e+001 -2.530804e+000 1.549343e+002
25089137500 -4.159331e+000 1.503115e+002 -3.577171e+001 -4.783584e+001 -3.585186e+001 -4.374741e+001 -2.501665e+000 1.545391e+002
25107881250 -4.128480e+000 1.498071e+002 -3.602131e+001 -4.929382e+001 -3.593485e+001 -4.537446e+001 -2.474629e+000 1.541565e+002
25126625000 -4.095779e+000 1.493571e+002 -3.613661e+001 -5.046820e+001 -3.611950e+001 -4.710149e+001 -2.452181e+000 1.537764e+002
25145368750 -4.072007e+000 1.489036e+002 -3.639936e+001 -5.160006e+001 -3.632107e+001 -4.802989e+001 -2.431878e+000 1.533805e+002
25164112500 -4.049045e+000 1.484342e+002 -3.656335e+001 -5.235763e+001 -3.651414e+001 -4.968731e+001 -2.410367e+000 1.529869e+002
25182856250 -4.026257e+000 1.479621e+002 -3.679742e+001 -5.448684e+001 -3.674626e+001 -5.088042e+001 -2.396452e+000 1.525810e+002
25201600000 -4.010274e+000 1.475026e+002 -3.699868e+001 -5.580432e+001 -3.688926e+001 -5.213498e+001 -2.375014e+000 1.521830e+002
25220343750 -3.986600e+000 1.469697e+002 -3.730375e+001 -5.698318e+001 -3.705806e+001 -5.341326e+001 -2.352437e+000 1.517962e+002
25239087500 -3.956384e+000 1.465065e+002 -3.742780e+001 -5.728885e+001 -3.726070e+001 -5.393161e+001 -2.334429e+000 1.514056e+002
25257831250 -3.938230e+000 1.460075e+002 -3.760592e+001 -5.787198e+001 -3.737503e+001 -5.512457e+001 -2.318919e+000 1.510030e+002
25276575000 -3.911731e+000 1.455191e+002 -3.781444e+001 -5.809948e+001 -3.753503e+001 -5.561454e+001 -2.299208e+000 1.506176e+002
25295318750 -3.888937e+000 1.450720e+002 -3.810582e+001 -5.849766e+001 -3.784256e+001 -5.615618e+001 -2.282396e+000 1.502327e+002
25314062500 -3.877092e+000 1.445640e+002 -3.830803e+001 -5.884653e+001 -3.793972e+001 -5.620668e+001 -2.265966e+000 1.498207e+002
25332806250 -3.854188e+000 1.440247e+002 -3.840846e+001 -5.982197e+001 -3.817784e+001 -5.657081e+001 -2.247370e+000 1.494558e+002
25351550000 -3.832103e+000 1.435558e+002 -3.862944e+001 -5.935515e+001 -3.830700e+001 -5.689952e+001 -2.234766e+000 1.490907e+002
25370293750 -3.820261e+000 1.430565e+002 -3.876046e+001 -5.976045e+001 -3.852773e+001 -5.724948e+001 -2.223696e+000 1.487505e+002
25389037500 -3.805022e+000 1.425459e+002 -3.893815e+001 -6.041011e+001 -3.872174e+001 -5.805015e+001 -2.217156e+000 1.484031e+002
25407781250 -3.784733e+000 1.420739e+002 -3.906588e+001 -6.023542e+001 -3.888979e+001 -5.838253e+001 -2.205643e+000 1.480567e+002
25426525000 -3.774627e+000 1.415848e+002 -3.927807e+001 -6.025843e+001 -3.907115e+001 -5.824917e+001 -2.199252e+000 1.477035e+002
25445268750 -3.760461e+000 1.410611e+002 -3.939418e+001 -6.043533e+001 -3.940425e+001 -5.879510e+001 -2.184683e+000 1.473741e+002
25464012500 -3.734916e+000 1.405920e+002 -3.964418e+001 -6.064973e+001 -3.952516e+001 -5.957903e+001 -2.175708e+000 1.470681e+002
25482756250 -3.714176e+000 1.401366e+002 -3.991138e+001 -6.087683e+001 -3.970734e+001 -5.969773e+001 -2.166711e+000 1.467672e+002
25501500000 -3.705699e+000 1.397097e+002 -4.018550e+001 -6.071682e+001 -3.976294e+001 -5.996458e+001 -2.152055e+000 1.464300e+002
25520243750 -3.695306e+000 1.391739e+002 -4.021466e+001 -6.056581e+001 -3.988951e+001 -6.003348e+001 -2.147492e+000 1.461307e+002
25538987500 -3.677861e+000 1.387146e+002 -4.023616e+001 -6.015466e+001 -4.011051e+001 -5.934349e+001 -2.139648e+000 1.458284e+002
25557731250 -3.665211e+000 1.382453e+002 -4.035562e+001 -5.999655e+001 -4.016543e+001 -5.877250e+001 -2.125942e+000 1.455346e+002
25576475000 -3.647639e+000 1.377246e+002 -4.031599e+001 -5.935730e+001 -4.018379e+001 -5.947298e+001 -2.118066e+000 1.452825e+002
25595218750 -3.623252e+000 1.372839e+002 -4.038022e+001 -5.947416e+001 -4.034626e+001 -5.928843e+001 -2.108544e+000 1.449902e+002
25613962500 -3.609554e+000 1.368531e+002 -4.039118e+001 -5.882373e+001 -4.026427e+001 -5.898282e+001 -2.099977e+000 1.446986e+002
25632706250 -3.586782e+000 1.363764e+002 -4.037685e+001 -5.854396e+001 -4.041810e+001 -5.953502e+001 -2.094815e+000 1.444010e+002
25651450000 -3.571582e+000 1.359731e+002 -4.024552e+001 -5.868085e+001 -4.044469e+001 -5.989698e+001 -2.088316e+000 1.440961e+002
25670193750 -3.563845e+000 1.355171e+002 -4.025764e+001 -5.884309e+001 -4.041289e+001 -6.047380e+001 -2.077957e+000 1.438377e+002
25688937500 -3.544684e+000 1.350372e+002 -4.028483e+001 -5.934599e+001 -4.044790e+001 -6.076602e+001 -2.069906e+000 1.435778e+002
25707681250 -3.528491e+000 1.346258e+002 -4.021165e+001 -5.972985e+001 -4.038274e+001 -6.145841e+001 -2.059240e+000 1.433041e+002
25726425000 -3.521745e+000 1.342077e+002 -4.015895e+001 -6.026043e+001 -4.031430e+001 -6.191892e+001 -2.054773e+000 1.430042e+002
25745168750 -3.507051e+000 1.337516e+002 -4.012395e+001 -6.031948e+001 -4.028706e+001 -6.239741e+001 -2.050295e+000 1.427268e+002
25763912500 -3.493826e+000 1.333546e+002 -4.020622e+001 -6.142530e+001 -4.016814e+001 -6.376654e+001 -2.046040e+000 1.424252e+002
25782656250 -3.487375e+000 1.328707e+002 -4.017155e+001 -6.244797e+001 -4.024142e+001 -6.456410e+001 -2.037769e+000 1.421492e+002
25801400000 -3.472034e+000 1.324055e+002 -4.035327e+001 -6.215644e+001 -4.032295e+001 -6.565641e+001 -2.031650e+000 1.418485e+002
25820143750 -3.451750e+000 1.320214e+002 -4.036462e+001 -6.269225e+001 -4.022228e+001 -6.602617e+001 -2.024724e+000 1.415543e+002
25838887500 -3.448581e+000 1.315878e+002 -4.047355e+001 -6.380839e+001 -4.020107e+001 -6.706246e+001 -2.021050e+000 1.412599e+002
25857631250 -3.432477e+000 1.311103e+002 -4.046467e+001 -6.487378e+001 -4.031300e+001 -6.734178e+001 -2.013094e+000 1.409395e+002
25876375000 -3.419589e+000 1.306954e+002 -4.044463e+001 -6.567122e+001 -4.015983e+001 -6.822040e+001 -2.005746e+000 1.406532e+002
25895118750 -3.421488e+000 1.302377e+002 -4.026246e+001 -6.756805e+001 -4.007484e+001 -6.814991e+001 -1.996555e+000 1.403840e+002
25913862500 -3.413400e+000 1.297183e+002 -4.002424e+001 -6.819810e+001 -4.007348e+001 -6.830219e+001 -1.990175e+000 1.401249e+002
25932606250 -3.397584e+000 1.292616e+002 -3.987392e+001 -6.891203e+001 -4.036185e+001 -6.759126e+001 -1.988042e+000 1.398552e+002
25951350000 -3.392546e+000 1.288904e+002 -4.013778e+001 -6.971844e+001 -4.032515e+001 -6.809115e+001 -1.985203e+000 1.395449e+002
25970093750 -3.388903e+000 1.284104e+002 -4.015545e+001 -7.083974e+001 -4.042243e+001 -6.937516e+001 -1.981115e+000 1.392456e+002
25988837500 -3.375652e+000 1.279541e+002 -4.015903e+001 -7.159743e+001 -4.047960e+001 -7.072338e+001 -1.978735e+000 1.389519e+002
26007581250 -3.370738e+000 1.275153e+002 -4.021136e+001 -7.327255e+001 -4.045507e+001 -7.136705e+001 -1.972643e+000 1.386577e+002
26026325000 -3.365372e+000 1.270499e+002 -4.027478e+001 -7.395406e+001 -4.045251e+001 -7.138564e+001 -1.964136e+000 1.383775e+002
26045068750 -3.350138e+000 1.266298e+002 -4.033701e+001 -7.422609e+001 -4.062498e+001 -7.291455e+001 -1.962798e+000 1.380868e+002
26063812500 -3.357808e+000 1.262154e+002 -4.032627e+001 -7.501399e+001 -4.064609e+001 -7.286309e+001 -1.959046e+000 1.378001e+002
26082556250 -3.355270e+000 1.257276e+002 -4.039658e+001 -7.646468e+001 -4.073607e+001 -7.322443e+001 -1.950294e+000 1.375107e+002
26101300000 -3.343219e+000 1.252626e+002 -4.052276e+001 -7.757525e+001 -4.079153e+001 -7.360212e+001 -1.948379e+000 1.372017e+002
26120043750 -3.337804e+000 1.248508e+002 -4.050687e+001 -7.762176e+001 -4.095766e+001 -7.450101e+001 -1.942494e+000 1.369134e+002
26138787500 -3.329896e+000 1.243788e+002 -4.066314e+001 -7.850713e+001 -4.108098e+001 -7.480112e+001 -1.942044e+000 1.366617e+002
26157531250 -3.318743e+000 1.239607e+002 -4.070345e+001 -8.010232e+001 -4.111417e+001 -7.573961e+001 -1.941237e+000 1.364116e+002
26176275000 -3.322000e+000 1.235528e+002 -4.079877e+001 -8.266040e+001 -4.119706e+001 -7.647179e+001 -1.936865e+000 1.361087e+002
26195018750 -3.319859e+000 1.230608e+002 -4.075233e+001 -8.230453e+001 -4.124268e+001 -7.588192e+001 -1.932704e+000 1.358162e+002
26213762500 -3.305609e+000 1.226548e+002 -4.081651e+001 -8.293981e+001 -4.132918e+001 -7.632099e+001 -1.931728e+000 1.355428e+002
26232506250 -3.304839e+000 1.222191e+002 -4.069163e+001 -8.449744e+001 -4.132328e+001 -7.624387e+001 -1.931638e+000 1.352454e+002
26251250000 -3.293855e+000 1.217596e+002 -4.063745e+001 -8.543521e+001 -4.145836e+001 -7.702283e+001 -1.929642e+000 1.349749e+002
26269993750 -3.285861e+000 1.213954e+002 -4.064128e+001 -8.574842e+001 -4.133516e+001 -7.750174e+001 -1.930902e+000 1.346878e+002
26288737500 -3.289438e+000 1.209908e+002 -4.057344e+001 -8.708107e+001 -4.136488e+001 -7.830089e+001 -1.929943e+000 1.344138e+002
26307481250 -3.282662e+000 1.205289e+002 -4.063527e+001 -8.719773e+001 -4.122499e+001 -7.839947e+001 -1.929328e+000 1.341255e+002
26326225000 -3.276481e+000 1.201366e+002 -4.067956e+001 -8.730816e+001 -4.127681e+001 -7.995133e+001 -1.933709e+000 1.338162e+002
26344968750 -3.277373e+000 1.197233e+002 -4.072083e+001 -8.740903e+001 -4.133803e+001 -8.092679e+001 -1.936647e+000 1.335103e+002
26363712500 -3.264985e+000 1.193257e+002 -4.079988e+001 -8.830576e+001 -4.108823e+001 -8.265164e+001 -1.941461e+000 1.332147e+002
26382456250 -3.260175e+000 1.189420e+002 -4.072906e+001 -8.891500e+001 -4.129699e+001 -8.377798e+001 -1.946144e+000 1.329058e+002
26401200000 -3.266258e+000 1.185124e+002 -4.083213e+001 -8.945648e+001 -4.124082e+001 -8.360506e+001 -1.945128e+000 1.325550e+002
26419943750 -3.261467e+000 1.180610e+002 -4.087828e+001 -9.057802e+001 -4.116279e+001 -8.292216e+001 -1.947114e+000 1.322368e+002
26438687500 -3.257208e+000 1.176752e+002 -4.091248e+001 -9.169025e+001 -4.136454e+001 -8.348298e+001 -1.950779e+000 1.319270e+002
26457431250 -3.258103e+000 1.171999e+002 -4.098092e+001 -9.267323e+001 -4.131287e+001 -8.496780e+001 -1.957361e+000 1.316290e+002
26476175000 -3.247810e+000 1.167685e+002 -4.097173e+001 -9.317273e+001 -4.131946e+001 -8.572932e+001 -1.963025e+000 1.313359e+002
26494918750 -3.244440e+000 1.164079e+002 -4.099337e+001 -9.345258e+001 -4.141401e+001 -8.679236e+001 -1.969283e+000 1.309678e+002
26513662500 -3.249345e+000 1.159739e+002 -4.097363e+001 -9.295613e+001 -4.142761e+001 -8.739678e+001 -1.978530e+000 1.305937e+002
26532406250 -3.242743e+000 1.155642e+002 -4.100211e+001 -9.285658e+001 -4.147403e+001 -8.821374e+001 -1.978163e+000 1.302698e+002
26551150000 -3.246773e+000 1.151761e+002 -4.106443e+001 -9.364697e+001 -4.136047e+001 -8.833176e+001 -1.980790e+000 1.299384e+002
26569893750 -3.247085e+000 1.147209e+002 -4.110286e+001 -9.477967e+001 -4.133107e+001 -8.885276e+001 -1.987551e+000 1.296083e+002
26588637500 -3.239155e+000 1.143320e+002 -4.113181e+001 -9.428109e+001 -4.153678e+001 -8.928070e+001 -1.996909e+000 1.293030e+002
26607381250 -3.241400e+000 1.139747e+002 -4.119554e+001 -9.319442e+001 -4.182864e+001 -9.044303e+001 -2.007446e+000 1.289596e+002
26626125000 -3.245989e+000 1.135394e+002 -4.136952e+001 -9.367808e+001 -4.205504e+001 -9.180930e+001 -2.015241e+000 1.285853e+002
26644868750 -3.245173e+000 1.131205e+002 -4.141277e+001 -9.469601e+001 -4.205709e+001 -9.273494e+001 -2.018598e+000 1.282262e+002
26663612500 -3.248722e+000 1.127490e+002 -4.146775e+001 -9.500875e+001 -4.214096e+001 -9.430546e+001 -2.018819e+000 1.278835e+002
26682356250 -3.247712e+000 1.123214e+002 -4.161196e+001 -9.517415e+001 -4.229205e+001 -9.501118e+001 -2.024519e+000 1.275819e+002
26701100000 -3.243973e+000 1.119565e+002 -4.160149e+001 -9.615533e+001 -4.239746e+001 -9.553114e+001 -2.037719e+000 1.272446e+002
26719843750 -3.250628e+000 1.115797e+002 -4.181687e+001 -9.596120e+001 -4.232646e+001 -9.553350e+001 -2.049096e+000 1.268549e+002
26738587500 -3.257192e+000 1.111402e+002 -4.205771e+001 -9.761749e+001 -4.252002e+001 -9.688943e+001 -2.056711e+000 1.264723e+002
26757331250 -3.254346e+000 1.107471e+002 -4.228036e+001 -9.828384e+001 -4.250084e+001 -9.642544e+001 -2.059854e+000 1.261061e+002
26776075000 -3.254160e+000 1.103476e+002 -4.239272e+001 -9.979347e+001 -4.252658e+001 -9.778539e+001 -2.064044e+000 1.257828e+002
26794818750 -3.253712e+000 1.098885e+002 -4.251256e+001 -9.917457e+001 -4.278758e+001 -9.891705e+001 -2.067939e+000 1.254624e+002
26813562500 -3.245027e+000 1.095583e+002 -4.249474e+001 -1.000156e+002 -4.285127e+001 -9.888390e+001 -2.078045e+000 1.251423e+002
26832306250 -3.251751e+000 1.092057e+002 -4.265784e+001 -1.016026e+002 -4.283446e+001 -9.925047e+001 -2.088814e+000 1.247874e+002
26851050000 -3.252550e+000 1.087936e+002 -4.268459e+001 -1.019241e+002 -4.287721e+001 -1.001774e+002 -2.093249e+000 1.244189e+002
26869793750 -3.253212e+000 1.084189e+002 -4.274524e+001 -1.013302e+002 -4.271952e+001 -1.003859e+002 -2.094969e+000 1.240734e+002
26888537500 -3.260225e+000 1.080178e+002 -4.285255e+001 -1.016237e+002 -4.298414e+001 -1.010583e+002 -2.100589e+000 1.237132e+002
26907281250 -3.260552e+000 1.076023e+002 -4.301968e+001 -1.026761e+002 -4.300288e+001 -1.010599e+002 -2.104800e+000 1.233879e+002
26926025000 -3.258359e+000 1.072714e+002 -4.302464e+001 -1.031948e+002 -4.296595e+001 -1.013917e+002 -2.115084e+000 1.230764e+002
26944768750 -3.266814e+000 1.069084e+002 -4.312052e+001 -1.035296e+002 -4.309342e+001 -1.024118e+002 -2.123080e+000 1.227131e+002
26963512500 -3.271804e+000 1.064849e+002 -4.305142e+001 -1.041996e+002 -4.320212e+001 -1.031720e+002 -2.126317e+000 1.223303e+002
26982256250 -3.275804e+000 1.061170e+002 -4.322723e+001 -1.048157e+002 -4.351859e+001 -1.026923e+002 -2.133191e+000 1.219823e+002
27001000000 -3.285984e+000 1.057288e+002 -4.320082e+001 -1.045303e+002 -4.364143e+001 -1.038508e+002 -2.138705e+000 1.216112e+002
27019743750 -3.281111e+000 1.053325e+002 -4.325426e+001 -1.050825e+002 -4.342634e+001 -1.037872e+002 -2.143109e+000 1.212668e+002
27038487500 -3.280015e+000 1.050142e+002 -4.311794e+001 -1.051097e+002 -4.329844e+001 -1.039783e+002 -2.150684e+000 1.209319e+002
27057231250 -3.290429e+000 1.046398e+002 -4.295814e+001 -1.055465e+002 -4.320753e+001 -1.037904e+002 -2.156799e+000 1.205579e+002
27075975000 -3.289859e+000 1.042493e+002 -4.286473e+001 -1.066239e+002 -4.325860e+001 -1.035747e+002 -2.157219e+000 1.201911e+002
27094718750 -3.290821e+000 1.038880e+002 -4.280880e+001 -1.069129e+002 -4.317749e+001 -1.027799e+002 -2.164120e+000 1.198418e+002
27113462500 -3.298858e+000 1.034865e+002 -4.284609e+001 -1.073348e+002 -4.303293e+001 -1.027997e+002 -2.168237e+000 1.194632e+002
27132206250 -3.294192e+000 1.030876e+002 -4.290773e+001 -1.075612e+002 -4.303336e+001 -1.027796e+002 -2.176387e+000 1.191124e+002
27150950000 -3.299788e+000 1.027698e+002 -4.280423e+001 -1.068498e+002 -4.308015e+001 -1.039551e+002 -2.186314e+000 1.187509e+002
27169693750 -3.308339e+000 1.024060e+002 -4.268226e+001 -1.065612e+002 -4.304428e+001 -1.030166e+002 -2.192359e+000 1.183573e+002
27188437500 -3.308083e+000 1.020085e+002 -4.254043e+001 -1.063863e+002 -4.320259e+001 -1.029754e+002 -2.192724e+000 1.180019e+002
27207181250 -3.318968e+000 1.016645e+002 -4.252757e+001 -1.060057e+002 -4.318700e+001 -1.020737e+002 -2.195652e+000 1.176233e+002
27225925000 -3.325015e+000 1.012455e+002 -4.238535e+001 -1.071376e+002 -4.319017e+001 -1.014919e+002 -2.200637e+000 1.172608e+002
27244668750 -3.324171e+000 1.008451e+002 -4.242625e+001 -1.075700e+002 -4.306485e+001 -1.014265e+002 -2.203569e+000 1.168956e+002
27263412500 -3.330885e+000 1.005209e+002 -4.220622e+001 -1.067940e+002 -4.297787e+001 -1.026008e+002 -2.212791e+000 1.165346e+002
27282156250 -3.341723e+000 1.001198e+002 -4.220594e+001 -1.066853e+002 -4.304965e+001 -1.043884e+002 -2.215421e+000 1.161265e+002
27300900000 -3.343816e+000 9.973729e+001 -4.224508e+001 -1.074018e+002 -4.311989e+001 -1.050105e+002 -2.217185e+000 1.157408e+002
27319643750 -3.352976e+000 9.937870e+001 -4.214038e+001 -1.080693e+002 -4.288359e+001 -1.042023e+002 -2.219478e+000 1.153728e+002
27338387500 -3.360873e+000 9.895835e+001 -4.204941e+001 -1.090385e+002 -4.274544e+001 -1.050072e+002 -2.214554e+000 1.150108e+002
27357131250 -3.358121e+000 9.860210e+001 -4.213361e+001 -1.096363e+002 -4.275172e+001 -1.054911e+002 -2.215001e+000 1.146641e+002
27375875000 -3.368036e+000 9.827225e+001 -4.215132e+001 -1.097011e+002 -4.257010e+001 -1.057016e+002 -2.216233e+000 1.143269e+002
27394618750 -3.379325e+000 9.786324e+001 -4.215531e+001 -1.106729e+002 -4.247739e+001 -1.061142e+002 -2.221022e+000 1.139594e+002
27413362500 -3.379879e+000 9.748979e+001 -4.205728e+001 -1.110500e+002 -4.215399e+001 -1.071969e+002 -2.222136e+000 1.136105e+002
27432106250 -3.392150e+000 9.711197e+001 -4.206669e+001 -1.114208e+002 -4.209893e+001 -1.074351e+002 -2.222884e+000 1.132574e+002
27450850000 -3.400555e+000 9.667725e+001 -4.200687e+001 -1.113782e+002 -4.206050e+001 -1.080025e+002 -2.223772e+000 1.128620e+002
27469593750 -3.399535e+000 9.632185e+001 -4.194722e+001 -1.128631e+002 -4.181833e+001 -1.086467e+002 -2.231229e+000 1.124780e+002
27488337500 -3.411462e+000 9.598249e+001 -4.213013e+001 -1.141269e+002 -4.174029e+001 -1.089557e+002 -2.240146e+000 1.120699e+002
27507081250 -3.421193e+000 9.558465e+001 -4.215703e+001 -1.149295e+002 -4.174552e+001 -1.101517e+002 -2.242455e+000 1.116742e+002
27525825000 -3.425807e+000 9.524830e+001 -4.220110e+001 -1.161569e+002 -4.170924e+001 -1.105170e+002 -2.241989e+000 1.112970e+002
27544568750 -3.444324e+000 9.488706e+001 -4.215633e+001 -1.168362e+002 -4.171770e+001 -1.109552e+002 -2.241619e+000 1.109437e+002
27563312500 -3.449350e+000 9.448057e+001 -4.217698e+001 -1.183149e+002 -4.166683e+001 -1.120380e+002 -2.231570e+000 1.106166e+002
27582056250 -3.449792e+000 9.416166e+001 -4.219849e+001 -1.197867e+002 -4.161528e+001 -1.130180e+002 -2.230816e+000 1.103281e+002
27600800000 -3.463724e+000 9.380214e+001 -4.219359e+001 -1.198039e+002 -4.160443e+001 -1.139011e+002 -2.233227e+000 1.099795e+002
27619543750 -3.467239e+000 9.340847e+001 -4.219771e+001 -1.203639e+002 -4.147488e+001 -1.143669e+002 -2.231674e+000 1.096096e+002
27638287500 -3.466952e+000 9.310015e+001 -4.211227e+001 -1.206589e+002 -4.155626e+001 -1.151199e+002 -2.232337e+000 1.092676e+002
27657031250 -3.488982e+000 9.271416e+001 -4.213549e+001 -1.217660e+002 -4.131328e+001 -1.162146e+002 -2.228740e+000 1.089134e+002
27675775000 -3.496187e+000 9.231896e+001 -4.214852e+001 -1.220218e+002 -4.135223e+001 -1.182821e+002 -2.226058e+000 1.085858e+002
27694518750 -3.501309e+000 9.201027e+001 -4.231270e+001 -1.220975e+002 -4.138713e+001 -1.190870e+002 -2.227378e+000 1.082705e+002
27713262500 -3.519312e+000 9.166558e+001 -4.230175e+001 -1.229932e+002 -4.127472e+001 -1.174369e+002 -2.235217e+000 1.079370e+002
27732006250 -3.526474e+000 9.129471e+001 -4.223235e+001 -1.230940e+002 -4.134124e+001 -1.174817e+002 -2.231785e+000 1.075903e+002
27750750000 -3.535195e+000 9.099141e+001 -4.211738e+001 -1.235998e+002 -4.143903e+001 -1.195529e+002 -2.233656e+000 1.072704e+002
27769493750 -3.555492e+000 9.058929e+001 -4.203465e+001 -1.239982e+002 -4.165479e+001 -1.189802e+002 -2.238397e+000 1.068936e+002
27788237500 -3.563111e+000 9.019070e+001 -4.204636e+001 -1.256121e+002 -4.151896e+001 -1.196461e+002 -2.238426e+000 1.065811e+002
27806981250 -3.571363e+000 8.988446e+001 -4.208242e+001 -1.271027e+002 -4.157075e+001 -1.197422e+002 -2.247365e+000 1.062522e+002
27825725000 -3.585066e+000 8.953037e+001 -4.210910e+001 -1.281756e+002 -4.158559e+001 -1.198046e+002 -2.252822e+000 1.058954e+002
27844468750 -3.590560e+000 8.915393e+001 -4.205726e+001 -1.297594e+002 -4.165939e+001 -1.200920e+002 -2.248848e+000 1.055270e+002
27863212500 -3.599987e+000 8.886002e+001 -4.209375e+001 -1.304765e+002 -4.159986e+001 -1.207781e+002 -2.249051e+000 1.051882e+002
27881956250 -3.619051e+000 8.845888e+001 -4.216845e+001 -1.316915e+002 -4.172375e+001 -1.222983e+002 -2.247851e+000 1.048542e+002
27900700000 -3.628302e+000 8.802178e+001 -4.226451e+001 -1.324111e+002 -4.198064e+001 -1.229748e+002 -2.240861e+000 1.045715e+002
27919443750 -3.645398e+000 8.771262e+001 -4.204023e+001 -1.324967e+002 -4.184166e+001 -1.237740e+002 -2.244868e+000 1.043205e+002
27938187500 -3.663820e+000 8.732202e+001 -4.216615e+001 -1.326558e+002 -4.177983e+001 -1.236634e+002 -2.247813e+000 1.039688e+002
27956931250 -3.671309e+000 8.696687e+001 -4.207500e+001 -1.325708e+002 -4.176069e+001 -1.250294e+002 -2.244871e+000 1.036670e+002
27975675000 -3.685696e+000 8.665588e+001 -4.205461e+001 -1.329353e+002 -4.172756e+001 -1.253083e+002 -2.250139e+000 1.033530e+002
27994418750 -3.706070e+000 8.623892e+001 -4.195466e+001 -1.322949e+002 -4.176600e+001 -1.266519e+002 -2.249699e+000 1.029935e+002
28013162500 -3.713241e+000 8.585844e+001 -4.195858e+001 -1.327746e+002 -4.174007e+001 -1.271509e+002 -2.248273e+000 1.026921e+002
28031906250 -3.732032e+000 8.553320e+001 -4.188155e+001 -1.343941e+002 -4.176406e+001 -1.282296e+002 -2.255147e+000 1.024219e+002
28050650000 -3.754735e+000 8.513537e+001 -4.178800e+001 -1.347979e+002 -4.170679e+001 -1.299102e+002 -2.262517e+000 1.020949e+002
28069393750 -3.771889e+000 8.476182e+001 -4.180480e+001 -1.359709e+002 -4.166955e+001 -1.310646e+002 -2.263066e+000 1.017841e+002
28088137500 -3.790501e+000 8.446771e+001 -4.176079e+001 -1.361745e+002 -4.167323e+001 -1.312290e+002 -2.272748e+000 1.014887e+002
28106881250 -3.811945e+000 8.405876e+001 -4.171681e+001 -1.367643e+002 -4.163959e+001 -1.310378e+002 -2.271431e+000 1.011527e+002
28125625000 -3.822637e+000 8.368324e+001 -4.148574e+001 -1.375298e+002 -4.181057e+001 -1.313752e+002 -2.269775e+000 1.008831e+002
28144368750 -3.840512e+000 8.336076e+001 -4.153580e+001 -1.392521e+002 -4.197007e+001 -1.335975e+002 -2.273669e+000 1.005766e+002
28163112500 -3.858598e+000 8.299474e+001 -4.148812e+001 -1.407183e+002 -4.190560e+001 -1.349574e+002 -2.278691e+000 1.002453e+002
28181856250 -3.871017e+000 8.267721e+001 -4.158932e+001 -1.411759e+002 -4.174824e+001 -1.359441e+002 -2.280467e+000 9.998035e+001
28200600000 -3.892193e+000 8.242449e+001 -4.165037e+001 -1.415255e+002 -4.156963e+001 -1.376936e+002 -2.286818e+000 9.971410e+001
28219343750 -3.911366e+000 8.205496e+001 -4.165944e+001 -1.419277e+002 -4.164418e+001 -1.381739e+002 -2.283552e+000 9.942412e+001
28238087500 -3.925138e+000 8.172388e+001 -4.162307e+001 -1.431335e+002 -4.160811e+001 -1.391500e+002 -2.282458e+000 9.918452e+001
28256831250 -3.945412e+000 8.143590e+001 -4.163866e+001 -1.434740e+002 -4.163579e+001 -1.414169e+002 -2.289150e+000 9.892712e+001
28275575000 -3.965357e+000 8.110317e+001 -4.160464e+001 -1.443800e+002 -4.167675e+001 -1.428434e+002 -2.291672e+000 9.861100e+001
28294318750 -3.983396e+000 8.082398e+001 -4.158287e+001 -1.456764e+002 -4.163143e+001 -1.437760e+002 -2.296445e+000 9.835434e+001
28313062500 -4.010960e+000 8.055146e+001 -4.150478e+001 -1.461872e+002 -4.157234e+001 -1.444599e+002 -2.301414e+000 9.805466e+001
28331806250 -4.032337e+000 8.026186e+001 -4.150983e+001 -1.467905e+002 -4.154507e+001 -1.452845e+002 -2.298246e+000 9.775343e+001
28350550000 -4.044494e+000 7.998582e+001 -4.167728e+001 -1.478994e+002 -4.172602e+001 -1.463620e+002 -2.299767e+000 9.752428e+001
28369293750 -4.068862e+000 7.971196e+001 -4.155923e+001 -1.483588e+002 -4.177031e+001 -1.477928e+002 -2.310090e+000 9.725896e+001
28388037500 -4.084536e+000 7.937911e+001 -4.170698e+001 -1.506831e+002 -4.189981e+001 -1.492050e+002 -2.319164e+000 9.697808e+001
28406781250 -4.101984e+000 7.913245e+001 -4.172843e+001 -1.514506e+002 -4.198604e+001 -1.506731e+002 -2.328054e+000 9.671224e+001
28425525000 -4.124080e+000 7.889928e+001 -4.199140e+001 -1.530322e+002 -4.211707e+001 -1.518352e+002 -2.337046e+000 9.640663e+001
28444268750 -4.145663e+000 7.860308e+001 -4.205149e+001 -1.543705e+002 -4.240692e+001 -1.528896e+002 -2.340502e+000 9.612970e+001
28463012500 -4.167055e+000 7.838700e+001 -4.226423e+001 -1.551932e+002 -4.253801e+001 -1.531538e+002 -2.345397e+000 9.586598e+001
28481756250 -4.190798e+000 7.814664e+001 -4.254748e+001 -1.564852e+002 -4.279588e+001 -1.538841e+002 -2.355976e+000 9.558425e+001
28500500000 -4.208378e+000 7.789200e+001 -4.263198e+001 -1.578330e+002 -4.284178e+001 -1.552833e+002 -2.360816e+000 9.533390e+001
28519243750 -4.223228e+000 7.769451e+001 -4.280711e+001 -1.590591e+002 -4.319329e+001 -1.572620e+002 -2.367561e+000 9.507285e+001
28537987500 -4.244852e+000 7.749168e+001 -4.293768e+001 -1.603892e+002 -4.334235e+001 -1.576938e+002 -2.377081e+000 9.478451e+001
28556731250 -4.261230e+000 7.725204e+001 -4.318864e+001 -1.614716e+002 -4.340005e+001 -1.591108e+002 -2.381533e+000 9.451239e+001
28575475000 -4.275017e+000 7.703131e+001 -4.324554e+001 -1.617746e+002 -4.365202e+001 -1.599779e+002 -2.395390e+000 9.425778e+001
28594218750 -4.295243e+000 7.677071e+001 -4.353365e+001 -1.626920e+002 -4.371941e+001 -1.611736e+002 -2.408312e+000 9.397878e+001
28612962500 -4.307444e+000 7.651723e+001 -4.372593e+001 -1.641573e+002 -4.398507e+001 -1.611039e+002 -2.412103e+000 9.367805e+001
28631706250 -4.320208e+000 7.633766e+001 -4.388378e+001 -1.641790e+002 -4.422857e+001 -1.612153e+002 -2.420850e+000 9.336903e+001
28650450000 -4.339063e+000 7.610406e+001 -4.404588e+001 -1.632437e+002 -4.434262e+001 -1.615705e+002 -2.432607e+000 9.303424e+001
28669193750 -4.351618e+000 7.586565e+001 -4.429021e+001 -1.628893e+002 -4.459545e+001 -1.618527e+002 -2.435131e+000 9.277870e+001
28687937500 -4.367740e+000 7.567701e+001 -4.472202e+001 -1.627216e+002 -4.457720e+001 -1.605840e+002 -2.450244e+000 9.248327e+001
28706681250 -4.386000e+000 7.543956e+001 -4.503631e+001 -1.617847e+002 -4.464126e+001 -1.617112e+002 -2.462893e+000 9.220696e+001
28725425000 -4.394105e+000 7.520898e+001 -4.516229e+001 -1.621048e+002 -4.494775e+001 -1.609588e+002 -2.473248e+000 9.189969e+001
28744168750 -4.406077e+000 7.502913e+001 -4.532433e+001 -1.622542e+002 -4.514532e+001 -1.601285e+002 -2.485769e+000 9.162187e+001
28762912500 -4.421698e+000 7.481124e+001 -4.560452e+001 -1.618412e+002 -4.523164e+001 -1.600467e+002 -2.497765e+000 9.132240e+001
28781656250 -4.433241e+000 7.458129e+001 -4.565174e+001 -1.610102e+002 -4.522535e+001 -1.604713e+002 -2.502367e+000 9.103321e+001
28800400000 -4.448400e+000 7.437138e+001 -4.588053e+001 -1.597502e+002 -4.543274e+001 -1.605141e+002 -2.516939e+000 9.076737e+001
28819143750 -4.468791e+000 7.414162e+001 -4.608086e+001 -1.589697e+002 -4.561618e+001 -1.584048e+002 -2.525265e+000 9.044074e+001
28837887500 -4.476440e+000 7.391838e+001 -4.617213e+001 -1.584987e+002 -4.562477e+001 -1.576475e+002 -2.530749e+000 9.014630e+001
28856631250 -4.495944e+000 7.371487e+001 -4.605623e+001 -1.580034e+002 -4.565326e+001 -1.553237e+002 -2.549763e+000 8.986037e+001
28875375000 -4.512770e+000 7.349095e+001 -4.612673e+001 -1.568951e+002 -4.555258e+001 -1.547629e+002 -2.559233e+000 8.951679e+001
28894118750 -4.521861e+000 7.327130e+001 -4.616704e+001 -1.556660e+002 -4.560119e+001 -1.543888e+002 -2.574602e+000 8.922428e+001
28912862500 -4.534409e+000 7.306927e+001 -4.623717e+001 -1.546524e+002 -4.576596e+001 -1.531483e+002 -2.589257e+000 8.890179e+001
28931606250 -4.545710e+000 7.281819e+001 -4.629164e+001 -1.535618e+002 -4.567970e+001 -1.521757e+002 -2.602654e+000 8.851803e+001
28950350000 -4.557372e+000 7.263018e+001 -4.633519e+001 -1.523707e+002 -4.548497e+001 -1.504825e+002 -2.614177e+000 8.820303e+001
28969093750 -4.572891e+000 7.243764e+001 -4.631923e+001 -1.503817e+002 -4.547324e+001 -1.495222e+002 -2.625697e+000 8.787875e+001
28987837500 -4.589643e+000 7.221592e+001 -4.628510e+001 -1.500985e+002 -4.546077e+001 -1.480997e+002 -2.635437e+000 8.756667e+001
29006581250 -4.607838e+000 7.205071e+001 -4.630350e+001 -1.488967e+002 -4.524679e+001 -1.480513e+002 -2.650434e+000 8.731223e+001
29025325000 -4.622584e+000 7.187761e+001 -4.617668e+001 -1.486516e+002 -4.530212e+001 -1.473660e+002 -2.673627e+000 8.696593e+001
29044068750 -4.635404e+000 7.165996e+001 -4.608150e+001 -1.474091e+002 -4.525478e+001 -1.467377e+002 -2.689452e+000 8.660209e+001
29062812500 -4.646605e+000 7.145113e+001 -4.590166e+001 -1.477071e+002 -4.511590e+001 -1.462672e+002 -2.706110e+000 8.628853e+001
29081556250 -4.662331e+000 7.127987e+001 -4.579564e+001 -1.474753e+002 -4.507942e+001 -1.469876e+002 -2.724220e+000 8.591320e+001
29100300000 -4.676593e+000 7.110487e+001 -4.557895e+001 -1.477419e+002 -4.493382e+001 -1.472406e+002 -2.736611e+000 8.554934e+001
29119043750 -4.695313e+000 7.093478e+001 -4.529266e+001 -1.476425e+002 -4.486852e+001 -1.465843e+002 -2.751557e+000 8.524028e+001
29137787500 -4.711368e+000 7.073436e+001 -4.511256e+001 -1.479665e+002 -4.476778e+001 -1.462591e+002 -2.773353e+000 8.487761e+001
29156531250 -4.722743e+000 7.053033e+001 -4.493812e+001 -1.480792e+002 -4.456188e+001 -1.468550e+002 -2.785203e+000 8.452654e+001
29175275000 -4.730808e+000 7.036066e+001 -4.473090e+001 -1.479190e+002 -4.441977e+001 -1.471036e+002 -2.803720e+000 8.419930e+001
29194018750 -4.739460e+000 7.019087e+001 -4.444653e+001 -1.474771e+002 -4.422839e+001 -1.476406e+002 -2.823769e+000 8.381776e+001
29212762500 -4.746798e+000 7.003802e+001 -4.433391e+001 -1.480313e+002 -4.423151e+001 -1.473260e+002 -2.836889e+000 8.343575e+001
29231506250 -4.755234e+000 6.990073e+001 -4.419701e+001 -1.485194e+002 -4.401395e+001 -1.471174e+002 -2.858648e+000 8.311478e+001
29250250000 -4.768095e+000 6.973853e+001 -4.404243e+001 -1.482336e+002 -4.379363e+001 -1.485073e+002 -2.883667e+000 8.269104e+001
29268993750 -4.772600e+000 6.954472e+001 -4.396672e+001 -1.486288e+002 -4.383808e+001 -1.494414e+002 -2.898936e+000 8.228641e+001
29287737500 -4.777179e+000 6.941125e+001 -4.397115e+001 -1.492416e+002 -4.369312e+001 -1.507666e+002 -2.914498e+000 8.195768e+001
29306481250 -4.784950e+000 6.927173e+001 -4.386629e+001 -1.499768e+002 -4.357058e+001 -1.511819e+002 -2.931413e+000 8.157880e+001
29325225000 -4.787491e+000 6.916022e+001 -4.359108e+001 -1.511814e+002 -4.341735e+001 -1.515183e+002 -2.939123e+000 8.122742e+001
29343968750 -4.802736e+000 6.904533e+001 -4.332304e+001 -1.525380e+002 -4.305427e+001 -1.527437e+002 -2.960432e+000 8.090375e+001
29362712500 -4.810809e+000 6.889797e+001 -4.326671e+001 -1.536632e+002 -4.304135e+001 -1.536195e+002 -2.979018e+000 8.050022e+001
29381456250 -4.806390e+000 6.870523e+001 -4.311634e+001 -1.546002e+002 -4.300113e+001 -1.543154e+002 -2.990838e+000 8.009286e+001
29400200000 -4.808051e+000 6.855696e+001 -4.300525e+001 -1.566422e+002 -4.275092e+001 -1.561137e+002 -3.013916e+000 7.972736e+001
29418943750 -4.806975e+000 6.839865e+001 -4.291599e+001 -1.568201e+002 -4.259388e+001 -1.572140e+002 -3.025155e+000 7.928282e+001
29437687500 -4.806135e+000 6.826762e+001 -4.292334e+001 -1.577805e+002 -4.258338e+001 -1.572109e+002 -3.028689e+000 7.890182e+001
29456431250 -4.813746e+000 6.813792e+001 -4.290317e+001 -1.580494e+002 -4.233783e+001 -1.580676e+002 -3.050026e+000 7.855533e+001
29475175000 -4.818428e+000 6.795091e+001 -4.276684e+001 -1.592750e+002 -4.218298e+001 -1.588652e+002 -3.067928e+000 7.812997e+001
29493918750 -4.814909e+000 6.778327e+001 -4.276004e+001 -1.608061e+002 -4.212374e+001 -1.601459e+002 -3.081416e+000 7.776009e+001
29512662500 -4.811642e+000 6.764913e+001 -4.267218e+001 -1.623996e+002 -4.195847e+001 -1.608155e+002 -3.102936e+000 7.737235e+001
29531406250 -4.806115e+000 6.750127e+001 -4.258831e+001 -1.620967e+002 -4.195256e+001 -1.614949e+002 -3.114371e+000 7.691476e+001
29550150000 -4.803252e+000 6.737980e+001 -4.232561e+001 -1.632869e+002 -4.190963e+001 -1.634309e+002 -3.126062e+000 7.653994e+001
29568893750 -4.808984e+000 6.726525e+001 -4.217237e+001 -1.646223e+002 -4.193133e+001 -1.643335e+002 -3.149461e+000 7.613343e+001
29587637500 -4.808106e+000 6.705386e+001 -4.212249e+001 -1.651404e+002 -4.188117e+001 -1.650048e+002 -3.162773e+000 7.568364e+001
29606381250 -4.796185e+000 6.689111e+001 -4.213266e+001 -1.664338e+002 -4.171723e+001 -1.664830e+002 -3.175592e+000 7.529034e+001
29625125000 -4.795088e+000 6.675382e+001 -4.210909e+001 -1.688362e+002 -4.165945e+001 -1.668241e+002 -3.194062e+000 7.485995e+001
29643868750 -4.786699e+000 6.661420e+001 -4.202228e+001 -1.701133e+002 -4.163510e+001 -1.685033e+002 -3.206396e+000 7.443055e+001
29662612500 -4.782940e+000 6.649958e+001 -4.179126e+001 -1.721848e+002 -4.157866e+001 -1.701194e+002 -3.217594e+000 7.404008e+001
29681356250 -4.784770e+000 6.631290e+001 -4.162530e+001 -1.733939e+002 -4.147744e+001 -1.715346e+002 -3.237718e+000 7.362644e+001
29700100000 -4.781874e+000 6.609960e+001 -4.150173e+001 -1.749765e+002 -4.137077e+001 -1.725003e+002 -3.248747e+000 7.318237e+001
29718843750 -4.772914e+000 6.591054e+001 -4.126972e+001 -1.765111e+002 -4.132501e+001 -1.738763e+002 -3.261572e+000 7.274489e+001
29737587500 -4.765172e+000 6.573111e+001 -4.126122e+001 -1.783092e+002 -4.124690e+001 -1.753367e+002 -3.277423e+000 7.228281e+001
29756331250 -4.756947e+000 6.552740e+001 -4.123365e+001 -1.791845e+002 -4.109999e+001 -1.772784e+002 -3.287465e+000 7.186102e+001
29775075000 -4.750980e+000 6.539312e+001 -4.124059e+001 1.784415e+002 -4.109125e+001 -1.794133e+002 -3.302565e+000 7.149769e+001
29793818750 -4.756145e+000 6.520229e+001 -4.113483e+001 1.776638e+002 -4.098960e+001 1.789115e+002 -3.321971e+000 7.112174e+001
29812562500 -4.765151e+000 6.498156e+001 -4.103276e+001 1.762583e+002 -4.084028e+001 1.765018e+002 -3.341592e+000 7.071450e+001
29831306250 -4.766174e+000 6.476707e+001 -4.096149e+001 1.753559e+002 -4.086053e+001 1.748019e+002 -3.354695e+000 7.032740e+001
29850050000 -4.772081e+000 6.458157e+001 -4.087667e+001 1.737282e+002 -4.077047e+001 1.728762e+002 -3.380386e+000 6.997401e+001
29868793750 -4.770097e+000 6.435793e+001 -4.069416e+001 1.724546e+002 -4.057586e+001 1.708774e+002 -3.398310e+000 6.956583e+001
29887537500 -4.766366e+000 6.420445e+001 -4.052781e+001 1.715256e+002 -4.057753e+001 1.694620e+002 -3.399624e+000 6.923602e+001
29906281250 -4.772894e+000 6.408847e+001 -4.047644e+001 1.708943e+002 -4.047147e+001 1.675428e+002 -3.415471e+000 6.895132e+001
29925025000 -4.780399e+000 6.390479e+001 -4.040344e+001 1.706161e+002 -4.037410e+001 1.659969e+002 -3.426987e+000 6.862361e+001
29943768750 -4.785403e+000 6.373753e+001 -4.034012e+001 1.697245e+002 -4.033509e+001 1.649675e+002 -3.432966e+000 6.838354e+001
29962512500 -4.792588e+000 6.355764e+001 -4.027566e+001 1.680388e+002 -4.015955e+001 1.634319e+002 -3.454227e+000 6.814120e+001
29981256250 -4.788650e+000 6.337638e+001 -4.031354e+001 1.675783e+002 -4.012899e+001 1.620520e+002 -3.462774e+000 6.785461e+001
30000000000 -4.783226e+000 6.326583e+001 -4.029913e+001 1.672208e+002 -3.998960e+001 1.612021e+002 -3.463995e+000 6.766650e+001
