!Mini-Circuits Laboratory
!S-Parameters
!Model: QCH-392+
!Run/Date Code: 1935
!DATA FOR: UNIT # 3
!Unit soldered on TB-863
!Freq	S11:SOLT4(ON)	S12:SOLT4(ON)	S13:SOLT4(ON)	S14:SOLT4(ON)
!	S21:SOLT4(ON)	S22:SOLT4(ON)	S23:SOLT4(ON)	S24:SOLT4(ON)
!	S31:SOLT4(ON)	S32:SOLT4(ON)	S33:SOLT4(ON)	S34:SOLT4(ON)
!	S41:SOLT4(ON)	S42:SOLT4(ON)	S43:SOLT4(ON)	S44:SOLT4(ON)
!PortZ  Port1:50+j0    Port2:50+j0    Port3:50+j0    Port4:50+j0
!Above PortZ is port z conversion or system Z0 setting when saving the data.
!Connection: PORT-1 - pin<1>;   PORT-2 - pin<2>;    PORT-3- pin<3>; PORT-4- pin<4>
!When reading, reference impedance value at option line is always used.
# Hz S RI R 50
10000000	-1.199600e-003	-1.301606e-002	5.911781e-004	8.837274e-003	9.926914e-001	-3.852316e-002	9.199489e-004	1.977578e-002
	5.934886e-004	8.842879e-003	-1.394569e-003	-1.258551e-002	9.156180e-004	1.976344e-002	9.917975e-001	-3.829298e-002
	9.919169e-001	-3.849773e-002	9.162560e-004	1.976966e-002	-1.203606e-003	-1.293991e-002	5.738356e-004	8.852251e-003
	9.193304e-004	1.977366e-002	9.934307e-001	-3.837376e-002	5.762217e-004	8.844384e-003	-1.394178e-003	-1.241493e-002
14990000	-1.949035e-003	-1.994051e-002	1.367904e-003	1.319205e-002	9.913331e-001	-5.754225e-002	2.020617e-003	2.956576e-002
	1.364339e-003	1.320728e-002	-1.820209e-003	-1.911021e-002	2.024956e-003	2.956201e-002	9.905392e-001	-5.727960e-002
	9.905950e-001	-5.755628e-002	2.019142e-003	2.957858e-002	-1.314449e-003	-1.959687e-002	1.314392e-003	1.320671e-002
	2.026869e-003	2.957039e-002	9.920996e-001	-5.735094e-002	1.324699e-003	1.320445e-002	-2.635685e-003	-1.875622e-002
19980000	-2.497591e-003	-2.507056e-002	2.335977e-003	1.753105e-002	9.897297e-001	-7.645784e-002	3.528444e-003	3.932318e-002
	2.336124e-003	1.753723e-002	-2.420242e-003	-2.479136e-002	3.529575e-003	3.929071e-002	9.889749e-001	-7.620977e-002
	9.888733e-001	-7.635275e-002	3.517979e-003	3.931044e-002	-2.381707e-003	-2.551869e-002	2.309052e-003	1.750752e-002
	3.528925e-003	3.931466e-002	9.904334e-001	-7.608564e-002	2.325461e-003	1.750433e-002	-3.127894e-003	-2.483288e-002
24970000	-3.636984e-003	-3.085304e-002	3.610694e-003	2.175437e-002	9.875522e-001	-9.517097e-002	5.451619e-003	4.898114e-002
	3.613924e-003	2.175496e-002	-3.562730e-003	-3.057814e-002	5.449187e-003	4.892103e-002	9.868443e-001	-9.488032e-002
	9.866664e-001	-9.509811e-002	5.431091e-003	4.895850e-002	-3.798844e-003	-3.147824e-002	3.582658e-003	2.172034e-002
	5.457495e-003	4.896621e-002	9.882963e-001	-9.475425e-002	3.595746e-003	2.169368e-002	-4.109658e-003	-3.062379e-002
29960000	-5.246911e-003	-3.707466e-002	5.219215e-003	2.585822e-002	9.847903e-001	-1.137334e-001	7.803126e-003	5.851495e-002
	5.191973e-003	2.587557e-002	-5.107457e-003	-3.668763e-002	7.775880e-003	5.844271e-002	9.841521e-001	-1.133292e-001
	9.838998e-001	-1.137289e-001	7.793652e-003	5.847711e-002	-5.209243e-003	-3.749169e-002	5.138315e-003	2.582338e-002
	7.800218e-003	5.850324e-002	9.855080e-001	-1.133403e-001	5.139977e-003	2.578756e-002	-5.731442e-003	-3.637674e-002
34950000	-7.309253e-003	-4.285874e-002	7.026442e-003	2.981993e-002	9.814786e-001	-1.322460e-001	1.054363e-002	6.791476e-002
	7.013010e-003	2.983003e-002	-7.052129e-003	-4.206387e-002	1.052044e-002	6.783988e-002	9.809795e-001	-1.317699e-001
	9.805744e-001	-1.322000e-001	1.052940e-002	6.786798e-002	-6.967407e-003	-4.318738e-002	6.927792e-003	2.977611e-002
	1.054402e-002	6.790137e-002	9.823677e-001	-1.319081e-001	6.945296e-003	2.976346e-002	-7.497285e-003	-4.168516e-002
39940000	-9.647019e-003	-4.814933e-002	9.051471e-003	3.363969e-002	9.777616e-001	-1.505656e-001	1.364379e-002	7.717366e-002
	9.046989e-003	3.364371e-002	-9.230027e-003	-4.710764e-002	1.363867e-002	7.708122e-002	9.773659e-001	-1.500002e-001
	9.768090e-001	-1.505281e-001	1.363675e-002	7.710924e-002	-8.933384e-003	-4.849748e-002	8.943952e-003	3.363274e-002
	1.366496e-002	7.715110e-002	9.787865e-001	-1.502674e-001	8.961342e-003	3.360805e-002	-9.377533e-003	-4.662072e-002
44930000	-1.248679e-002	-5.309287e-002	1.127499e-002	3.725895e-002	9.736209e-001	-1.685980e-001	1.711892e-002	8.625862e-002
	1.126568e-002	3.726289e-002	-1.189410e-002	-5.176623e-002	1.709944e-002	8.613844e-002	9.733142e-001	-1.680345e-001
	9.726934e-001	-1.684651e-001	1.709695e-002	8.618260e-002	-1.125352e-002	-5.324209e-002	1.115886e-002	3.730114e-002
	1.713909e-002	8.623048e-002	9.746452e-001	-1.683255e-001	1.119703e-002	3.727765e-002	-1.158383e-002	-5.135987e-002
49920000	-1.552411e-002	-5.762659e-002	1.368273e-002	4.071017e-002	9.692080e-001	-1.863904e-001	2.095263e-002	9.516612e-002
	1.369456e-002	4.071771e-002	-1.480468e-002	-5.594089e-002	2.090573e-002	9.503165e-002	9.689091e-001	-1.859378e-001
	9.682817e-001	-1.863096e-001	2.090279e-002	9.507631e-002	-1.384351e-002	-5.776940e-002	1.359971e-002	4.080876e-002
	2.097231e-002	9.513162e-002	9.701907e-001	-1.861806e-001	1.362968e-002	4.078510e-002	-1.407158e-002	-5.593977e-002
54910000	-1.856944e-002	-6.170726e-002	1.626947e-002	4.399914e-002	9.640978e-001	-2.040442e-001	2.511653e-002	1.038686e-001
	1.626918e-002	4.399717e-002	-1.761823e-002	-5.993810e-002	2.505397e-002	1.037210e-001	9.639309e-001	-2.035578e-001
	9.631519e-001	-2.039131e-001	2.505455e-002	1.037746e-001	-1.660098e-002	-6.167206e-002	1.620463e-002	4.413878e-002
	2.514200e-002	1.038324e-001	9.651171e-001	-2.038017e-001	1.622758e-002	4.411778e-002	-1.684216e-002	-6.011877e-002
59900000	-2.170366e-002	-6.537510e-002	1.898281e-002	4.712699e-002	9.587233e-001	-2.215113e-001	2.962306e-002	1.123953e-001
	1.898519e-002	4.712964e-002	-2.062748e-002	-6.350588e-002	2.954467e-002	1.122254e-001	9.585566e-001	-2.210851e-001
	9.578325e-001	-2.214086e-001	2.953875e-002	1.122763e-001	-1.934042e-002	-6.551750e-002	1.898610e-002	4.730249e-002
	2.964221e-002	1.123443e-001	9.597939e-001	-2.213207e-001	1.900165e-002	4.731784e-002	-1.957146e-002	-6.387101e-002
64890000	-2.470850e-002	-6.871295e-002	2.187654e-002	5.008675e-002	9.529710e-001	-2.388633e-001	3.444905e-002	1.207039e-001
	2.186993e-002	5.011417e-002	-2.360572e-002	-6.692686e-002	3.436355e-002	1.205248e-001	9.527600e-001	-2.383604e-001
	9.519654e-001	-2.387254e-001	3.434568e-002	1.205790e-001	-2.240798e-002	-6.896914e-002	2.194469e-002	5.029480e-002
	3.445476e-002	1.206595e-001	9.540626e-001	-2.386618e-001	2.194022e-002	5.031210e-002	-2.263312e-002	-6.754310e-002
69880000	-2.778962e-002	-7.181704e-002	2.495854e-002	5.294866e-002	9.465029e-001	-2.557514e-001	3.957024e-002	1.287997e-001
	2.492553e-002	5.294173e-002	-2.649616e-002	-7.027596e-002	3.948408e-002	1.286123e-001	9.463611e-001	-2.552162e-001
	9.455187e-001	-2.555986e-001	3.947477e-002	1.286709e-001	-2.539657e-002	-7.221760e-002	2.499775e-002	5.316033e-002
	3.958902e-002	1.287244e-001	9.476519e-001	-2.556515e-001	2.505144e-002	5.316860e-002	-2.565759e-002	-7.061204e-002
74870000	-3.079124e-002	-7.499218e-002	2.820854e-002	5.568552e-002	9.397506e-001	-2.725584e-001	4.505622e-002	1.366468e-001
	2.818608e-002	5.569077e-002	-2.940510e-002	-7.335383e-002	4.491417e-002	1.364823e-001	9.396602e-001	-2.721259e-001
	9.388592e-001	-2.723930e-001	4.491114e-002	1.365420e-001	-2.837529e-002	-7.512188e-002	2.830590e-002	5.583853e-002
	4.503248e-002	1.366016e-001	9.409042e-001	-2.723145e-001	2.829129e-002	5.585329e-002	-2.896747e-002	-7.377665e-002
79860000	-3.367928e-002	-7.775176e-002	3.162236e-002	5.824602e-002	9.326791e-001	-2.891304e-001	5.080828e-002	1.442863e-001
	3.157516e-002	5.830992e-002	-3.243347e-002	-7.636804e-002	5.062968e-002	1.441389e-001	9.326493e-001	-2.885908e-001
	9.318507e-001	-2.888708e-001	5.066939e-002	1.442080e-001	-3.155479e-002	-7.795072e-002	3.170927e-002	5.837412e-002
	5.076652e-002	1.442534e-001	9.338505e-001	-2.891041e-001	3.168704e-002	5.834765e-002	-3.243482e-002	-7.637964e-002
84850000	-3.679868e-002	-8.037950e-002	3.513626e-002	6.068287e-002	9.253237e-001	-3.053976e-001	5.681626e-002	1.516857e-001
	3.515023e-002	6.070458e-002	-3.547952e-002	-7.899989e-002	5.666361e-002	1.515309e-001	9.252525e-001	-3.049802e-001
	9.244605e-001	-3.051334e-001	5.665379e-002	1.516347e-001	-3.485786e-002	-8.054395e-002	3.519141e-002	6.072814e-002
	5.682291e-002	1.516322e-001	9.265232e-001	-3.053692e-001	3.522757e-002	6.067107e-002	-3.587960e-002	-7.878638e-002
89840000	-4.009700e-002	-8.258856e-002	3.875570e-002	6.287414e-002	9.175595e-001	-3.213490e-001	6.307721e-002	1.588217e-001
	3.874237e-002	6.290077e-002	-3.881518e-002	-8.131879e-002	6.291548e-002	1.586918e-001	9.175868e-001	-3.207724e-001
	9.167295e-001	-3.211064e-001	6.292499e-002	1.587680e-001	-3.808303e-002	-8.275788e-002	3.882674e-002	6.286594e-002
	6.310412e-002	1.587517e-001	9.186439e-001	-3.215446e-001	3.886379e-002	6.284723e-002	-3.948839e-002	-8.101569e-002
94830000	-4.362933e-002	-8.460907e-002	4.253529e-002	6.481405e-002	9.095267e-001	-3.371423e-001	6.960029e-002	1.657070e-001
	4.250165e-002	6.486005e-002	-4.241486e-002	-8.357187e-002	6.941616e-002	1.655649e-001	9.096387e-001	-3.364332e-001
	9.086998e-001	-3.369137e-001	6.948241e-002	1.656238e-001	-4.168208e-002	-8.475803e-002	4.254333e-002	6.479238e-002
	6.965567e-002	1.656299e-001	9.106244e-001	-3.375001e-001	4.258900e-002	6.482504e-002	-4.302971e-002	-8.291804e-002
99820000	-4.716490e-002	-8.641293e-002	4.630397e-002	6.657871e-002	9.012183e-001	-3.526659e-001	7.641160e-002	1.723372e-001
	4.637913e-002	6.664958e-002	-4.618187e-002	-8.519086e-002	7.619857e-002	1.721570e-001	9.012904e-001	-3.521971e-001
	9.002740e-001	-3.523551e-001	7.616830e-002	1.722326e-001	-4.543386e-002	-8.632720e-002	4.638528e-002	6.659992e-002
	7.643822e-002	1.722387e-001	9.023663e-001	-3.527339e-001	4.638894e-002	6.658737e-002	-4.671383e-002	-8.463810e-002
104810000	-5.101982e-002	-8.785446e-002	5.023767e-002	6.807129e-002	8.925433e-001	-3.678811e-001	8.343143e-002	1.786513e-001
	5.024263e-002	6.816994e-002	-5.011254e-002	-8.706497e-002	8.314332e-002	1.784489e-001	8.925607e-001	-3.674506e-001
	8.915721e-001	-3.675978e-001	8.318240e-002	1.785099e-001	-4.925174e-002	-8.789082e-002	5.030485e-002	6.813666e-002
	8.339986e-002	1.785661e-001	8.937663e-001	-3.679122e-001	5.026875e-002	6.809936e-002	-5.066392e-002	-8.606651e-002
109800000	-5.487162e-002	-8.885046e-002	5.419617e-002	6.935530e-002	8.835954e-001	-3.826633e-001	9.060824e-002	1.846923e-001
	5.414711e-002	6.951486e-002	-5.421465e-002	-8.823321e-002	9.027799e-002	1.844620e-001	8.837490e-001	-3.821397e-001
	8.825974e-001	-3.822833e-001	9.028943e-002	1.845158e-001	-5.326104e-002	-8.879743e-002	5.423433e-002	6.942506e-002
	9.064964e-002	1.845711e-001	8.846616e-001	-3.827895e-001	5.425741e-002	6.938633e-002	-5.461214e-002	-8.765379e-002
114790000	-5.887729e-002	-8.974006e-002	5.802385e-002	7.045849e-002	8.744658e-001	-3.971271e-001	9.808486e-002	1.904192e-001
	5.804970e-002	7.048037e-002	-5.822616e-002	-8.908054e-002	9.766751e-002	1.901094e-001	8.744622e-001	-3.966811e-001
	8.733998e-001	-3.968911e-001	9.769963e-002	1.902110e-001	-5.757954e-002	-8.958117e-002	5.823118e-002	7.050505e-002
	9.814742e-002	1.902654e-001	8.755437e-001	-3.974261e-001	5.829734e-002	7.039822e-002	-5.890465e-002	-8.888037e-002
119780000	-6.308992e-002	-9.026607e-002	6.213894e-002	7.128506e-002	8.652424e-001	-4.115593e-001	1.056545e-001	1.958897e-001
	6.209095e-002	7.137508e-002	-6.274185e-002	-8.984610e-002	1.050950e-001	1.955632e-001	8.651187e-001	-4.111469e-001
	8.642234e-001	-4.111120e-001	1.051341e-001	1.956710e-001	-6.185686e-002	-8.985676e-002	6.230936e-002	7.127703e-002
	1.056404e-001	1.957704e-001	8.663173e-001	-4.117185e-001	6.235735e-002	7.119710e-002	-6.311731e-002	-8.993593e-002
124770000	-6.722585e-002	-9.052587e-002	6.617392e-002	7.204041e-002	8.556560e-001	-4.256118e-001	1.134630e-001	2.010872e-001
	6.602556e-002	7.210322e-002	-6.676954e-002	-9.032381e-002	1.127828e-001	2.007169e-001	8.554611e-001	-4.252413e-001
	8.546690e-001	-4.251075e-001	1.128417e-001	2.008909e-001	-6.597965e-002	-9.000587e-002	6.643680e-002	7.199038e-002
	1.133868e-001	2.009755e-001	8.567997e-001	-4.256152e-001	6.643675e-002	7.188811e-002	-6.742865e-002	-9.044840e-002
129760000	-7.133053e-002	-9.057379e-002	7.011115e-002	7.275497e-002	8.456981e-001	-4.392553e-001	1.213735e-001	2.059811e-001
	7.003293e-002	7.280687e-002	-7.034492e-002	-9.028398e-002	1.206560e-001	2.057100e-001	8.454710e-001	-4.389051e-001
	8.447504e-001	-4.386779e-001	1.207021e-001	2.059036e-001	-6.964595e-002	-9.002980e-002	7.046775e-002	7.262711e-002
	1.212754e-001	2.058994e-001	8.469775e-001	-4.391500e-001	7.049342e-002	7.259469e-002	-7.163752e-002	-9.052487e-002
134750000	-7.537408e-002	-9.012620e-002	7.403793e-002	7.343799e-002	8.353410e-001	-4.527199e-001	1.292989e-001	2.107015e-001
	7.392639e-002	7.348782e-002	-7.343168e-002	-8.996613e-002	1.287654e-001	2.105482e-001	8.354924e-001	-4.520864e-001
	8.346219e-001	-4.521340e-001	1.287999e-001	2.107165e-001	-7.292588e-002	-9.015293e-002	7.443438e-002	7.324995e-002
	1.293327e-001	2.105962e-001	8.366446e-001	-4.528278e-001	7.454089e-002	7.318865e-002	-7.560853e-002	-8.978050e-002
139740000	-7.954277e-002	-8.935963e-002	7.787557e-002	7.400171e-002	8.248510e-001	-4.659269e-001	1.373410e-001	2.150975e-001
	7.774480e-002	7.406063e-002	-7.633158e-002	-8.900744e-002	1.369615e-001	2.151456e-001	8.254783e-001	-4.650943e-001
	8.245202e-001	-4.653765e-001	1.369981e-001	2.153277e-001	-7.600887e-002	-9.024399e-002	7.847093e-002	7.396451e-002
	1.374959e-001	2.149932e-001	8.263720e-001	-4.663204e-001	7.857182e-002	7.387264e-002	-7.968720e-002	-8.854055e-002
144730000	-8.353437e-002	-8.849886e-002	8.170814e-002	7.442729e-002	8.141210e-001	-4.788873e-001	1.455722e-001	2.192511e-001
	8.159791e-002	7.457975e-002	-7.920203e-002	-8.806613e-002	1.453653e-001	2.194814e-001	8.150726e-001	-4.779002e-001
	8.140052e-001	-4.783230e-001	1.453737e-001	2.196538e-001	-7.915133e-002	-8.996924e-002	8.244881e-002	7.448845e-002
	1.458018e-001	2.191182e-001	8.157576e-001	-4.793733e-001	8.256302e-002	7.426714e-002	-8.352631e-002	-8.710861e-002
149720000	-8.749874e-002	-8.753297e-002	8.567126e-002	7.466007e-002	8.030587e-001	-4.913392e-001	1.540335e-001	2.229766e-001
	8.560358e-002	7.482813e-002	-8.219176e-002	-8.698376e-002	1.538501e-001	2.234087e-001	8.041469e-001	-4.906407e-001
	8.031373e-001	-4.908335e-001	1.538627e-001	2.236062e-001	-8.253579e-002	-8.936578e-002	8.649326e-002	7.463507e-002
	1.541382e-001	2.229932e-001	8.050372e-001	-4.914852e-001	8.659561e-002	7.452904e-002	-8.754808e-002	-8.567502e-002
154710000	-9.143238e-002	-8.666853e-002	8.978686e-002	7.454120e-002	7.919196e-001	-5.033206e-001	1.626944e-001	2.262962e-001
	8.979785e-002	7.460735e-002	-8.605750e-002	-8.590018e-002	1.624476e-001	2.268398e-001	7.925338e-001	-5.034145e-001
	7.919210e-001	-5.029128e-001	1.623722e-001	2.270691e-001	-8.653173e-002	-8.823978e-002	9.056798e-002	7.434391e-002
	1.624961e-001	2.265111e-001	7.943203e-001	-5.027905e-001	9.054537e-002	7.441123e-002	-9.174609e-002	-8.447830e-002
159700000	-9.541567e-002	-8.588428e-002	9.420338e-002	7.401914e-002	7.807157e-001	-5.150767e-001	1.715138e-001	2.293366e-001
	9.409838e-002	7.418350e-002	-9.053184e-002	-8.554759e-002	1.710638e-001	2.299070e-001	7.812521e-001	-5.152889e-001
	7.807417e-001	-5.145811e-001	1.710738e-001	2.300912e-001	-9.111326e-002	-8.684464e-002	9.473802e-002	7.373742e-002
	1.711477e-001	2.296515e-001	7.831678e-001	-5.143693e-001	9.467479e-002	7.386092e-002	-9.600456e-002	-8.340241e-002
164690000	-9.915945e-002	-8.550213e-002	9.878084e-002	7.331243e-002	7.695029e-001	-5.266415e-001	1.802514e-001	2.322437e-001
	9.867350e-002	7.347543e-002	-9.499396e-002	-8.531497e-002	1.798013e-001	2.326498e-001	7.704768e-001	-5.258601e-001
	7.696171e-001	-5.257905e-001	1.798542e-001	2.328153e-001	-9.586433e-002	-8.532753e-002	9.888488e-002	7.301602e-002
	1.801755e-001	2.323035e-001	7.713668e-001	-5.265313e-001	9.889309e-002	7.301786e-002	-1.003648e-001	-8.253058e-002
169680000	-1.030803e-001	-8.452168e-002	1.034362e-001	7.239372e-002	7.582872e-001	-5.376594e-001	1.891563e-001	2.348349e-001
	1.032973e-001	7.250830e-002	-9.986355e-002	-8.448923e-002	1.887173e-001	2.349673e-001	7.589825e-001	-5.368884e-001
	7.578195e-001	-5.371910e-001	1.887620e-001	2.351264e-001	-1.008933e-001	-8.357854e-002	1.031721e-001	7.202613e-002
	1.892240e-001	2.346757e-001	7.598359e-001	-5.377852e-001	1.030853e-001	7.196499e-002	-1.042686e-001	-8.195103e-002
174670000	-1.069090e-001	-8.372085e-002	1.080406e-001	7.129208e-002	7.466572e-001	-5.483749e-001	1.984185e-001	2.368048e-001
	1.079925e-001	7.140514e-002	-1.045176e-001	-8.374359e-002	1.976271e-001	2.369774e-001	7.467553e-001	-5.482212e-001
	7.460221e-001	-5.478933e-001	1.977157e-001	2.371639e-001	-1.058516e-001	-8.184555e-002	1.075053e-001	7.071670e-002
	1.981459e-001	2.368855e-001	7.484032e-001	-5.480609e-001	1.072394e-001	7.086429e-002	-1.087009e-001	-8.069030e-002
179660000	-1.108892e-001	-8.244935e-002	1.125191e-001	7.012468e-002	7.347224e-001	-5.585480e-001	2.073646e-001	2.386587e-001
	1.123941e-001	7.025105e-002	-1.089732e-001	-8.257548e-002	2.065056e-001	2.386887e-001	7.348817e-001	-5.581571e-001
	7.339899e-001	-5.580950e-001	2.066339e-001	2.388520e-001	-1.106634e-001	-7.998687e-002	1.116746e-001	6.956191e-002
	2.071994e-001	2.386333e-001	7.362270e-001	-5.584004e-001	1.113975e-001	6.957798e-002	-1.127023e-001	-7.940529e-002
184650000	-1.148720e-001	-8.094793e-002	1.168417e-001	6.885918e-002	7.225241e-001	-5.684075e-001	2.164051e-001	2.401011e-001
	1.167760e-001	6.896814e-002	-1.130888e-001	-8.104311e-002	2.154611e-001	2.401669e-001	7.227598e-001	-5.678521e-001
	7.218244e-001	-5.677952e-001	2.156120e-001	2.403237e-001	-1.150038e-001	-7.856097e-002	1.158475e-001	6.823091e-002
	2.162065e-001	2.400831e-001	7.239353e-001	-5.683863e-001	1.156903e-001	6.824061e-002	-1.169970e-001	-7.784329e-002
189640000	-1.191768e-001	-7.940387e-002	1.212953e-001	6.739902e-002	7.102962e-001	-5.779974e-001	2.254050e-001	2.413922e-001
	1.211825e-001	6.752001e-002	-1.174044e-001	-7.954284e-002	2.246411e-001	2.412886e-001	7.106921e-001	-5.774264e-001
	7.093604e-001	-5.777018e-001	2.247500e-001	2.414902e-001	-1.194439e-001	-7.710320e-002	1.200785e-001	6.688493e-002
	2.254497e-001	2.411234e-001	7.116432e-001	-5.782783e-001	1.200117e-001	6.682652e-002	-1.209235e-001	-7.604938e-002
194630000	-1.232779e-001	-7.760429e-002	1.256353e-001	6.574825e-002	6.979508e-001	-5.875836e-001	2.345848e-001	2.422740e-001
	1.254584e-001	6.595860e-002	-1.212706e-001	-7.781079e-002	2.337124e-001	2.422667e-001	6.988488e-001	-5.865972e-001
	6.973246e-001	-5.869220e-001	2.339308e-001	2.424506e-001	-1.238092e-001	-7.543979e-002	1.243002e-001	6.528630e-002
	2.346758e-001	2.419892e-001	6.991071e-001	-5.881978e-001	1.242552e-001	6.508823e-002	-1.254106e-001	-7.430017e-002
199620000	-1.277393e-001	-7.586022e-002	1.298439e-001	6.397862e-002	6.856085e-001	-5.967886e-001	2.439822e-001	2.426738e-001
	1.297272e-001	6.410794e-002	-1.253339e-001	-7.587238e-002	2.429734e-001	2.428903e-001	6.861796e-001	-5.963002e-001
	6.849550e-001	-5.962105e-001	2.431363e-001	2.431004e-001	-1.280204e-001	-7.409465e-002	1.286688e-001	6.348334e-002
	2.438024e-001	2.426690e-001	6.872181e-001	-5.970112e-001	1.285917e-001	6.344762e-002	-1.296022e-001	-7.252591e-002
204610000	-1.320077e-001	-7.389183e-002	1.341081e-001	6.185068e-002	6.732186e-001	-6.056346e-001	2.530317e-001	2.430415e-001
	1.339086e-001	6.211509e-002	-1.293863e-001	-7.403783e-002	2.521482e-001	2.432507e-001	6.744054e-001	-6.046120e-001
	6.726615e-001	-6.050369e-001	2.523544e-001	2.433822e-001	-1.322462e-001	-7.259865e-002	1.328009e-001	6.160436e-002
	2.531320e-001	2.427799e-001	6.744673e-001	-6.064258e-001	1.328106e-001	6.138888e-002	-1.338361e-001	-7.063546e-002
209600000	-1.365861e-001	-7.192568e-002	1.382308e-001	5.953998e-002	6.608034e-001	-6.139418e-001	2.620773e-001	2.430441e-001
	1.380205e-001	5.987144e-002	-1.336179e-001	-7.199781e-002	2.611888e-001	2.431914e-001	6.621265e-001	-6.129391e-001
	6.602475e-001	-6.133631e-001	2.614088e-001	2.433946e-001	-1.367026e-001	-7.084987e-002	1.368199e-001	5.949804e-002
	2.623013e-001	2.426234e-001	6.620214e-001	-6.148547e-001	1.368558e-001	5.909867e-002	-1.380175e-001	-6.853130e-002
214590000	-1.411985e-001	-6.982574e-002	1.422007e-001	5.708976e-002	6.482010e-001	-6.217567e-001	2.708035e-001	2.428720e-001
	1.419220e-001	5.727711e-002	-1.378040e-001	-7.000034e-002	2.701255e-001	2.428324e-001	6.502938e-001	-6.201107e-001
	6.477711e-001	-6.210973e-001	2.703682e-001	2.429466e-001	-1.410417e-001	-6.914143e-002	1.407226e-001	5.720282e-002
	2.714511e-001	2.419547e-001	6.488509e-001	-6.232759e-001	1.408922e-001	5.654603e-002	-1.421984e-001	-6.636027e-002
219580000	-1.458190e-001	-6.767020e-002	1.460431e-001	5.426931e-002	6.356214e-001	-6.292256e-001	2.797393e-001	2.421149e-001
	1.457420e-001	5.450110e-002	-1.420117e-001	-6.780679e-002	2.790515e-001	2.421452e-001	6.376660e-001	-6.277979e-001
	6.352416e-001	-6.286511e-001	2.791816e-001	2.423121e-001	-1.453871e-001	-6.736399e-002	1.444777e-001	5.453547e-002
	2.803278e-001	2.412524e-001	6.365664e-001	-6.306113e-001	1.447478e-001	5.385603e-002	-1.465156e-001	-6.415370e-002
224570000	-1.504868e-001	-6.551013e-002	1.497866e-001	5.127208e-002	6.231484e-001	-6.366368e-001	2.888565e-001	2.409931e-001
	1.495365e-001	5.152689e-002	-1.461889e-001	-6.566253e-002	2.879641e-001	2.411910e-001	6.249180e-001	-6.356852e-001
	6.227740e-001	-6.359658e-001	2.880880e-001	2.413984e-001	-1.496318e-001	-6.534405e-002	1.482351e-001	5.152250e-002
	2.891302e-001	2.403797e-001	6.244338e-001	-6.377118e-001	1.484299e-001	5.110261e-002	-1.506904e-001	-6.196936e-002
229560000	-1.549195e-001	-6.328602e-002	1.534475e-001	4.812374e-002	6.107345e-001	-6.438836e-001	2.980025e-001	2.394225e-001
	1.531428e-001	4.837108e-002	-1.502980e-001	-6.340764e-002	2.967579e-001	2.399917e-001	6.118346e-001	-6.437126e-001
	6.103451e-001	-6.431876e-001	2.969449e-001	2.401731e-001	-1.539857e-001	-6.331300e-002	1.519401e-001	4.824114e-002
	2.977484e-001	2.394273e-001	6.126740e-001	-6.443698e-001	1.519540e-001	4.809263e-002	-1.546680e-001	-5.969869e-002
234550000	-1.592435e-001	-6.087482e-002	1.568458e-001	4.476244e-002	5.984080e-001	-6.508485e-001	3.068634e-001	2.377788e-001
	1.565538e-001	4.499595e-002	-1.541913e-001	-6.088102e-002	3.056119e-001	2.385052e-001	5.991725e-001	-6.511211e-001
	5.979346e-001	-6.502933e-001	3.057199e-001	2.387790e-001	-1.580971e-001	-6.114821e-002	1.554240e-001	4.492284e-002
	3.064980e-001	2.380350e-001	6.007091e-001	-6.512912e-001	1.553937e-001	4.499190e-002	-1.588231e-001	-5.720263e-002
239540000	-1.635859e-001	-5.841825e-002	1.602508e-001	4.127607e-002	5.861075e-001	-6.576030e-001	3.154985e-001	2.361241e-001
	1.598947e-001	4.144253e-002	-1.581906e-001	-5.848849e-002	3.142554e-001	2.368356e-001	5.870999e-001	-6.575840e-001
	5.857418e-001	-6.569172e-001	3.144074e-001	2.370699e-001	-1.621198e-001	-5.880655e-002	1.587657e-001	4.164165e-002
	3.152396e-001	2.362073e-001	5.882158e-001	-6.581908e-001	1.586951e-001	4.154032e-002	-1.627119e-001	-5.479956e-002
244530000	-1.676041e-001	-5.583246e-002	1.632763e-001	3.765449e-002	5.738544e-001	-6.639112e-001	3.240029e-001	2.342228e-001
	1.631184e-001	3.791657e-002	-1.619178e-001	-5.574239e-002	3.227832e-001	2.348761e-001	5.749530e-001	-6.638052e-001
	5.733869e-001	-6.632071e-001	3.229380e-001	2.351917e-001	-1.660287e-001	-5.635793e-002	1.619461e-001	3.812301e-002
	3.238696e-001	2.341249e-001	5.758023e-001	-6.647586e-001	1.618063e-001	3.793568e-002	-1.664822e-001	-5.232145e-002
249520000	-1.715309e-001	-5.318698e-002	1.663075e-001	3.388226e-002	5.615087e-001	-6.698396e-001	3.323879e-001	2.320093e-001
	1.660423e-001	3.412874e-002	-1.655625e-001	-5.313536e-002	3.311519e-001	2.326945e-001	5.626436e-001	-6.697573e-001
	5.611476e-001	-6.690581e-001	3.312825e-001	2.330074e-001	-1.696982e-001	-5.368022e-002	1.648203e-001	3.456409e-002
	3.322407e-001	2.318813e-001	5.634848e-001	-6.706983e-001	1.648418e-001	3.438392e-002	-1.701274e-001	-4.955075e-002
254510000	-1.751297e-001	-5.042756e-002	1.690726e-001	3.013698e-002	5.491704e-001	-6.751662e-001	3.405789e-001	2.295174e-001
	1.688347e-001	3.042897e-002	-1.689457e-001	-5.020612e-002	3.392868e-001	2.302525e-001	5.500956e-001	-6.753151e-001
	5.487470e-001	-6.743939e-001	3.394471e-001	2.306010e-001	-1.731450e-001	-5.091012e-002	1.676008e-001	3.089821e-002
	3.403424e-001	2.294553e-001	5.512266e-001	-6.760137e-001	1.675896e-001	3.070962e-002	-1.733742e-001	-4.666787e-002
259500000	-1.785120e-001	-4.758623e-002	1.716597e-001	2.619578e-002	5.367256e-001	-6.802336e-001	3.486376e-001	2.266959e-001
	1.715776e-001	2.642336e-002	-1.723037e-001	-4.731601e-002	3.473839e-001	2.275601e-001	5.375847e-001	-6.805838e-001
	5.364034e-001	-6.794762e-001	3.474778e-001	2.278924e-001	-1.763892e-001	-4.795409e-002	1.702348e-001	2.705589e-002
	3.483655e-001	2.268123e-001	5.389401e-001	-6.811490e-001	1.702663e-001	2.704148e-002	-1.766697e-001	-4.367155e-002
264490000	-1.817310e-001	-4.453528e-002	1.743096e-001	2.219821e-002	5.244659e-001	-6.853119e-001	3.566319e-001	2.237083e-001
	1.740852e-001	2.239119e-002	-1.755135e-001	-4.435131e-002	3.553421e-001	2.246148e-001	5.251750e-001	-6.857305e-001
	5.241193e-001	-6.845789e-001	3.554997e-001	2.249642e-001	-1.796877e-001	-4.499298e-002	1.727111e-001	2.319566e-002
	3.562955e-001	2.239115e-001	5.266888e-001	-6.861072e-001	1.727224e-001	2.322341e-002	-1.798066e-001	-4.067217e-002
269480000	-1.849695e-001	-4.146858e-002	1.767600e-001	1.804340e-002	5.121572e-001	-6.902998e-001	3.646120e-001	2.205315e-001
	1.764058e-001	1.834194e-002	-1.785902e-001	-4.127987e-002	3.632798e-001	2.215374e-001	5.128580e-001	-6.906546e-001
	5.118115e-001	-6.895664e-001	3.634193e-001	2.218752e-001	-1.829282e-001	-4.189838e-002	1.751699e-001	1.925422e-002
	3.642784e-001	2.207738e-001	5.143014e-001	-6.911617e-001	1.751160e-001	1.914753e-002	-1.828199e-001	-3.746883e-002
274470000	-1.879234e-001	-3.845699e-002	1.790850e-001	1.370184e-002	4.998349e-001	-6.950595e-001	3.724210e-001	2.172476e-001
	1.789118e-001	1.404245e-002	-1.816413e-001	-3.824547e-002	3.711900e-001	2.182612e-001	5.008401e-001	-6.953082e-001
	4.996002e-001	-6.942525e-001	3.712880e-001	2.185327e-001	-1.858741e-001	-3.872701e-002	1.774368e-001	1.515888e-002
	3.722156e-001	2.172477e-001	5.018566e-001	-6.960782e-001	1.773157e-001	1.508464e-002	-1.857829e-001	-3.441615e-002
279460000	-1.907696e-001	-3.514750e-002	1.812075e-001	9.300180e-003	4.876709e-001	-6.995915e-001	3.801396e-001	2.136065e-001
	1.811506e-001	9.691765e-003	-1.846881e-001	-3.502247e-002	3.789200e-001	2.146695e-001	4.885654e-001	-6.999056e-001
	4.873782e-001	-6.988532e-001	3.790657e-001	2.149368e-001	-1.888602e-001	-3.544806e-002	1.796276e-001	1.086649e-002
	3.799544e-001	2.136954e-001	4.896638e-001	-7.006598e-001	1.794984e-001	1.089029e-002	-1.886289e-001	-3.113094e-002
284450000	-1.934022e-001	-3.189976e-002	1.833305e-001	4.920161e-003	4.755714e-001	-7.039119e-001	3.878666e-001	2.097001e-001
	1.831918e-001	5.274853e-003	-1.873258e-001	-3.190774e-002	3.865170e-001	2.109500e-001	4.763452e-001	-7.043680e-001
	4.753818e-001	-7.030533e-001	3.867036e-001	2.112267e-001	-1.917644e-001	-3.229495e-002	1.816877e-001	6.550816e-003
	3.874933e-001	2.099741e-001	4.776063e-001	-7.048795e-001	1.814712e-001	6.536145e-003	-1.915140e-001	-2.789674e-002
289440000	-1.960433e-001	-2.858160e-002	1.853554e-001	3.660002e-004	4.636098e-001	-7.078200e-001	3.951825e-001	2.059607e-001
	1.851411e-001	7.316808e-004	-1.901427e-001	-2.872312e-002	3.940336e-001	2.069395e-001	4.645980e-001	-7.081451e-001
	4.633463e-001	-7.070971e-001	3.941626e-001	2.072220e-001	-1.946070e-001	-2.903928e-002	1.835080e-001	2.349781e-003
	3.950710e-001	2.058196e-001	4.653024e-001	-7.090550e-001	1.835262e-001	2.146483e-003	-1.939790e-001	-2.453917e-002
294430000	-1.984723e-001	-2.508750e-002	1.872058e-001	-4.189714e-003	4.516766e-001	-7.115938e-001	4.026210e-001	2.015917e-001
	1.869496e-001	-3.771871e-003	-1.927375e-001	-2.543974e-002	4.013249e-001	2.028988e-001	4.523115e-001	-7.121178e-001
	4.514052e-001	-7.108086e-001	4.014395e-001	2.030789e-001	-1.971757e-001	-2.581095e-002	1.853104e-001	-2.104488e-003
	4.022390e-001	2.019102e-001	4.536927e-001	-7.125462e-001	1.852596e-001	-2.098946e-003	-1.966050e-001	-2.122499e-002
299420000	-2.008510e-001	-2.153379e-002	1.888437e-001	-8.788074e-003	4.397595e-001	-7.148381e-001	4.096760e-001	1.973218e-001
	1.886037e-001	-8.342391e-003	-1.950887e-001	-2.215582e-002	4.083545e-001	1.986443e-001	4.405414e-001	-7.153646e-001
	4.396022e-001	-7.140749e-001	4.085021e-001	1.988746e-001	-1.997182e-001	-2.254521e-002	1.870525e-001	-6.486697e-003
	4.092858e-001	1.975778e-001	4.417141e-001	-7.159139e-001	1.868691e-001	-6.531342e-003	-1.989450e-001	-1.796054e-002
304410000	-2.032060e-001	-1.796271e-002	1.902507e-001	-1.339101e-002	4.280238e-001	-7.179256e-001	4.165499e-001	1.927495e-001
	1.900131e-001	-1.294565e-002	-1.973965e-001	-1.877234e-002	4.152402e-001	1.943134e-001	4.286164e-001	-7.185203e-001
	4.277718e-001	-7.170925e-001	4.153700e-001	1.944874e-001	-2.020395e-001	-1.932578e-002	1.883749e-001	-1.103456e-002
	4.161308e-001	1.932261e-001	4.300887e-001	-7.188727e-001	1.883051e-001	-1.095625e-002	-2.012984e-001	-1.448247e-002
309400000	-2.053505e-001	-1.424715e-002	1.914801e-001	-1.797199e-002	4.162098e-001	-7.209304e-001	4.229868e-001	1.889103e-001
	1.912731e-001	-1.755244e-002	-1.995977e-001	-1.535147e-002	4.219900e-001	1.897430e-001	4.181403e-001	-7.208345e-001
	4.161026e-001	-7.200377e-001	4.221639e-001	1.899738e-001	-2.043665e-001	-1.587846e-002	1.896263e-001	-1.520958e-002
	4.231970e-001	1.878643e-001	4.170428e-001	-7.225894e-001	1.894384e-001	-1.575896e-002	-2.033828e-001	-1.107423e-002
314390000	-2.075196e-001	-1.061189e-002	1.925000e-001	-2.279622e-002	4.046060e-001	-7.237242e-001	4.299088e-001	1.833904e-001
	1.922103e-001	-2.232175e-002	-2.016924e-001	-1.213850e-002	4.286411e-001	1.849965e-001	4.049537e-001	-7.246059e-001
	4.040781e-001	-7.231255e-001	4.288904e-001	1.850765e-001	-2.065812e-001	-1.264034e-002	1.905168e-001	-2.028091e-002
	4.295882e-001	1.838343e-001	4.065542e-001	-7.248845e-001	1.905657e-001	-2.005449e-002	-2.055698e-001	-7.547048e-003
319380000	-2.096609e-001	-6.766499e-003	1.932243e-001	-2.763365e-002	3.928008e-001	-7.266153e-001	4.365527e-001	1.783874e-001
	1.929854e-001	-2.705940e-002	-2.038336e-001	-8.479859e-003	4.351286e-001	1.801749e-001	3.934404e-001	-7.274936e-001
	3.928009e-001	-7.257864e-001	4.354044e-001	1.803659e-001	-2.087413e-001	-9.254806e-003	1.913824e-001	-2.485237e-002
	4.360834e-001	1.789299e-001	3.947878e-001	-7.277452e-001	1.914147e-001	-2.489464e-002	-2.075137e-001	-4.336629e-003
324370000	-2.115009e-001	-3.111176e-003	1.937686e-001	-3.248542e-002	3.813073e-001	-7.293510e-001	4.427156e-001	1.738388e-001
	1.935396e-001	-3.204182e-002	-2.055171e-001	-5.295419e-003	4.415997e-001	1.751510e-001	3.824118e-001	-7.299760e-001
	3.809223e-001	-7.287210e-001	4.418592e-001	1.752871e-001	-2.106792e-001	-6.054958e-003	1.919277e-001	-2.955525e-002
	4.426484e-001	1.735762e-001	3.827959e-001	-7.308976e-001	1.919391e-001	-2.970482e-002	-2.095920e-001	-6.341964e-004
329360000	-2.134656e-001	6.543502e-004	1.941198e-001	-3.735099e-002	3.697725e-001	-7.320517e-001	4.492825e-001	1.681520e-001
	1.938808e-001	-3.682871e-002	-2.074161e-001	-1.710103e-003	4.479194e-001	1.701682e-001	3.702897e-001	-7.331352e-001
	3.697259e-001	-7.313275e-001	4.481782e-001	1.702664e-001	-2.125439e-001	-2.685703e-003	1.923701e-001	-3.447419e-002
	4.487524e-001	1.689583e-001	3.719251e-001	-7.332583e-001	1.924482e-001	-3.425327e-002	-2.110190e-001	2.605942e-003
334350000	-2.150294e-001	4.387588e-003	1.942383e-001	-4.210722e-002	3.584522e-001	-7.345373e-001	4.551182e-001	1.635544e-001
	1.938888e-001	-4.165133e-002	-2.088689e-001	1.738334e-003	4.540815e-001	1.649058e-001	3.597734e-001	-7.351864e-001
	3.581194e-001	-7.339233e-001	4.543547e-001	1.650842e-001	-2.140393e-001	5.960104e-004	1.927503e-001	-3.897619e-002
	4.551271e-001	1.632049e-001	3.599173e-001	-7.361880e-001	1.926715e-001	-3.910869e-002	-2.129936e-001	6.119448e-003
339340000	-2.168056e-001	8.117633e-003	1.942208e-001	-4.684293e-002	3.472089e-001	-7.368067e-001	4.614018e-001	1.576339e-001
	1.938529e-001	-4.638430e-002	-2.103497e-001	5.184259e-003	4.600655e-001	1.598087e-001	3.476480e-001	-7.381091e-001
	3.471882e-001	-7.362506e-001	4.603959e-001	1.599258e-001	-2.155193e-001	3.839741e-003	1.926851e-001	-4.395193e-002
	4.608577e-001	1.586152e-001	3.494359e-001	-7.381926e-001	1.928755e-001	-4.356092e-002	-2.139645e-001	9.533162e-003
344330000	-2.178633e-001	1.181127e-002	1.939699e-001	-5.146299e-002	3.361651e-001	-7.389523e-001	4.669112e-001	1.531176e-001
	1.936533e-001	-5.098045e-002	-2.112120e-001	8.861599e-003	4.659703e-001	1.544499e-001	3.375071e-001	-7.398290e-001
	3.358085e-001	-7.384644e-001	4.662557e-001	1.546660e-001	-2.166642e-001	7.106894e-003	1.927730e-001	-4.821202e-002
	4.669703e-001	1.526859e-001	3.374831e-001	-7.408791e-001	1.927685e-001	-4.841215e-002	-2.153723e-001	1.288235e-002
349320000	-2.190619e-001	1.536014e-002	1.936902e-001	-5.604355e-002	3.251507e-001	-7.408011e-001	4.727948e-001	1.472040e-001
	1.934039e-001	-5.547951e-002	-2.123141e-001	1.205344e-002	4.716279e-001	1.493259e-001	3.258604e-001	-7.421539e-001
	3.251197e-001	-7.402767e-001	4.719551e-001	1.494587e-001	-2.175697e-001	1.041397e-002	1.925059e-001	-5.303950e-002
	4.724501e-001	1.479071e-001	3.271767e-001	-7.425399e-001	1.926246e-001	-5.272575e-002	-2.159106e-001	1.658281e-002
354310000	-2.198244e-001	1.911312e-002	1.931681e-001	-6.044351e-002	3.143331e-001	-7.424996e-001	4.780894e-001	1.422587e-001
	1.928307e-001	-6.010551e-002	-2.126854e-001	1.587011e-002	4.771852e-001	1.438470e-001	3.154909e-001	-7.436140e-001
	3.140490e-001	-7.420908e-001	4.774998e-001	1.440379e-001	-2.183428e-001	1.389054e-002	1.923626e-001	-5.726996e-002
	4.780413e-001	1.420734e-001	3.156956e-001	-7.445147e-001	1.923147e-001	-5.729753e-002	-2.167656e-001	1.985892e-002
359300000	-2.204629e-001	2.281057e-002	1.924211e-001	-6.484903e-002	3.032727e-001	-7.440662e-001	4.835855e-001	1.364735e-001
	1.920774e-001	-6.430290e-002	-2.132187e-001	1.922148e-002	4.825910e-001	1.384361e-001	3.042764e-001	-7.453534e-001
	3.032076e-001	-7.435841e-001	4.829174e-001	1.386380e-001	-2.187674e-001	1.719973e-002	1.917789e-001	-6.169466e-002
	4.833795e-001	1.367512e-001	3.048508e-001	-7.460706e-001	1.918139e-001	-6.160246e-002	-2.171107e-001	2.370701e-002
364290000	-2.208265e-001	2.651785e-002	1.915927e-001	-6.923853e-002	2.922892e-001	-7.455379e-001	4.887903e-001	1.307000e-001
	1.913162e-001	-6.859683e-002	-2.134133e-001	2.300322e-002	4.878794e-001	1.328004e-001	2.930861e-001	-7.468692e-001
	2.921150e-001	-7.450592e-001	4.882260e-001	1.329216e-001	-2.191456e-001	2.096048e-002	1.911581e-001	-6.613631e-002
	4.886408e-001	1.311392e-001	2.939874e-001	-7.475538e-001	1.910215e-001	-6.591568e-002	-2.174404e-001	2.727561e-002
369280000	-2.210498e-001	3.034366e-002	1.906127e-001	-7.344458e-002	2.812068e-001	-7.468609e-001	4.938655e-001	1.252037e-001
	1.903041e-001	-7.293297e-002	-2.135898e-001	2.668303e-002	4.930905e-001	1.270145e-001	2.824445e-001	-7.480480e-001
	2.810691e-001	-7.463611e-001	4.933858e-001	1.271995e-001	-2.194195e-001	2.449831e-002	1.903432e-001	-7.033078e-002
	4.937929e-001	1.250338e-001	2.825584e-001	-7.490737e-001	1.901722e-001	-7.018968e-002	-2.174654e-001	3.091520e-002
374270000	-2.210766e-001	3.398782e-002	1.893889e-001	-7.771161e-002	2.702371e-001	-7.480608e-001	4.989866e-001	1.187730e-001
	1.892263e-001	-7.729240e-002	-2.135905e-001	3.049845e-002	4.981300e-001	1.211381e-001	2.706389e-001	-7.495691e-001
	2.699955e-001	-7.475727e-001	4.984737e-001	1.212249e-001	-2.194821e-001	2.813421e-002	1.893720e-001	-7.471551e-002
	4.986853e-001	1.195284e-001	2.721230e-001	-7.500724e-001	1.893305e-001	-7.438640e-002	-2.174468e-001	3.467980e-002
379260000	-2.209153e-001	3.782270e-002	1.882665e-001	-8.195433e-002	2.591668e-001	-7.491279e-001	5.037741e-001	1.132557e-001
	1.881485e-001	-8.133827e-002	-2.133817e-001	3.409447e-002	5.031072e-001	1.150960e-001	2.604103e-001	-7.503819e-001
	2.590641e-001	-7.485435e-001	5.034074e-001	1.153115e-001	-2.195865e-001	3.172359e-002	1.884569e-001	-7.873971e-002
	5.037284e-001	1.129819e-001	2.604052e-001	-7.514416e-001	1.882425e-001	-7.882081e-002	-2.173168e-001	3.828328e-002
384250000	-2.207441e-001	4.155373e-002	1.870007e-001	-8.606921e-002	2.483516e-001	-7.499976e-001	5.086333e-001	1.064612e-001
	1.867989e-001	-8.562800e-002	-2.132470e-001	3.789230e-002	5.079052e-001	1.089576e-001	2.484998e-001	-7.515777e-001
	2.480612e-001	-7.495087e-001	5.082716e-001	1.090740e-001	-2.195895e-001	3.554180e-002	1.873010e-001	-8.316962e-002
	5.083448e-001	1.074846e-001	2.503388e-001	-7.521121e-001	1.872760e-001	-8.281883e-002	-2.169780e-001	4.209707e-002
389240000	-2.204187e-001	4.546112e-002	1.858421e-001	-9.019290e-002	2.375375e-001	-7.507201e-001	5.131234e-001	1.009088e-001
	1.855449e-001	-8.969498e-002	-2.128916e-001	4.174827e-002	5.126462e-001	1.026832e-001	2.386403e-001	-7.520496e-001
	2.371973e-001	-7.502472e-001	5.129161e-001	1.028823e-001	-2.193304e-001	3.908737e-002	1.863705e-001	-8.714006e-002
	5.131533e-001	1.005892e-001	2.387046e-001	-7.531424e-001	1.863176e-001	-8.718405e-002	-2.164277e-001	4.567960e-002
394230000	-2.198943e-001	4.936975e-002	1.845197e-001	-9.425330e-002	2.268966e-001	-7.513735e-001	5.178532e-001	9.380491e-002
	1.843239e-001	-9.365914e-002	-2.123456e-001	4.541776e-002	5.171752e-001	9.657197e-002	2.269114e-001	-7.529793e-001
	2.266268e-001	-7.507865e-001	5.175168e-001	9.660403e-002	-2.189187e-001	4.284103e-002	1.851080e-001	-9.143600e-002
	5.175164e-001	9.508361e-002	2.289522e-001	-7.534937e-001	1.853027e-001	-9.099936e-002	-2.162649e-001	4.948340e-002
399220000	-2.192613e-001	5.331125e-002	1.832558e-001	-9.824631e-002	2.162660e-001	-7.517629e-001	5.221163e-001	8.847269e-002
	1.831591e-001	-9.752601e-002	-2.117503e-001	4.921939e-002	5.216498e-001	9.015674e-002	2.177617e-001	-7.530189e-001
	2.162452e-001	-7.510884e-001	5.218986e-001	9.044439e-002	-2.186654e-001	4.648894e-002	1.842733e-001	-9.499757e-002
	5.221216e-001	8.776532e-002	2.171119e-001	-7.543455e-001	1.840413e-001	-9.536268e-002	-2.155333e-001	5.314390e-002
404210000	-2.188780e-001	5.718903e-002	1.819412e-001	-1.020931e-001	2.060228e-001	-7.518919e-001	5.264660e-001	8.141187e-002
	1.818066e-001	-1.015011e-001	-2.112494e-001	5.282394e-002	5.259901e-001	8.382925e-002	2.062528e-001	-7.536074e-001
	2.056690e-001	-7.513734e-001	5.262678e-001	8.391035e-002	-2.184213e-001	5.011889e-002	1.829356e-001	-9.913917e-002
	5.262851e-001	8.207846e-002	2.076846e-001	-7.544030e-001	1.831321e-001	-9.903921e-002	-2.147044e-001	5.693039e-002
409200000	-2.183868e-001	6.112616e-002	1.804250e-001	-1.059807e-001	1.954266e-001	-7.521354e-001	5.306395e-001	7.496956e-002
	1.804221e-001	-1.051817e-001	-2.103814e-001	5.665880e-002	5.301698e-001	7.741322e-002	1.961485e-001	-7.536926e-001
	1.954357e-001	-7.514169e-001	5.304623e-001	7.758225e-002	-2.179275e-001	5.385148e-002	1.816638e-001	-1.029490e-001
	5.304635e-001	7.535532e-002	1.968913e-001	-7.547606e-001	1.816900e-001	-1.030375e-001	-2.142291e-001	6.053601e-002
414190000	-2.179954e-001	6.498011e-002	1.789176e-001	-1.097773e-001	1.850515e-001	-7.521995e-001	5.345744e-001	6.884034e-002
	1.786863e-001	-1.092203e-001	-2.098796e-001	6.005822e-002	5.342222e-001	7.063182e-002	1.860397e-001	-7.537872e-001
	1.847527e-001	-7.515467e-001	5.345145e-001	7.085857e-002	-2.176689e-001	5.735060e-002	1.801315e-001	-1.066945e-001
	5.344922e-001	6.839505e-002	1.860769e-001	-7.549706e-001	1.801307e-001	-1.070200e-001	-2.133726e-001	6.461438e-002
419180000	-2.176154e-001	6.887846e-002	1.770232e-001	-1.137854e-001	1.745005e-001	-7.521141e-001	5.385812e-001	6.106347e-002
	1.769664e-001	-1.129383e-001	-2.091790e-001	6.398593e-002	5.381689e-001	6.419862e-002	1.746864e-001	-7.540793e-001
	1.747074e-001	-7.514951e-001	5.384106e-001	6.426595e-002	-2.174314e-001	6.105143e-002	1.784094e-001	-1.109493e-001
	5.382604e-001	6.250435e-002	1.764346e-001	-7.549181e-001	1.786462e-001	-1.106704e-001	-2.126944e-001	6.778345e-002
424170000	-2.173090e-001	7.254505e-002	1.751347e-001	-1.175003e-001	1.642701e-001	-7.520259e-001	5.421158e-001	5.549678e-002
	1.749475e-001	-1.170813e-001	-2.083488e-001	6.719671e-002	5.419515e-001	5.715518e-002	1.653519e-001	-7.537789e-001
	1.639739e-001	-7.514088e-001	5.422019e-001	5.747244e-002	-2.169657e-001	6.447744e-002	1.767288e-001	-1.146425e-001
	5.421355e-001	5.469493e-002	1.650205e-001	-7.551961e-001	1.766014e-001	-1.148369e-001	-2.121901e-001	7.179116e-002
429160000	-2.170127e-001	7.635719e-002	1.731902e-001	-1.215133e-001	1.538913e-001	-7.519272e-001	5.459073e-001	4.737661e-002
	1.730158e-001	-1.207781e-001	-2.078109e-001	7.084184e-002	5.455428e-001	5.052796e-002	1.536819e-001	-7.540625e-001
	1.540558e-001	-7.511846e-001	5.458587e-001	5.060309e-002	-2.166616e-001	6.793529e-002	1.745390e-001	-1.187627e-001
	5.455941e-001	4.895236e-002	1.558556e-001	-7.548248e-001	1.748876e-001	-1.186021e-001	-2.111075e-001	7.501845e-002
434150000	-2.165038e-001	7.984878e-002	1.711217e-001	-1.253073e-001	1.437568e-001	-7.516187e-001	5.492559e-001	4.176034e-002
	1.709047e-001	-1.246831e-001	-2.068743e-001	7.418847e-002	5.491055e-001	4.352841e-002	1.450036e-001	-7.535288e-001
	1.438458e-001	-7.508842e-001	5.493261e-001	4.386560e-002	-2.162411e-001	7.141663e-002	1.727909e-001	-1.223764e-001
	5.491261e-001	4.079567e-002	1.440658e-001	-7.549777e-001	1.725585e-001	-1.226991e-001	-2.103915e-001	7.838377e-002
439140000	-2.160912e-001	8.335951e-002	1.688006e-001	-1.289380e-001	1.339357e-001	-7.511464e-001	5.525881e-001	3.402831e-002
	1.686175e-001	-1.284333e-001	-2.056116e-001	7.753557e-002	5.524520e-001	3.663722e-002	1.335834e-001	-7.534365e-001
	1.335736e-001	-7.505092e-001	5.527814e-001	3.678775e-002	-2.155565e-001	7.459648e-002	1.704340e-001	-1.263642e-001
	5.524945e-001	3.480047e-002	1.351049e-001	-7.545153e-001	1.706758e-001	-1.261530e-001	-2.095737e-001	8.160073e-002
444130000	-2.154826e-001	8.653438e-002	1.665071e-001	-1.326404e-001	1.239024e-001	-7.506944e-001	5.558029e-001	2.729709e-002
	1.662275e-001	-1.318469e-001	-2.051359e-001	8.052468e-002	5.556575e-001	2.993783e-002	1.243013e-001	-7.529901e-001
	1.242835e-001	-7.499424e-001	5.559179e-001	3.019470e-002	-2.151021e-001	7.801245e-002	1.684087e-001	-1.300053e-001
	5.556122e-001	2.767860e-002	1.246916e-001	-7.541256e-001	1.684984e-001	-1.299487e-001	-2.081600e-001	8.502117e-002
449120000	-2.146665e-001	8.974558e-002	1.643572e-001	-1.358847e-001	1.143676e-001	-7.501640e-001	5.588780e-001	2.115016e-002
	1.639990e-001	-1.354362e-001	-2.036036e-001	8.378652e-002	5.587868e-001	2.304240e-002	1.147915e-001	-7.524312e-001
	1.141047e-001	-7.494897e-001	5.591276e-001	2.337683e-002	-2.140624e-001	8.124724e-002	1.663415e-001	-1.334300e-001
	5.588137e-001	2.057134e-002	1.145832e-001	-7.537804e-001	1.661432e-001	-1.336633e-001	-2.075133e-001	8.799007e-002
454110000	-2.140330e-001	9.278967e-002	1.620437e-001	-1.393073e-001	1.046857e-001	-7.493567e-001	5.619063e-001	1.347144e-002
	1.616911e-001	-1.387418e-001	-2.027589e-001	8.670101e-002	5.618154e-001	1.643313e-002	1.041211e-001	-7.519028e-001
	1.047170e-001	-7.487432e-001	5.621472e-001	1.660337e-002	-2.131612e-001	8.425542e-002	1.638766e-001	-1.370467e-001
	5.617385e-001	1.458223e-002	1.056825e-001	-7.529424e-001	1.640741e-001	-1.368314e-001	-2.058469e-001	9.120599e-002
459100000	-2.128598e-001	9.584427e-002	1.595786e-001	-1.425203e-001	9.494960e-002	-7.485078e-001	5.647660e-001	7.064780e-003
	1.593320e-001	-1.418875e-001	-2.014566e-001	8.976443e-002	5.646674e-001	9.555084e-003	9.494148e-002	-7.509992e-001
	9.514974e-002	-7.478178e-001	5.650500e-001	9.779360e-003	-2.121068e-001	8.737236e-002	1.615386e-001	-1.401599e-001
	5.646495e-001	7.131612e-003	9.520449e-002	-7.522279e-001	1.615011e-001	-1.401841e-001	-2.045705e-001	9.434641e-002
464090000	-2.116948e-001	9.885011e-002	1.569431e-001	-1.456572e-001	8.527870e-002	-7.475294e-001	5.674598e-001	2.170507e-004
	1.566879e-001	-1.450735e-001	-2.001083e-001	9.295328e-002	5.673814e-001	2.439699e-003	8.526858e-002	-7.500299e-001
	8.529770e-002	-7.468555e-001	5.677580e-001	2.780113e-003	-2.108205e-001	9.057614e-002	1.591143e-001	-1.433348e-001
	5.673321e-001	-1.057382e-004	8.519981e-002	-7.513146e-001	1.589397e-001	-1.435255e-001	-2.033175e-001	9.718156e-002
469080000	-2.102363e-001	1.018558e-001	1.542828e-001	-1.487744e-001	7.560485e-002	-7.463964e-001	5.700396e-001	-6.890799e-003
	1.538977e-001	-1.481829e-001	-1.986172e-001	9.607757e-002	5.699016e-001	-4.683450e-003	7.518787e-002	-7.490149e-001
	7.546547e-002	-7.458311e-001	5.703423e-001	-4.385938e-003	-2.096029e-001	9.376866e-002	1.563846e-001	-1.464795e-001
	5.699033e-001	-7.058643e-003	7.553574e-002	-7.502359e-001	1.562962e-001	-1.466087e-001	-2.017629e-001	1.000288e-001
474070000	-2.088037e-001	1.044876e-001	1.515068e-001	-1.516759e-001	6.582662e-002	-7.452497e-001	5.725159e-001	-1.438179e-002
	1.513342e-001	-1.510359e-001	-1.972803e-001	9.886365e-002	5.723919e-001	-1.172357e-002	6.512760e-002	-7.478330e-001
	6.592188e-002	-7.446079e-001	5.728176e-001	-1.152141e-002	-2.082685e-001	9.673515e-002	1.536894e-001	-1.494908e-001
	5.723791e-001	-1.400393e-002	6.587109e-002	-7.489926e-001	1.536253e-001	-1.495525e-001	-2.001746e-001	1.033128e-001
479060000	-2.072551e-001	1.075070e-001	1.486879e-001	-1.545991e-001	5.624891e-002	-7.439215e-001	5.748085e-001	-2.135353e-002
	1.485371e-001	-1.540029e-001	-1.959158e-001	1.018459e-001	5.747155e-001	-1.899680e-002	5.554259e-002	-7.465346e-001
	5.621621e-002	-7.433458e-001	5.752021e-001	-1.876537e-002	-2.067163e-001	9.993981e-002	1.509408e-001	-1.524839e-001
	5.747247e-001	-2.144125e-002	5.583940e-002	-7.477682e-001	1.508829e-001	-1.525788e-001	-1.985122e-001	1.059997e-001
484050000	-2.054617e-001	1.101281e-001	1.459969e-001	-1.575012e-001	4.661869e-002	-7.425470e-001	5.769853e-001	-2.886879e-002
	1.457584e-001	-1.569333e-001	-1.942070e-001	1.047690e-001	5.768898e-001	-2.623247e-002	4.555202e-002	-7.451640e-001
	4.672294e-002	-7.419996e-001	5.773554e-001	-2.601763e-002	-2.052503e-001	1.029284e-001	1.480502e-001	-1.555510e-001
	5.769063e-001	-2.846548e-002	4.639375e-002	-7.463011e-001	1.481204e-001	-1.554956e-001	-1.968871e-001	1.089474e-001
489040000	-2.035243e-001	1.129969e-001	1.433022e-001	-1.604099e-001	3.714325e-002	-7.410300e-001	5.790579e-001	-3.600365e-002
	1.430357e-001	-1.596261e-001	-1.926119e-001	1.076200e-001	5.789321e-001	-3.353866e-002	3.617835e-002	-7.436100e-001
	3.728051e-002	-7.404597e-001	5.794197e-001	-3.333422e-002	-2.036714e-001	1.059878e-001	1.454532e-001	-1.583653e-001
	5.789965e-001	-3.595278e-002	3.658376e-002	-7.447622e-001	1.453159e-001	-1.584875e-001	-1.950662e-001	1.117890e-001
494030000	-2.016197e-001	1.157769e-001	1.407977e-001	-1.632493e-001	2.783684e-002	-7.393866e-001	5.810247e-001	-4.340845e-002
	1.404988e-001	-1.624454e-001	-1.908887e-001	1.104715e-001	5.808923e-001	-4.086905e-002	2.661210e-002	-7.419781e-001
	2.792419e-002	-7.388336e-001	5.813215e-001	-4.069513e-002	-2.019973e-001	1.088232e-001	1.428768e-001	-1.611651e-001
	5.809367e-001	-4.323555e-002	2.733015e-002	-7.430955e-001	1.428282e-001	-1.613680e-001	-1.931585e-001	1.146263e-001
499020000	-1.996573e-001	1.185279e-001	1.380743e-001	-1.658514e-001	1.871994e-002	-7.377230e-001	5.828518e-001	-5.067618e-002
	1.378896e-001	-1.652125e-001	-1.891787e-001	1.132383e-001	5.827010e-001	-4.809704e-002	1.739029e-002	-7.402480e-001
	1.889666e-002	-7.371047e-001	5.832367e-001	-4.793667e-002	-2.001516e-001	1.117620e-001	1.401662e-001	-1.639179e-001
	5.827256e-001	-5.053673e-002	1.794603e-002	-7.413370e-001	1.401096e-001	-1.642333e-001	-1.913309e-001	1.174390e-001
504010000	-1.976582e-001	1.213069e-001	1.356095e-001	-1.683898e-001	9.695484e-003	-7.358405e-001	5.845295e-001	-5.811135e-002
	1.353406e-001	-1.677019e-001	-1.873591e-001	1.160148e-001	5.844532e-001	-5.543157e-002	8.223357e-003	-7.383335e-001
	9.791025e-003	-7.352575e-001	5.850131e-001	-5.527566e-002	-1.984424e-001	1.147235e-001	1.376264e-001	-1.666693e-001
	5.844868e-001	-5.780382e-002	8.862494e-003	-7.394854e-001	1.375109e-001	-1.668063e-001	-1.894379e-001	1.202998e-001
509000000	-1.956088e-001	1.241140e-001	1.329471e-001	-1.709628e-001	6.248146e-004	-7.339821e-001	5.861300e-001	-6.547636e-002
	1.326332e-001	-1.703533e-001	-1.856436e-001	1.187549e-001	5.860461e-001	-6.279880e-002	-9.111097e-004	-7.363788e-001
	7.509540e-004	-7.334296e-001	5.865744e-001	-6.264702e-002	-1.966557e-001	1.175872e-001	1.348982e-001	-1.692803e-001
	5.860370e-001	-6.526658e-002	-4.677176e-004	-7.375852e-001	1.348172e-001	-1.694539e-001	-1.875974e-001	1.230736e-001
513990000	-1.936821e-001	1.269568e-001	1.301227e-001	-1.734594e-001	-8.388009e-003	-7.319486e-001	5.875582e-001	-7.301912e-002
	1.298707e-001	-1.728345e-001	-1.839484e-001	1.214764e-001	5.874907e-001	-7.026009e-002	-1.027128e-002	-7.344485e-001
	-8.345673e-003	-7.314195e-001	5.880461e-001	-7.014051e-002	-1.949701e-001	1.204900e-001	1.318297e-001	-1.718765e-001
	5.875095e-001	-7.267408e-002	-9.586980e-003	-7.355662e-001	1.319260e-001	-1.720235e-001	-1.857821e-001	1.258561e-001
518980000	-1.918643e-001	1.297159e-001	1.271395e-001	-1.759133e-001	-1.751770e-002	-7.300279e-001	5.889303e-001	-8.040342e-002
	1.268463e-001	-1.753200e-001	-1.823277e-001	1.241079e-001	5.887996e-001	-7.775210e-002	-1.936952e-002	-7.323859e-001
	-1.740448e-002	-7.294469e-001	5.893913e-001	-7.758706e-002	-1.931283e-001	1.233022e-001	1.288795e-001	-1.743408e-001
	5.887883e-001	-8.032447e-002	-1.898049e-002	-7.335211e-001	1.288436e-001	-1.745061e-001	-1.839820e-001	1.284902e-001
523970000	-1.900488e-001	1.324694e-001	1.240429e-001	-1.783339e-001	-2.650097e-002	-7.279636e-001	5.900901e-001	-8.804861e-002
	1.238227e-001	-1.777534e-001	-1.806502e-001	1.266751e-001	5.900290e-001	-8.523161e-002	-2.873754e-002	-7.303122e-001
	-2.649639e-002	-7.273471e-001	5.905634e-001	-8.512229e-002	-1.914315e-001	1.260755e-001	1.256692e-001	-1.768565e-001
	5.900390e-001	-8.775074e-002	-2.809520e-002	-7.314201e-001	1.256786e-001	-1.769615e-001	-1.822133e-001	1.311924e-001
528960000	-1.883141e-001	1.350834e-001	1.207971e-001	-1.807906e-001	-3.550243e-002	-7.258934e-001	5.911593e-001	-9.548830e-002
	1.205511e-001	-1.802226e-001	-1.790544e-001	1.291671e-001	5.911042e-001	-9.273169e-002	-3.767436e-002	-7.281616e-001
	-3.540094e-002	-7.252830e-001	5.917067e-001	-9.254792e-002	-1.897844e-001	1.287909e-001	1.223843e-001	-1.793763e-001
	5.910245e-001	-9.540708e-002	-3.744651e-002	-7.293105e-001	1.223259e-001	-1.794621e-001	-1.806386e-001	1.337479e-001
533950000	-1.865840e-001	1.376296e-001	1.175842e-001	-1.831922e-001	-4.435651e-002	-7.237038e-001	5.921250e-001	-1.031475e-001
	1.173421e-001	-1.825723e-001	-1.776113e-001	1.314040e-001	5.920943e-001	-1.002464e-001	-4.690884e-002	-7.259265e-001
	-4.433468e-002	-7.230975e-001	5.927033e-001	-1.001192e-001	-1.880807e-001	1.312562e-001	1.189210e-001	-1.817814e-001
	5.920270e-001	-1.028054e-001	-4.629687e-002	-7.270549e-001	1.191431e-001	-1.817967e-001	-1.790625e-001	1.362472e-001
538940000	-1.847367e-001	1.401001e-001	1.144265e-001	-1.854095e-001	-5.318321e-002	-7.215340e-001	5.929472e-001	-1.105686e-001
	1.140972e-001	-1.847799e-001	-1.760372e-001	1.337193e-001	5.929821e-001	-1.076860e-001	-5.566482e-002	-7.236378e-001
	-5.309980e-002	-7.209446e-001	5.936001e-001	-1.075243e-001	-1.863549e-001	1.336243e-001	1.156686e-001	-1.841921e-001
	5.928204e-001	-1.103686e-001	-5.541824e-002	-7.247394e-001	1.156663e-001	-1.841668e-001	-1.773235e-001	1.385667e-001
543930000	-1.829581e-001	1.423442e-001	1.110726e-001	-1.876143e-001	-6.175420e-002	-7.191706e-001	5.937337e-001	-1.179973e-001
	1.108381e-001	-1.870074e-001	-1.743897e-001	1.358858e-001	5.937096e-001	-1.150542e-001	-6.449011e-002	-7.212994e-001
	-6.175443e-002	-7.186563e-001	5.943577e-001	-1.149779e-001	-1.845358e-001	1.359050e-001	1.122491e-001	-1.863832e-001
	5.935448e-001	-1.176837e-001	-6.414775e-002	-7.223800e-001	1.124102e-001	-1.862738e-001	-1.757011e-001	1.408869e-001
548920000	-1.811163e-001	1.445997e-001	1.078832e-001	-1.896872e-001	-7.016706e-002	-7.168735e-001	5.943463e-001	-1.253925e-001
	1.077641e-001	-1.890981e-001	-1.727383e-001	1.378465e-001	5.944112e-001	-1.223698e-001	-7.305820e-002	-7.187708e-001
	-7.016413e-002	-7.162862e-001	5.950573e-001	-1.222734e-001	-1.825717e-001	1.380005e-001	1.090237e-001	-1.884504e-001
	5.942322e-001	-1.251106e-001	-7.281567e-002	-7.199193e-001	1.091027e-001	-1.885697e-001	-1.739769e-001	1.431299e-001
553910000	-1.790061e-001	1.465669e-001	1.047565e-001	-1.915317e-001	-7.855241e-002	-7.143830e-001	5.948692e-001	-1.326932e-001
	1.045978e-001	-1.909635e-001	-1.710893e-001	1.398877e-001	5.949786e-001	-1.296767e-001	-8.153343e-002	-7.161849e-001
	-7.858162e-002	-7.138560e-001	5.956797e-001	-1.295827e-001	-1.806015e-001	1.401545e-001	1.057529e-001	-1.904066e-001
	5.948013e-001	-1.323701e-001	-8.127721e-002	-7.173267e-001	1.058466e-001	-1.904233e-001	-1.722073e-001	1.452084e-001
558900000	-1.771038e-001	1.484286e-001	1.015064e-001	-1.931787e-001	-8.695822e-002	-7.118070e-001	5.952857e-001	-1.400272e-001
	1.012911e-001	-1.927116e-001	-1.694028e-001	1.419065e-001	5.953857e-001	-1.370358e-001	-9.005633e-002	-7.134366e-001
	-8.701044e-002	-7.112610e-001	5.961137e-001	-1.369581e-001	-1.784988e-001	1.422359e-001	1.023592e-001	-1.921454e-001
	5.951949e-001	-1.397610e-001	-8.978729e-002	-7.145841e-001	1.024566e-001	-1.923347e-001	-1.703994e-001	1.473557e-001
563890000	-1.748998e-001	1.502961e-001	9.809362e-002	-1.949137e-001	-9.538041e-002	-7.091113e-001	5.955851e-001	-1.475058e-001
	9.798054e-002	-1.943764e-001	-1.676717e-001	1.437153e-001	5.957722e-001	-1.444676e-001	-9.856987e-002	-7.106273e-001
	-9.542201e-002	-7.085706e-001	5.964163e-001	-1.444101e-001	-1.764050e-001	1.441798e-001	9.896249e-002	-1.938766e-001
	5.954644e-001	-1.471639e-001	-9.835088e-002	-7.117868e-001	9.907927e-002	-1.939214e-001	-1.686265e-001	1.492967e-001
568880000	-1.727621e-001	1.519228e-001	9.464339e-002	-1.963661e-001	-1.038658e-001	-7.063376e-001	5.957045e-001	-1.549798e-001
	9.449878e-002	-1.959229e-001	-1.657740e-001	1.456199e-001	5.959092e-001	-1.519464e-001	-1.071092e-001	-7.077075e-001
	-1.038884e-001	-7.057908e-001	5.965782e-001	-1.518676e-001	-1.742484e-001	1.461212e-001	9.551896e-002	-1.954607e-001
	5.956183e-001	-1.546228e-001	-1.069074e-001	-7.088450e-001	9.557740e-002	-1.955063e-001	-1.667077e-001	1.513200e-001
573870000	-1.703686e-001	1.534902e-001	9.109641e-002	-1.980588e-001	-1.122801e-001	-7.034994e-001	5.957512e-001	-1.624870e-001
	9.103041e-002	-1.974457e-001	-1.638915e-001	1.472999e-001	5.959478e-001	-1.594516e-001	-1.156613e-001	-7.046730e-001
	-1.122887e-001	-7.029386e-001	5.965551e-001	-1.593641e-001	-1.720080e-001	1.479756e-001	9.194720e-002	-1.968359e-001
	5.956446e-001	-1.621035e-001	-1.154255e-001	-7.059172e-001	9.199589e-002	-1.970878e-001	-1.648767e-001	1.531578e-001
578860000	-1.679841e-001	1.549595e-001	8.761837e-002	-1.995608e-001	-1.206458e-001	-7.005115e-001	5.956167e-001	-1.700120e-001
	8.751409e-002	-1.990875e-001	-1.619538e-001	1.489641e-001	5.958564e-001	-1.670387e-001	-1.240490e-001	-7.015653e-001
	-1.207092e-001	-7.000161e-001	5.964735e-001	-1.669118e-001	-1.697173e-001	1.496840e-001	8.842817e-002	-1.983906e-001
	5.954590e-001	-1.696315e-001	-1.238420e-001	-7.027790e-001	8.857039e-002	-1.986480e-001	-1.628557e-001	1.549835e-001
583850000	-1.654696e-001	1.564213e-001	8.407522e-002	-2.011487e-001	-1.289428e-001	-6.974370e-001	5.953109e-001	-1.775189e-001
	8.407628e-002	-2.005148e-001	-1.600849e-001	1.505848e-001	5.955866e-001	-1.745984e-001	-1.323845e-001	-6.983183e-001
	-1.289430e-001	-6.969618e-001	5.961873e-001	-1.744580e-001	-1.673785e-001	1.516119e-001	8.490301e-002	-1.999309e-001
	5.952237e-001	-1.771657e-001	-1.321774e-001	-6.995772e-001	8.505710e-002	-2.001044e-001	-1.608620e-001	1.566960e-001
588840000	-1.626946e-001	1.578869e-001	8.089819e-002	-2.024535e-001	-1.371617e-001	-6.943350e-001	5.948911e-001	-1.850756e-001
	8.064096e-002	-2.018299e-001	-1.577929e-001	1.521734e-001	5.952332e-001	-1.820916e-001	-1.405670e-001	-6.950791e-001
	-1.371301e-001	-6.939121e-001	5.958365e-001	-1.820507e-001	-1.649425e-001	1.532698e-001	8.146111e-002	-2.014670e-001
	5.948407e-001	-1.847053e-001	-1.403795e-001	-6.963046e-001	8.145938e-002	-2.015875e-001	-1.586829e-001	1.583494e-001
593830000	-1.600614e-001	1.593508e-001	7.747588e-002	-2.038698e-001	-1.452477e-001	-6.912262e-001	5.944390e-001	-1.925235e-001
	7.747994e-002	-2.033424e-001	-1.556600e-001	1.538208e-001	5.947945e-001	-1.895923e-001	-1.486916e-001	-6.918111e-001
	-1.451192e-001	-6.907230e-001	5.953239e-001	-1.894980e-001	-1.623965e-001	1.549110e-001	7.813434e-002	-2.026546e-001
	5.943174e-001	-1.921743e-001	-1.484264e-001	-6.930512e-001	7.818921e-002	-2.029421e-001	-1.564503e-001	1.598755e-001
598820000	-1.571659e-001	1.608427e-001	7.436687e-002	-2.051457e-001	-1.530970e-001	-6.880001e-001	5.938590e-001	-1.999642e-001
	7.432372e-002	-2.045435e-001	-1.532691e-001	1.554482e-001	5.942354e-001	-1.969934e-001	-1.565236e-001	-6.884621e-001
	-1.530589e-001	-6.875648e-001	5.948542e-001	-1.969347e-001	-1.597240e-001	1.566315e-001	7.491860e-002	-2.038971e-001
	5.938089e-001	-1.996180e-001	-1.564006e-001	-6.896907e-001	7.491473e-002	-2.041828e-001	-1.540683e-001	1.615893e-001
603810000	-1.543318e-001	1.623761e-001	7.112592e-002	-2.064609e-001	-1.609059e-001	-6.846359e-001	5.931728e-001	-2.073696e-001
	7.107790e-002	-2.057346e-001	-1.509179e-001	1.570994e-001	5.936231e-001	-2.043784e-001	-1.643140e-001	-6.849778e-001
	-1.608332e-001	-6.842404e-001	5.941616e-001	-2.042934e-001	-1.571362e-001	1.583070e-001	7.177295e-002	-2.050158e-001
	5.931633e-001	-2.070022e-001	-1.641971e-001	-6.862687e-001	7.178175e-002	-2.052026e-001	-1.518296e-001	1.632041e-001
608800000	-1.514011e-001	1.638726e-001	6.788164e-002	-2.075274e-001	-1.687978e-001	-6.813056e-001	5.923552e-001	-2.148039e-001
	6.783928e-002	-2.068717e-001	-1.486307e-001	1.587738e-001	5.928255e-001	-2.117643e-001	-1.721571e-001	-6.815039e-001
	-1.686756e-001	-6.809044e-001	5.934189e-001	-2.117652e-001	-1.546173e-001	1.598760e-001	6.857046e-002	-2.059935e-001
	5.923104e-001	-2.144262e-001	-1.720608e-001	-6.827558e-001	6.851926e-002	-2.062356e-001	-1.495477e-001	1.647734e-001
613790000	-1.486325e-001	1.654984e-001	6.454130e-002	-2.086073e-001	-1.767283e-001	-6.779066e-001	5.914744e-001	-2.222448e-001
	6.443013e-002	-2.079079e-001	-1.461996e-001	1.605086e-001	5.919601e-001	-2.191622e-001	-1.800574e-001	-6.779108e-001
	-1.765698e-001	-6.775016e-001	5.925659e-001	-2.192076e-001	-1.522040e-001	1.616776e-001	6.523232e-002	-2.067838e-001
	5.914053e-001	-2.219102e-001	-1.799552e-001	-6.791748e-001	6.516230e-002	-2.070730e-001	-1.473786e-001	1.664344e-001
618780000	-1.460325e-001	1.670205e-001	6.094218e-002	-2.095933e-001	-1.846137e-001	-6.743825e-001	5.904557e-001	-2.297425e-001
	6.090670e-002	-2.088805e-001	-1.440132e-001	1.621046e-001	5.909304e-001	-2.266063e-001	-1.879754e-001	-6.743057e-001
	-1.844910e-001	-6.739661e-001	5.915968e-001	-2.266880e-001	-1.496913e-001	1.634478e-001	6.176616e-002	-2.077735e-001
	5.903695e-001	-2.294082e-001	-1.879166e-001	-6.755069e-001	6.174655e-002	-2.080910e-001	-1.452935e-001	1.680403e-001
623770000	-1.434620e-001	1.686543e-001	5.731251e-002	-2.104763e-001	-1.926041e-001	-6.707943e-001	5.892958e-001	-2.373050e-001
	5.717731e-002	-2.098606e-001	-1.418218e-001	1.638528e-001	5.898568e-001	-2.340629e-001	-1.958501e-001	-6.705979e-001
	-1.924093e-001	-6.704407e-001	5.905272e-001	-2.342207e-001	-1.473516e-001	1.652070e-001	5.824538e-002	-2.087076e-001
	5.892340e-001	-2.368660e-001	-1.958022e-001	-6.717833e-001	5.821908e-002	-2.088988e-001	-1.433254e-001	1.695497e-001
628760000	-1.410892e-001	1.701595e-001	5.357095e-002	-2.115026e-001	-2.003799e-001	-6.671404e-001	5.880016e-001	-2.447936e-001
	5.358949e-002	-2.108223e-001	-1.396169e-001	1.654710e-001	5.885758e-001	-2.415005e-001	-2.036472e-001	-6.668607e-001
	-2.002170e-001	-6.667867e-001	5.893012e-001	-2.416673e-001	-1.450282e-001	1.669347e-001	5.460320e-002	-2.095903e-001
	5.879573e-001	-2.444281e-001	-2.036241e-001	-6.680579e-001	5.458034e-002	-2.098436e-001	-1.412998e-001	1.711354e-001
633750000	-1.386426e-001	1.717162e-001	4.985634e-002	-2.123891e-001	-2.081713e-001	-6.634689e-001	5.866255e-001	-2.522677e-001
	4.989757e-002	-2.117309e-001	-1.374803e-001	1.671193e-001	5.871963e-001	-2.488856e-001	-2.113365e-001	-6.631191e-001
	-2.079362e-001	-6.630651e-001	5.879728e-001	-2.490983e-001	-1.428309e-001	1.683794e-001	5.101481e-002	-2.105345e-001
	5.866071e-001	-2.519095e-001	-2.113420e-001	-6.642400e-001	5.096341e-002	-2.107930e-001	-1.392524e-001	1.725525e-001
638740000	-1.364659e-001	1.730735e-001	4.606532e-002	-2.133897e-001	-2.157974e-001	-6.597348e-001	5.851548e-001	-2.597006e-001
	4.614600e-002	-2.126827e-001	-1.352939e-001	1.685799e-001	5.857439e-001	-2.562596e-001	-2.189313e-001	-6.593026e-001
	-2.155623e-001	-6.593482e-001	5.865884e-001	-2.564886e-001	-1.405510e-001	1.699601e-001	4.748604e-002	-2.114181e-001
	5.851142e-001	-2.593255e-001	-2.190173e-001	-6.604845e-001	4.743716e-002	-2.116145e-001	-1.372726e-001	1.739447e-001
643730000	-1.342761e-001	1.743092e-001	4.242379e-002	-2.141014e-001	-2.232988e-001	-6.559994e-001	5.836123e-001	-2.670758e-001
	4.258672e-002	-2.135412e-001	-1.331883e-001	1.700029e-001	5.842786e-001	-2.635591e-001	-2.264289e-001	-6.554778e-001
	-2.230616e-001	-6.555687e-001	5.850829e-001	-2.637944e-001	-1.382833e-001	1.713496e-001	4.395188e-002	-2.120727e-001
	5.835928e-001	-2.666795e-001	-2.264657e-001	-6.565888e-001	4.395009e-002	-2.124056e-001	-1.353086e-001	1.753348e-001
648720000	-1.319463e-001	1.754868e-001	3.902710e-002	-2.148068e-001	-2.306416e-001	-6.521643e-001	5.819672e-001	-2.743554e-001
	3.903278e-002	-2.142834e-001	-1.308432e-001	1.713754e-001	5.827084e-001	-2.707669e-001	-2.337192e-001	-6.516305e-001
	-2.304346e-001	-6.517993e-001	5.835722e-001	-2.709950e-001	-1.360077e-001	1.726174e-001	4.059473e-002	-2.128234e-001
	5.819956e-001	-2.739261e-001	-2.337545e-001	-6.527128e-001	4.060917e-002	-2.131053e-001	-1.332475e-001	1.764888e-001
653710000	-1.297420e-001	1.766144e-001	3.548737e-002	-2.154720e-001	-2.378814e-001	-6.482806e-001	5.803210e-001	-2.815593e-001
	3.567439e-002	-2.147966e-001	-1.289112e-001	1.726829e-001	5.811034e-001	-2.779503e-001	-2.409376e-001	-6.476465e-001
	-2.376317e-001	-6.478893e-001	5.818681e-001	-2.781272e-001	-1.337906e-001	1.739005e-001	3.729416e-002	-2.133111e-001
	5.803217e-001	-2.811620e-001	-2.409469e-001	-6.487310e-001	3.742380e-002	-2.135366e-001	-1.311307e-001	1.776109e-001
658700000	-1.274937e-001	1.776783e-001	3.202201e-002	-2.158368e-001	-2.451265e-001	-6.442431e-001	5.784467e-001	-2.888056e-001
	3.204923e-002	-2.151901e-001	-1.266108e-001	1.739699e-001	5.793045e-001	-2.851134e-001	-2.481172e-001	-6.436133e-001
	-2.449296e-001	-6.438650e-001	5.800970e-001	-2.853212e-001	-1.315462e-001	1.750556e-001	3.398820e-002	-2.137475e-001
	5.785251e-001	-2.883891e-001	-2.481518e-001	-6.446700e-001	3.395180e-002	-2.138212e-001	-1.291368e-001	1.786663e-001
663690000	-1.254347e-001	1.787156e-001	2.836948e-002	-2.162072e-001	-2.524019e-001	-6.402101e-001	5.765104e-001	-2.959809e-001
	2.831353e-002	-2.155724e-001	-1.243377e-001	1.751687e-001	5.773752e-001	-2.922933e-001	-2.553140e-001	-6.394377e-001
	-2.521208e-001	-6.397650e-001	5.781846e-001	-2.924767e-001	-1.294200e-001	1.761413e-001	3.049223e-002	-2.140178e-001
	5.765682e-001	-2.956170e-001	-2.553832e-001	-6.405082e-001	3.046903e-002	-2.142111e-001	-1.270080e-001	1.797757e-001
668680000	-1.232063e-001	1.795492e-001	2.461090e-002	-2.163689e-001	-2.596219e-001	-6.359741e-001	5.744896e-001	-3.031640e-001
	2.471223e-002	-2.158064e-001	-1.221881e-001	1.763701e-001	5.753241e-001	-2.994229e-001	-2.625165e-001	-6.351899e-001
	-2.593895e-001	-6.355815e-001	5.761479e-001	-2.996277e-001	-1.273069e-001	1.771815e-001	2.694887e-002	-2.140728e-001
	5.744847e-001	-3.028727e-001	-2.626128e-001	-6.362611e-001	2.691534e-002	-2.144119e-001	-1.250602e-001	1.807474e-001
673670000	-1.209371e-001	1.802947e-001	2.080754e-002	-2.165536e-001	-2.668014e-001	-6.317577e-001	5.721954e-001	-3.102985e-001
	2.089014e-002	-2.160467e-001	-1.201038e-001	1.774913e-001	5.731461e-001	-3.065981e-001	-2.696132e-001	-6.309574e-001
	-2.665498e-001	-6.313245e-001	5.739659e-001	-3.067868e-001	-1.250348e-001	1.781929e-001	2.328239e-002	-2.143707e-001
	5.722284e-001	-3.100424e-001	-2.697840e-001	-6.319651e-001	2.327651e-002	-2.145305e-001	-1.229939e-001	1.815865e-001
678660000	-1.186826e-001	1.809489e-001	1.692342e-002	-2.167209e-001	-2.739643e-001	-6.274579e-001	5.698348e-001	-3.174204e-001
	1.700388e-002	-2.161515e-001	-1.178070e-001	1.783677e-001	5.708764e-001	-3.137235e-001	-2.767128e-001	-6.265823e-001
	-2.737144e-001	-6.270068e-001	5.716405e-001	-3.138504e-001	-1.228887e-001	1.789572e-001	1.977049e-002	-2.146493e-001
	5.699091e-001	-3.172139e-001	-2.769611e-001	-6.276172e-001	1.975864e-002	-2.147494e-001	-1.209297e-001	1.822553e-001
683650000	-1.163852e-001	1.814842e-001	1.310883e-002	-2.168492e-001	-2.810693e-001	-6.231893e-001	5.673839e-001	-3.245053e-001
	1.333992e-002	-2.163494e-001	-1.155599e-001	1.792261e-001	5.685185e-001	-3.207600e-001	-2.837155e-001	-6.221419e-001
	-2.807791e-001	-6.226311e-001	5.691950e-001	-3.209405e-001	-1.207148e-001	1.797362e-001	1.620176e-002	-2.148002e-001
	5.674388e-001	-3.243727e-001	-2.840262e-001	-6.232403e-001	1.600814e-002	-2.148680e-001	-1.187927e-001	1.829236e-001
688640000	-1.139773e-001	1.819938e-001	9.551071e-003	-2.171444e-001	-2.879873e-001	-6.187286e-001	5.648611e-001	-3.316239e-001
	9.629834e-003	-2.164770e-001	-1.132159e-001	1.799588e-001	5.660124e-001	-3.278301e-001	-2.906712e-001	-6.177235e-001
	-2.877559e-001	-6.182477e-001	5.666476e-001	-3.280128e-001	-1.183936e-001	1.804626e-001	1.280404e-002	-2.149819e-001
	5.648777e-001	-3.314186e-001	-2.909433e-001	-6.187920e-001	1.272367e-002	-2.150840e-001	-1.165167e-001	1.834572e-001
693630000	-1.112994e-001	1.825779e-001	6.008465e-003	-2.173655e-001	-2.948204e-001	-6.142911e-001	5.622284e-001	-3.386599e-001
	6.265677e-003	-2.165380e-001	-1.108501e-001	1.807319e-001	5.634416e-001	-3.348269e-001	-2.974329e-001	-6.132849e-001
	-2.945036e-001	-6.137799e-001	5.640170e-001	-3.349929e-001	-1.160121e-001	1.811195e-001	9.576278e-003	-2.151167e-001
	5.622588e-001	-3.385109e-001	-2.977100e-001	-6.143148e-001	9.390691e-003	-2.152456e-001	-1.140653e-001	1.840258e-001
698620000	-1.086488e-001	1.831282e-001	2.846077e-003	-2.171746e-001	-3.014304e-001	-6.097548e-001	5.594811e-001	-3.456681e-001
	2.975582e-003	-2.164227e-001	-1.083215e-001	1.814732e-001	5.608182e-001	-3.418333e-001	-3.041190e-001	-6.087040e-001
	-3.012060e-001	-6.093193e-001	5.614062e-001	-3.420061e-001	-1.135615e-001	1.818995e-001	6.355185e-003	-2.151657e-001
	5.596083e-001	-3.454848e-001	-3.044030e-001	-6.097664e-001	6.325653e-003	-2.152776e-001	-1.117702e-001	1.846949e-001
703610000	-1.059306e-001	1.837428e-001	-4.660246e-004	-2.169236e-001	-3.080623e-001	-6.052615e-001	5.567790e-001	-3.525944e-001
	-3.105545e-004	-2.161860e-001	-1.057820e-001	1.823861e-001	5.581256e-001	-3.486644e-001	-3.107054e-001	-6.040431e-001
	-3.077289e-001	-6.048015e-001	5.587200e-001	-3.488743e-001	-1.110374e-001	1.825300e-001	3.178375e-003	-2.150303e-001
	5.568948e-001	-3.523694e-001	-3.109246e-001	-6.051724e-001	3.175811e-003	-2.152075e-001	-1.094270e-001	1.852471e-001
708600000	-1.033191e-001	1.843566e-001	-3.756082e-003	-2.165843e-001	-3.146629e-001	-6.005852e-001	5.538723e-001	-3.595225e-001
	-3.559119e-003	-2.159232e-001	-1.032619e-001	1.831867e-001	5.553519e-001	-3.555932e-001	-3.172503e-001	-5.993684e-001
	-3.143448e-001	-6.001158e-001	5.558758e-001	-3.557832e-001	-1.085934e-001	1.832897e-001	-4.493168e-005	-2.148102e-001
	5.539642e-001	-3.593631e-001	-3.175315e-001	-6.004658e-001	-1.340896e-005	-2.149304e-001	-1.069735e-001	1.859499e-001
713590000	-1.006082e-001	1.851178e-001	-7.091131e-003	-2.160063e-001	-3.213186e-001	-5.958871e-001	5.508209e-001	-3.665049e-001
	-6.976928e-003	-2.154758e-001	-1.007545e-001	1.841488e-001	5.524141e-001	-3.625320e-001	-3.239084e-001	-5.945493e-001
	-3.209182e-001	-5.954066e-001	5.529354e-001	-3.626971e-001	-1.060627e-001	1.839777e-001	-3.357011e-003	-2.145082e-001
	5.509552e-001	-3.662982e-001	-3.240941e-001	-5.956532e-001	-3.240303e-003	-2.146884e-001	-1.045683e-001	1.865489e-001
718580000	-9.798397e-002	1.858910e-001	-1.060280e-002	-2.154261e-001	-3.279878e-001	-5.911410e-001	5.477081e-001	-3.733894e-001
	-1.034317e-002	-2.148719e-001	-9.838604e-002	1.850237e-001	5.493171e-001	-3.693938e-001	-3.304553e-001	-5.897252e-001
	-3.275346e-001	-5.906567e-001	5.498648e-001	-3.696125e-001	-1.035982e-001	1.847629e-001	-6.804949e-003	-2.141638e-001
	5.478613e-001	-3.731700e-001	-3.307278e-001	-5.907993e-001	-6.712070e-003	-2.143075e-001	-1.021015e-001	1.872386e-001
723570000	-9.562026e-002	1.866788e-001	-1.405524e-002	-2.147168e-001	-3.345466e-001	-5.863618e-001	5.445340e-001	-3.802687e-001
	-1.383530e-002	-2.142201e-001	-9.610461e-002	1.858761e-001	5.460934e-001	-3.761997e-001	-3.370966e-001	-5.848557e-001
	-3.341892e-001	-5.858875e-001	5.467073e-001	-3.764500e-001	-1.011276e-001	1.855197e-001	-1.031148e-002	-2.137409e-001
	5.446227e-001	-3.800845e-001	-3.373178e-001	-5.859107e-001	-1.003332e-002	-2.140602e-001	-9.984540e-002	1.878595e-001
728560000	-9.334043e-002	1.873931e-001	-1.742891e-002	-2.141879e-001	-3.412552e-001	-5.815379e-001	5.412722e-001	-3.871623e-001
	-1.730730e-002	-2.136708e-001	-9.393400e-002	1.867414e-001	5.429405e-001	-3.829325e-001	-3.437266e-001	-5.799953e-001
	-3.407733e-001	-5.810715e-001	5.434040e-001	-3.833073e-001	-9.882642e-002	1.861590e-001	-1.391062e-002	-2.134306e-001
	5.413577e-001	-3.869716e-001	-3.438755e-001	-5.809807e-001	-1.388617e-002	-2.135574e-001	-9.755303e-002	1.883159e-001
733550000	-9.110090e-002	1.881862e-001	-2.089725e-002	-2.135826e-001	-3.477933e-001	-5.766382e-001	5.379128e-001	-3.940266e-001
	-2.079041e-002	-2.130305e-001	-9.174148e-002	1.874954e-001	5.395758e-001	-3.897430e-001	-3.502306e-001	-5.750405e-001
	-3.473488e-001	-5.761357e-001	5.401233e-001	-3.901006e-001	-9.652864e-002	1.867998e-001	-1.731624e-002	-2.130718e-001
	5.380332e-001	-3.938030e-001	-3.504660e-001	-5.759996e-001	-1.736278e-002	-2.132765e-001	-9.532885e-002	1.888579e-001
738540000	-8.883135e-002	1.888064e-001	-2.425146e-002	-2.130256e-001	-3.541964e-001	-5.716709e-001	5.344843e-001	-4.008579e-001
	-2.397261e-002	-2.126965e-001	-8.962739e-002	1.883546e-001	5.361944e-001	-3.964922e-001	-3.566539e-001	-5.700507e-001
	-3.537418e-001	-5.712361e-001	5.367957e-001	-3.969007e-001	-9.427991e-002	1.873651e-001	-2.065903e-002	-2.126463e-001
	5.345496e-001	-4.006409e-001	-3.568481e-001	-5.709684e-001	-2.064455e-002	-2.129859e-001	-9.297599e-002	1.895166e-001
743530000	-8.665624e-002	1.895748e-001	-2.737246e-002	-2.125912e-001	-3.604528e-001	-5.666544e-001	5.309024e-001	-4.076192e-001
	-2.724239e-002	-2.120232e-001	-8.755309e-002	1.890340e-001	5.327471e-001	-4.032050e-001	-3.629239e-001	-5.650176e-001
	-3.600304e-001	-5.662621e-001	5.332893e-001	-4.036260e-001	-9.205821e-002	1.878660e-001	-2.404094e-002	-2.123191e-001
	5.310280e-001	-4.074303e-001	-3.630811e-001	-5.659237e-001	-2.385079e-002	-2.125533e-001	-9.077032e-002	1.900001e-001
748520000	-8.457816e-002	1.902037e-001	-3.042217e-002	-2.119177e-001	-3.665423e-001	-5.616440e-001	5.273192e-001	-4.142739e-001
	-3.022724e-002	-2.113709e-001	-8.538166e-002	1.896213e-001	5.291971e-001	-4.098335e-001	-3.689946e-001	-5.599269e-001
	-3.660932e-001	-5.612745e-001	5.298151e-001	-4.102756e-001	-8.975806e-002	1.883156e-001	-2.717714e-002	-2.118042e-001
	5.274330e-001	-4.140800e-001	-3.691639e-001	-5.608570e-001	-2.695827e-002	-2.121489e-001	-8.854546e-002	1.904384e-001
753510000	-8.240168e-002	1.906647e-001	-3.337601e-002	-2.111245e-001	-3.725040e-001	-5.566365e-001	5.236959e-001	-4.208226e-001
	-3.331273e-002	-2.106909e-001	-8.329443e-002	1.901872e-001	5.256758e-001	-4.163452e-001	-3.749404e-001	-5.548801e-001
	-3.720459e-001	-5.562893e-001	5.262773e-001	-4.168137e-001	-8.747549e-002	1.888156e-001	-3.020692e-002	-2.112366e-001
	5.237907e-001	-4.205519e-001	-3.751147e-001	-5.557805e-001	-3.002230e-002	-2.114082e-001	-8.611738e-002	1.908920e-001
758500000	-8.027956e-002	1.911098e-001	-3.636624e-002	-2.103127e-001	-3.784455e-001	-5.515108e-001	5.199571e-001	-4.273761e-001
	-3.631250e-002	-2.098173e-001	-8.133031e-002	1.906994e-001	5.220266e-001	-4.228602e-001	-3.808916e-001	-5.497496e-001
	-3.780636e-001	-5.511723e-001	5.225985e-001	-4.232503e-001	-8.524879e-002	1.891691e-001	-3.321321e-002	-2.104709e-001
	5.200007e-001	-4.271198e-001	-3.810714e-001	-5.506233e-001	-3.303003e-002	-2.106433e-001	-8.384982e-002	1.913971e-001
763490000	-7.821770e-002	1.915543e-001	-3.940948e-002	-2.091987e-001	-3.844427e-001	-5.463093e-001	5.161091e-001	-4.338364e-001
	-3.925028e-002	-2.087822e-001	-7.936990e-002	1.912125e-001	5.182012e-001	-4.294323e-001	-3.868744e-001	-5.444442e-001
	-3.840164e-001	-5.459786e-001	5.188314e-001	-4.297723e-001	-8.306522e-002	1.895005e-001	-3.628528e-002	-2.095486e-001
	5.161681e-001	-4.336735e-001	-3.871097e-001	-5.453256e-001	-3.608524e-002	-2.098128e-001	-8.163391e-002	1.918011e-001
768480000	-7.612832e-002	1.918056e-001	-4.248074e-002	-2.081422e-001	-3.904152e-001	-5.409647e-001	5.120835e-001	-4.403136e-001
	-4.242329e-002	-2.077021e-001	-7.742243e-002	1.915230e-001	5.143065e-001	-4.357918e-001	-3.928059e-001	-5.390564e-001
	-3.900203e-001	-5.406275e-001	5.149078e-001	-4.362266e-001	-8.103018e-002	1.898310e-001	-3.953641e-002	-2.086669e-001
	5.120982e-001	-4.401456e-001	-3.930643e-001	-5.399148e-001	-3.965057e-002	-2.087654e-001	-7.954684e-002	1.922048e-001
773470000	-7.409174e-002	1.920696e-001	-4.584678e-002	-2.069953e-001	-3.963507e-001	-5.356064e-001	5.079434e-001	-4.466913e-001
	-4.546200e-002	-2.065599e-001	-7.564666e-002	1.918099e-001	5.103234e-001	-4.421778e-001	-3.986959e-001	-5.336582e-001
	-3.960184e-001	-5.352744e-001	5.108612e-001	-4.426340e-001	-7.902290e-002	1.900033e-001	-4.288133e-002	-2.076328e-001
	5.079618e-001	-4.466058e-001	-3.990380e-001	-5.344841e-001	-4.309842e-002	-2.077008e-001	-7.725581e-002	1.926091e-001
778460000	-7.190080e-002	1.921926e-001	-4.906861e-002	-2.060713e-001	-4.021863e-001	-5.301783e-001	5.036754e-001	-4.530344e-001
	-4.850497e-002	-2.054771e-001	-7.383197e-002	1.919440e-001	5.061441e-001	-4.485836e-001	-4.045896e-001	-5.281221e-001
	-4.018274e-001	-5.298013e-001	5.066870e-001	-4.489682e-001	-7.688802e-002	1.901110e-001	-4.620943e-002	-2.066836e-001
	5.036616e-001	-4.529799e-001	-4.049194e-001	-5.289654e-001	-4.629800e-002	-2.068443e-001	-7.512761e-002	1.927861e-001
783450000	-6.982009e-002	1.921001e-001	-5.204593e-002	-2.051035e-001	-4.079762e-001	-5.246623e-001	4.992913e-001	-4.593427e-001
	-5.163441e-002	-2.043632e-001	-7.203457e-002	1.919836e-001	5.019267e-001	-4.548947e-001	-4.103745e-001	-5.225912e-001
	-4.076754e-001	-5.243496e-001	5.023969e-001	-4.553500e-001	-7.484015e-002	1.901035e-001	-4.944480e-002	-2.057463e-001
	4.993107e-001	-4.592555e-001	-4.106963e-001	-5.234185e-001	-4.959528e-002	-2.057658e-001	-7.286351e-002	1.929732e-001
788440000	-6.757136e-002	1.919843e-001	-5.511494e-002	-2.040542e-001	-4.137218e-001	-5.191733e-001	4.948662e-001	-4.655862e-001
	-5.465204e-002	-2.033865e-001	-7.017876e-002	1.919569e-001	4.975609e-001	-4.611240e-001	-4.160344e-001	-5.169613e-001
	-4.133649e-001	-5.188664e-001	4.980584e-001	-4.615560e-001	-7.273690e-002	1.898322e-001	-5.259301e-002	-2.047500e-001
	4.948307e-001	-4.654625e-001	-4.164195e-001	-5.178412e-001	-5.285260e-002	-2.049205e-001	-7.064906e-002	1.931373e-001
793430000	-6.518594e-002	1.917609e-001	-5.784237e-002	-2.032377e-001	-4.192258e-001	-5.136673e-001	4.902784e-001	-4.717284e-001
	-5.743557e-002	-2.023804e-001	-6.822999e-002	1.917941e-001	4.931141e-001	-4.673167e-001	-4.215650e-001	-5.113405e-001
	-4.189093e-001	-5.133312e-001	4.935743e-001	-4.677572e-001	-7.040835e-002	1.897147e-001	-5.566143e-002	-2.039037e-001
	4.903268e-001	-4.716434e-001	-4.219302e-001	-5.122164e-001	-5.580757e-002	-2.040231e-001	-6.835246e-002	1.931781e-001
798420000	-6.259103e-002	1.916708e-001	-6.031745e-002	-2.020847e-001	-4.246252e-001	-5.080995e-001	4.857637e-001	-4.778050e-001
	-6.007072e-002	-2.012723e-001	-6.618591e-002	1.917863e-001	4.886848e-001	-4.735236e-001	-4.269671e-001	-5.056614e-001
	-4.242886e-001	-5.077671e-001	4.891453e-001	-4.739087e-001	-6.818320e-002	1.895794e-001	-5.844483e-002	-2.028720e-001
	4.857825e-001	-4.776799e-001	-4.273241e-001	-5.065201e-001	-5.856600e-002	-2.030114e-001	-6.592518e-002	1.932487e-001
803410000	-6.003434e-002	1.914836e-001	-6.276319e-002	-2.010051e-001	-4.298942e-001	-5.025376e-001	4.811798e-001	-4.837891e-001
	-6.252775e-002	-2.001588e-001	-6.405634e-002	1.917273e-001	4.842083e-001	-4.795312e-001	-4.321685e-001	-4.999663e-001
	-4.295653e-001	-5.022501e-001	4.846435e-001	-4.799317e-001	-6.574993e-002	1.893558e-001	-6.113995e-002	-2.017307e-001
	4.811984e-001	-4.836955e-001	-4.325588e-001	-5.008947e-001	-6.128480e-002	-2.019981e-001	-6.353422e-002	1.934524e-001
808400000	-5.748504e-002	1.912562e-001	-6.524088e-002	-1.997126e-001	-4.351578e-001	-4.968311e-001	4.765473e-001	-4.897828e-001
	-6.513333e-002	-1.989187e-001	-6.200218e-002	1.916591e-001	4.797300e-001	-4.856162e-001	-4.373437e-001	-4.941998e-001
	-4.348363e-001	-4.965612e-001	4.801019e-001	-4.860495e-001	-6.333658e-002	1.891885e-001	-6.387526e-002	-2.005467e-001
	4.765771e-001	-4.896316e-001	-4.377606e-001	-4.950667e-001	-6.388744e-002	-2.005784e-001	-6.100782e-002	1.935042e-001
813390000	-5.495726e-002	1.912532e-001	-6.794023e-002	-1.982653e-001	-4.403696e-001	-4.911346e-001	4.718177e-001	-4.958231e-001
	-6.764703e-002	-1.975343e-001	-6.000564e-002	1.919077e-001	4.750142e-001	-4.916873e-001	-4.425150e-001	-4.883753e-001
	-4.399936e-001	-4.908355e-001	4.753997e-001	-4.920695e-001	-6.093754e-002	1.891262e-001	-6.675111e-002	-1.991073e-001
	4.718641e-001	-4.957335e-001	-4.429368e-001	-4.892363e-001	-6.669965e-002	-1.992997e-001	-5.864781e-002	1.937405e-001
818380000	-5.243818e-002	1.914561e-001	-7.059745e-002	-1.967118e-001	-4.456520e-001	-4.853118e-001	4.669420e-001	-5.018798e-001
	-7.026941e-002	-1.959629e-001	-5.792626e-002	1.920046e-001	4.702570e-001	-4.978003e-001	-4.477514e-001	-4.824991e-001
	-4.452132e-001	-4.850734e-001	4.706057e-001	-4.981805e-001	-5.862320e-002	1.891733e-001	-6.954535e-002	-1.975604e-001
	4.669860e-001	-5.017087e-001	-4.482012e-001	-4.833484e-001	-6.960104e-002	-1.976232e-001	-5.619897e-002	1.940617e-001
823370000	-4.994287e-002	1.913863e-001	-7.320291e-002	-1.952358e-001	-4.508552e-001	-4.795430e-001	4.618491e-001	-5.078897e-001
	-7.301773e-002	-1.946546e-001	-5.585611e-002	1.921050e-001	4.652734e-001	-5.038450e-001	-4.528851e-001	-4.766303e-001
	-4.504756e-001	-4.792956e-001	4.656112e-001	-5.042433e-001	-5.628719e-002	1.890778e-001	-7.254353e-002	-1.961708e-001
	4.619759e-001	-5.076892e-001	-4.533866e-001	-4.774272e-001	-7.254493e-002	-1.960864e-001	-5.378463e-002	1.944066e-001
828360000	-4.761116e-002	1.915736e-001	-7.600440e-002	-1.938290e-001	-4.560435e-001	-4.737074e-001	4.567609e-001	-5.138254e-001
	-7.579677e-002	-1.931972e-001	-5.382507e-002	1.922307e-001	4.601343e-001	-5.097202e-001	-4.580757e-001	-4.706513e-001
	-4.557173e-001	-4.734578e-001	4.605643e-001	-5.101311e-001	-5.396356e-002	1.891108e-001	-7.546517e-002	-1.946798e-001
	4.568103e-001	-5.135983e-001	-4.585944e-001	-4.715099e-001	-7.538048e-002	-1.946790e-001	-5.141966e-002	1.947314e-001
833350000	-4.527559e-002	1.915938e-001	-7.858441e-002	-1.926042e-001	-4.612227e-001	-4.678455e-001	4.515298e-001	-5.196906e-001
	-7.836898e-002	-1.918627e-001	-5.192351e-002	1.922132e-001	4.549841e-001	-5.155552e-001	-4.631498e-001	-4.647125e-001
	-4.608484e-001	-4.675507e-001	4.553366e-001	-5.160313e-001	-5.167072e-002	1.889938e-001	-7.833057e-002	-1.932064e-001
	4.515695e-001	-5.195093e-001	-4.636726e-001	-4.654793e-001	-7.831071e-002	-1.932370e-001	-4.904396e-002	1.950608e-001
838340000	-4.295827e-002	1.915569e-001	-8.129916e-002	-1.913869e-001	-4.662972e-001	-4.619804e-001	4.462016e-001	-5.254515e-001
	-8.110324e-002	-1.906811e-001	-4.993220e-002	1.921722e-001	4.497183e-001	-5.213809e-001	-4.681483e-001	-4.587290e-001
	-4.659357e-001	-4.616940e-001	4.501399e-001	-5.218027e-001	-4.929234e-002	1.888386e-001	-8.103142e-002	-1.919242e-001
	4.462323e-001	-5.252483e-001	-4.687298e-001	-4.595466e-001	-8.109074e-002	-1.919282e-001	-4.669761e-002	1.951718e-001
843330000	-4.073487e-002	1.915535e-001	-8.374074e-002	-1.900676e-001	-4.712376e-001	-4.561293e-001	4.409071e-001	-5.310896e-001
	-8.358483e-002	-1.894113e-001	-4.788448e-002	1.922187e-001	4.444671e-001	-5.270417e-001	-4.729956e-001	-4.527973e-001
	-4.708922e-001	-4.557970e-001	4.449025e-001	-5.275526e-001	-4.714831e-002	1.887349e-001	-8.377485e-002	-1.906285e-001
	4.408775e-001	-5.309072e-001	-4.736295e-001	-4.535599e-001	-8.375788e-002	-1.905931e-001	-4.447190e-002	1.954616e-001
848320000	-3.856387e-002	1.914513e-001	-8.614363e-002	-1.888837e-001	-4.760461e-001	-4.502630e-001	4.355321e-001	-5.366731e-001
	-8.583457e-002	-1.882623e-001	-4.605820e-002	1.922338e-001	4.392417e-001	-5.326787e-001	-4.777007e-001	-4.468714e-001
	-4.757361e-001	-4.499416e-001	4.396383e-001	-5.331455e-001	-4.483955e-002	1.887661e-001	-8.615509e-002	-1.893406e-001
	4.354873e-001	-5.364972e-001	-4.783842e-001	-4.476237e-001	-8.607770e-002	-1.891961e-001	-4.215545e-002	1.956772e-001
853310000	-3.636135e-002	1.914523e-001	-8.825716e-002	-1.876445e-001	-4.807056e-001	-4.443605e-001	4.301923e-001	-5.421691e-001
	-8.809944e-002	-1.868462e-001	-4.393902e-002	1.921852e-001	4.339184e-001	-5.381438e-001	-4.823009e-001	-4.409167e-001
	-4.804170e-001	-4.439897e-001	4.343255e-001	-5.387003e-001	-4.274632e-002	1.886443e-001	-8.851439e-002	-1.878388e-001
	4.300919e-001	-5.419598e-001	-4.830132e-001	-4.416352e-001	-8.848641e-002	-1.877719e-001	-3.995178e-002	1.960416e-001
858300000	-3.426072e-002	1.912700e-001	-9.066334e-002	-1.862546e-001	-4.853927e-001	-4.383373e-001	4.246031e-001	-5.475697e-001
	-9.055338e-002	-1.856333e-001	-4.222715e-002	1.921824e-001	4.284876e-001	-5.436550e-001	-4.868043e-001	-4.348807e-001
	-4.851271e-001	-4.380251e-001	4.288845e-001	-5.441786e-001	-4.056661e-002	1.885278e-001	-9.080123e-002	-1.864406e-001
	4.245219e-001	-5.473819e-001	-4.876043e-001	-4.355484e-001	-9.087018e-002	-1.861518e-001	-3.784564e-002	1.962948e-001
863290000	-3.215834e-002	1.912720e-001	-9.309904e-002	-1.846590e-001	-4.900535e-001	-4.322550e-001	4.189846e-001	-5.529041e-001
	-9.292370e-002	-1.841316e-001	-4.027751e-002	1.921815e-001	4.228791e-001	-5.490728e-001	-4.913742e-001	-4.286545e-001
	-4.897664e-001	-4.319145e-001	4.233361e-001	-5.495571e-001	-3.849781e-002	1.886171e-001	-9.334910e-002	-1.845608e-001
	4.188157e-001	-5.527986e-001	-4.921383e-001	-4.293872e-001	-9.343991e-002	-1.843976e-001	-3.570101e-002	1.965920e-001
868280000	-3.014544e-002	1.910620e-001	-9.569080e-002	-1.830260e-001	-4.946378e-001	-4.260809e-001	4.132021e-001	-5.582254e-001
	-9.532067e-002	-1.824713e-001	-3.862186e-002	1.921125e-001	4.171671e-001	-5.543433e-001	-4.958992e-001	-4.224175e-001
	-4.943797e-001	-4.256947e-001	4.176827e-001	-5.548931e-001	-3.643641e-002	1.885166e-001	-9.574623e-002	-1.828005e-001
	4.130710e-001	-5.581165e-001	-4.966937e-001	-4.231300e-001	-9.600017e-002	-1.827118e-001	-3.361211e-002	1.968531e-001
873270000	-2.813699e-002	1.907395e-001	-9.841116e-002	-1.815328e-001	-4.992444e-001	-4.198241e-001	4.072691e-001	-5.633922e-001
	-9.800700e-002	-1.808379e-001	-3.695613e-002	1.919820e-001	4.112653e-001	-5.596119e-001	-5.003092e-001	-4.161071e-001
	-4.989549e-001	-4.194633e-001	4.118519e-001	-5.600388e-001	-3.454663e-002	1.883081e-001	-9.824681e-002	-1.810331e-001
	4.072017e-001	-5.632718e-001	-5.010904e-001	-4.168150e-001	-9.849242e-002	-1.811421e-001	-3.158774e-002	1.970554e-001
878260000	-2.614688e-002	1.903018e-001	-1.010870e-001	-1.800580e-001	-5.037206e-001	-4.135222e-001	4.012640e-001	-5.684280e-001
	-1.007118e-001	-1.792091e-001	-3.523058e-002	1.917178e-001	4.054122e-001	-5.646967e-001	-5.047172e-001	-4.097904e-001
	-5.034701e-001	-4.131898e-001	4.059339e-001	-5.651407e-001	-3.266553e-002	1.882372e-001	-1.009649e-001	-1.792916e-001
	4.011989e-001	-5.682926e-001	-5.054750e-001	-4.104914e-001	-1.011729e-001	-1.792807e-001	-2.965552e-002	1.972115e-001
883250000	-2.421641e-002	1.896644e-001	-1.036515e-001	-1.786130e-001	-5.081540e-001	-4.072552e-001	3.951559e-001	-5.733921e-001
	-1.033051e-001	-1.779197e-001	-3.354416e-002	1.915387e-001	3.993686e-001	-5.697730e-001	-5.090017e-001	-4.034179e-001
	-5.079461e-001	-4.068962e-001	3.999268e-001	-5.702177e-001	-3.086448e-002	1.879956e-001	-1.035275e-001	-1.775971e-001
	3.950747e-001	-5.733338e-001	-5.097623e-001	-4.041110e-001	-1.037570e-001	-1.776308e-001	-2.771926e-002	1.972519e-001
888240000	-2.214632e-002	1.892206e-001	-1.062049e-001	-1.771855e-001	-5.124880e-001	-4.009067e-001	3.890381e-001	-5.782882e-001
	-1.058366e-001	-1.764177e-001	-3.183523e-002	1.910948e-001	3.932925e-001	-5.748191e-001	-5.132413e-001	-3.970664e-001
	-5.122560e-001	-4.005436e-001	3.938460e-001	-5.751663e-001	-2.909042e-002	1.876400e-001	-1.059656e-001	-1.758621e-001
	3.889322e-001	-5.782306e-001	-5.139839e-001	-3.977512e-001	-1.060674e-001	-1.760328e-001	-2.586542e-002	1.973475e-001
893230000	-2.008752e-002	1.885021e-001	-1.084392e-001	-1.757533e-001	-5.167271e-001	-3.946362e-001	3.828247e-001	-5.830946e-001
	-1.081541e-001	-1.750157e-001	-2.991866e-002	1.908250e-001	3.872564e-001	-5.796775e-001	-5.173228e-001	-3.907016e-001
	-5.164752e-001	-3.942186e-001	3.877296e-001	-5.800955e-001	-2.720734e-002	1.871598e-001	-1.081298e-001	-1.743742e-001
	3.827679e-001	-5.830887e-001	-5.180486e-001	-3.914116e-001	-1.082920e-001	-1.743790e-001	-2.381381e-002	1.973032e-001
898220000	-1.774363e-002	1.878109e-001	-1.105318e-001	-1.743876e-001	-5.208624e-001	-3.883629e-001	3.767064e-001	-5.878839e-001
	-1.102655e-001	-1.734581e-001	-2.804001e-002	1.903292e-001	3.811280e-001	-5.845393e-001	-5.212975e-001	-3.844233e-001
	-5.206152e-001	-3.879980e-001	3.816436e-001	-5.849255e-001	-2.541200e-002	1.866942e-001	-1.101339e-001	-1.726420e-001
	3.766320e-001	-5.878505e-001	-5.220454e-001	-3.850975e-001	-1.102628e-001	-1.729386e-001	-2.172216e-002	1.972501e-001
903210000	-1.552470e-002	1.871770e-001	-1.126213e-001	-1.726740e-001	-5.248466e-001	-3.820598e-001	3.704852e-001	-5.924846e-001
	-1.123545e-001	-1.720136e-001	-2.603494e-002	1.900033e-001	3.750217e-001	-5.892376e-001	-5.251953e-001	-3.781246e-001
	-5.245484e-001	-3.816702e-001	3.755742e-001	-5.896540e-001	-2.338927e-002	1.862852e-001	-1.121485e-001	-1.710358e-001
	3.704289e-001	-5.924942e-001	-5.259154e-001	-3.787820e-001	-1.121094e-001	-1.712226e-001	-1.966252e-002	1.971233e-001
908200000	-1.318647e-002	1.864829e-001	-1.147128e-001	-1.709870e-001	-5.287732e-001	-3.756254e-001	3.641978e-001	-5.971313e-001
	-1.144659e-001	-1.703020e-001	-2.414935e-002	1.896888e-001	3.687767e-001	-5.939718e-001	-5.290152e-001	-3.716608e-001
	-5.284764e-001	-3.752518e-001	3.693453e-001	-5.943547e-001	-2.159927e-002	1.858511e-001	-1.139567e-001	-1.692027e-001
	3.641979e-001	-5.970820e-001	-5.297560e-001	-3.723155e-001	-1.140410e-001	-1.693720e-001	-1.754068e-002	1.970435e-001
913190000	-1.078185e-002	1.860159e-001	-1.169036e-001	-1.691988e-001	-5.327136e-001	-3.690894e-001	3.578752e-001	-6.016441e-001
	-1.166610e-001	-1.685075e-001	-2.207319e-002	1.893859e-001	3.624545e-001	-5.985840e-001	-5.328764e-001	-3.651719e-001
	-5.324059e-001	-3.687736e-001	3.630159e-001	-5.989704e-001	-1.967641e-002	1.855776e-001	-1.160895e-001	-1.670623e-001
	3.577836e-001	-6.016191e-001	-5.335817e-001	-3.658617e-001	-1.159438e-001	-1.674324e-001	-1.547289e-002	1.969357e-001
918180000	-8.629528e-003	1.855624e-001	-1.191311e-001	-1.672871e-001	-5.366455e-001	-3.624895e-001	3.513847e-001	-6.061817e-001
	-1.189564e-001	-1.666629e-001	-2.007582e-002	1.891787e-001	3.560800e-001	-6.031241e-001	-5.367115e-001	-3.585668e-001
	-5.363048e-001	-3.621784e-001	3.565721e-001	-6.035323e-001	-1.774752e-002	1.852184e-001	-1.180653e-001	-1.651386e-001
	3.512934e-001	-6.061445e-001	-5.373817e-001	-3.592629e-001	-1.181132e-001	-1.652307e-001	-1.342535e-002	1.967590e-001
923170000	-6.231242e-003	1.850873e-001	-1.214328e-001	-1.653378e-001	-5.405101e-001	-3.558817e-001	3.448305e-001	-6.105820e-001
	-1.212020e-001	-1.647579e-001	-1.813188e-002	1.889232e-001	3.495457e-001	-6.075923e-001	-5.404747e-001	-3.519534e-001
	-5.401960e-001	-3.555680e-001	3.500101e-001	-6.080229e-001	-1.591962e-002	1.849349e-001	-1.202563e-001	-1.631009e-001
	3.447184e-001	-6.105543e-001	-5.411823e-001	-3.526187e-001	-1.202296e-001	-1.632438e-001	-1.137497e-002	1.966783e-001
928160000	-4.021394e-003	1.846930e-001	-1.238053e-001	-1.632661e-001	-5.444128e-001	-3.492474e-001	3.381661e-001	-6.149010e-001
	-1.235896e-001	-1.627765e-001	-1.618287e-002	1.887481e-001	3.429677e-001	-6.119693e-001	-5.442052e-001	-3.453170e-001
	-5.440603e-001	-3.489295e-001	3.434425e-001	-6.124753e-001	-1.405072e-002	1.844923e-001	-1.224461e-001	-1.610744e-001
	3.380763e-001	-6.149271e-001	-5.449125e-001	-3.459453e-001	-1.225545e-001	-1.612159e-001	-9.345732e-003	1.965859e-001
933150000	-1.864325e-003	1.843019e-001	-1.260736e-001	-1.614850e-001	-5.481684e-001	-3.425679e-001	3.314917e-001	-6.191095e-001
	-1.259559e-001	-1.610096e-001	-1.429744e-002	1.884908e-001	3.362858e-001	-6.162466e-001	-5.478671e-001	-3.386745e-001
	-5.478320e-001	-3.422830e-001	3.367565e-001	-6.168069e-001	-1.223738e-002	1.842400e-001	-1.247036e-001	-1.592053e-001
	3.313179e-001	-6.191519e-001	-5.486138e-001	-3.392934e-001	-1.247362e-001	-1.592472e-001	-7.461344e-003	1.964838e-001
938140000	1.697807e-004	1.838941e-001	-1.284698e-001	-1.597818e-001	-5.518841e-001	-3.358725e-001	3.247588e-001	-6.233064e-001
	-1.281614e-001	-1.592212e-001	-1.234484e-002	1.882546e-001	3.295692e-001	-6.204642e-001	-5.514584e-001	-3.320306e-001
	-5.515225e-001	-3.356192e-001	3.299643e-001	-6.210544e-001	-1.028878e-002	1.838301e-001	-1.268391e-001	-1.573230e-001
	3.245337e-001	-6.232881e-001	-5.522240e-001	-3.326591e-001	-1.268086e-001	-1.573116e-001	-5.482271e-003	1.962308e-001
943130000	2.185265e-003	1.834116e-001	-1.305344e-001	-1.579341e-001	-5.554802e-001	-3.292752e-001	3.179799e-001	-6.274160e-001
	-1.303497e-001	-1.573699e-001	-1.043034e-002	1.880488e-001	3.228083e-001	-6.245579e-001	-5.549720e-001	-3.254612e-001
	-5.551101e-001	-3.290134e-001	3.232388e-001	-6.252178e-001	-8.367863e-003	1.833776e-001	-1.286928e-001	-1.555248e-001
	3.177552e-001	-6.273954e-001	-5.556907e-001	-3.260201e-001	-1.288466e-001	-1.555804e-001	-3.539917e-003	1.960522e-001
948120000	4.119090e-003	1.830383e-001	-1.324839e-001	-1.561696e-001	-5.589174e-001	-3.227140e-001	3.112919e-001	-6.313703e-001
	-1.323739e-001	-1.556466e-001	-8.510794e-003	1.878796e-001	3.160675e-001	-6.285572e-001	-5.583195e-001	-3.188911e-001
	-5.585584e-001	-3.224809e-001	3.165270e-001	-6.292843e-001	-6.561093e-003	1.831046e-001	-1.306499e-001	-1.536002e-001
	3.110295e-001	-6.313847e-001	-5.590355e-001	-3.194567e-001	-1.307002e-001	-1.537767e-001	-1.666818e-003	1.958283e-001
953110000	6.027190e-003	1.826415e-001	-1.343498e-001	-1.541718e-001	-5.622936e-001	-3.161560e-001	3.045206e-001	-6.352544e-001
	-1.342455e-001	-1.537851e-001	-6.527954e-003	1.877804e-001	3.094026e-001	-6.324648e-001	-5.615541e-001	-3.123422e-001
	-5.619415e-001	-3.158678e-001	3.098659e-001	-6.331825e-001	-4.599263e-003	1.828718e-001	-1.323686e-001	-1.517121e-001
	3.042828e-001	-6.352162e-001	-5.622891e-001	-3.129294e-001	-1.324681e-001	-1.518664e-001	3.079327e-004	1.957162e-001
958100000	7.887475e-003	1.821144e-001	-1.363381e-001	-1.521932e-001	-5.656382e-001	-3.094664e-001	2.976464e-001	-6.390419e-001
	-1.361213e-001	-1.517418e-001	-4.644141e-003	1.876404e-001	3.026437e-001	-6.363028e-001	-5.647993e-001	-3.057233e-001
	-5.652677e-001	-3.091815e-001	3.029984e-001	-6.369962e-001	-2.779930e-003	1.824415e-001	-1.341294e-001	-1.497527e-001
	2.974272e-001	-6.389790e-001	-5.655303e-001	-3.062523e-001	-1.341423e-001	-1.496936e-001	2.151424e-003	1.953674e-001
963090000	9.570688e-003	1.816878e-001	-1.382403e-001	-1.500622e-001	-5.689310e-001	-3.026797e-001	2.907092e-001	-6.427821e-001
	-1.380262e-001	-1.494893e-001	-2.753739e-003	1.874935e-001	2.956737e-001	-6.399743e-001	-5.679787e-001	-2.989624e-001
	-5.685803e-001	-3.023625e-001	2.960394e-001	-6.407460e-001	-9.767706e-004	1.821314e-001	-1.359452e-001	-1.476159e-001
	2.905294e-001	-6.427023e-001	-5.686819e-001	-2.995136e-001	-1.360538e-001	-1.476724e-001	4.076001e-003	1.952075e-001
968080000	1.128559e-002	1.811854e-001	-1.403618e-001	-1.478416e-001	-5.721110e-001	-2.958272e-001	2.836313e-001	-6.463897e-001
	-1.399814e-001	-1.474046e-001	-9.424856e-004	1.873556e-001	2.886544e-001	-6.436800e-001	-5.711294e-001	-2.921167e-001
	-5.718000e-001	-2.954622e-001	2.890261e-001	-6.443603e-001	9.425361e-004	1.819664e-001	-1.378753e-001	-1.455090e-001
	2.834174e-001	-6.463416e-001	-5.718483e-001	-2.926661e-001	-1.379070e-001	-1.455138e-001	5.716161e-003	1.950064e-001
973070000	1.292711e-002	1.806974e-001	-1.423997e-001	-1.456725e-001	-5.753268e-001	-2.888702e-001	2.765236e-001	-6.498702e-001
	-1.420273e-001	-1.450870e-001	8.284167e-004	1.872653e-001	2.815386e-001	-6.471469e-001	-5.741997e-001	-2.852524e-001
	-5.750144e-001	-2.885519e-001	2.818263e-001	-6.479216e-001	2.557726e-003	1.817321e-001	-1.399283e-001	-1.431843e-001
	2.762835e-001	-6.498513e-001	-5.749056e-001	-2.857740e-001	-1.400347e-001	-1.433730e-001	7.515548e-003	1.947666e-001
978060000	1.449788e-002	1.800514e-001	-1.444901e-001	-1.435898e-001	-5.784770e-001	-2.819092e-001	2.693143e-001	-6.533127e-001
	-1.440880e-001	-1.429109e-001	2.532470e-003	1.870861e-001	2.743779e-001	-6.506319e-001	-5.772220e-001	-2.783988e-001
	-5.781519e-001	-2.815831e-001	2.745738e-001	-6.513465e-001	4.169351e-003	1.815076e-001	-1.417394e-001	-1.411154e-001
	2.690910e-001	-6.532529e-001	-5.779162e-001	-2.788602e-001	-1.419993e-001	-1.412256e-001	9.092772e-003	1.944220e-001
983050000	1.587145e-002	1.795240e-001	-1.466016e-001	-1.414675e-001	-5.815051e-001	-2.749205e-001	2.620841e-001	-6.565376e-001
	-1.461317e-001	-1.407966e-001	4.308039e-003	1.868029e-001	2.671681e-001	-6.539733e-001	-5.801606e-001	-2.714727e-001
	-5.812089e-001	-2.745724e-001	2.673456e-001	-6.546724e-001	5.701565e-003	1.812205e-001	-1.438536e-001	-1.389929e-001
	2.618770e-001	-6.565447e-001	-5.808467e-001	-2.719480e-001	-1.439948e-001	-1.392168e-001	1.068264e-002	1.939868e-001
988040000	1.737690e-002	1.787664e-001	-1.485015e-001	-1.394971e-001	-5.844997e-001	-2.680353e-001	2.547444e-001	-6.597669e-001
	-1.481878e-001	-1.386926e-001	5.954314e-003	1.864546e-001	2.599010e-001	-6.572089e-001	-5.829927e-001	-2.645915e-001
	-5.841486e-001	-2.676199e-001	2.600064e-001	-6.579210e-001	7.320114e-003	1.808587e-001	-1.456463e-001	-1.370981e-001
	2.545949e-001	-6.597123e-001	-5.837361e-001	-2.650266e-001	-1.459700e-001	-1.373041e-001	1.236128e-002	1.935033e-001
993030000	1.892920e-002	1.780295e-001	-1.502628e-001	-1.375611e-001	-5.873424e-001	-2.610779e-001	2.474335e-001	-6.629104e-001
	-1.499668e-001	-1.365849e-001	7.705969e-003	1.859719e-001	2.526330e-001	-6.604390e-001	-5.857442e-001	-2.577138e-001
	-5.869609e-001	-2.606633e-001	2.526804e-001	-6.611022e-001	8.872820e-003	1.804077e-001	-1.473316e-001	-1.351059e-001
	2.473065e-001	-6.628457e-001	-5.865105e-001	-2.581533e-001	-1.474322e-001	-1.352375e-001	1.397094e-002	1.930361e-001
998020000	2.059081e-002	1.772422e-001	-1.518930e-001	-1.353064e-001	-5.900943e-001	-2.541807e-001	2.401255e-001	-6.659194e-001
	-1.516579e-001	-1.345556e-001	9.420508e-003	1.856155e-001	2.454295e-001	-6.634913e-001	-5.883971e-001	-2.509293e-001
	-5.896928e-001	-2.538217e-001	2.454986e-001	-6.642032e-001	1.051073e-002	1.799573e-001	-1.489177e-001	-1.330865e-001
	2.400500e-001	-6.658163e-001	-5.891615e-001	-2.513181e-001	-1.490325e-001	-1.332283e-001	1.566941e-002	1.925426e-001
1003010000	2.228487e-002	1.764946e-001	-1.532317e-001	-1.332745e-001	-5.926334e-001	-2.473597e-001	2.329003e-001	-6.688817e-001
	-1.531145e-001	-1.325203e-001	1.116148e-002	1.851506e-001	2.381592e-001	-6.665229e-001	-5.909316e-001	-2.440788e-001
	-5.923553e-001	-2.470163e-001	2.382193e-001	-6.672454e-001	1.212942e-002	1.795963e-001	-1.503092e-001	-1.310642e-001
	2.327466e-001	-6.687981e-001	-5.917590e-001	-2.444976e-001	-1.502990e-001	-1.312211e-001	1.731607e-002	1.919554e-001
1008000000	2.394445e-002	1.756948e-001	-1.546634e-001	-1.310588e-001	-5.952206e-001	-2.404131e-001	2.255685e-001	-6.717334e-001
	-1.545313e-001	-1.304201e-001	1.286405e-002	1.847320e-001	2.309085e-001	-6.693923e-001	-5.935093e-001	-2.372301e-001
	-5.949204e-001	-2.400189e-001	2.308685e-001	-6.701558e-001	1.388592e-002	1.790213e-001	-1.518013e-001	-1.288366e-001
	2.254169e-001	-6.716704e-001	-5.942364e-001	-2.375433e-001	-1.517565e-001	-1.290548e-001	1.920198e-002	1.913358e-001
1012990000	2.571547e-002	1.750757e-001	-1.561510e-001	-1.287160e-001	-5.977773e-001	-2.333202e-001	2.181148e-001	-6.745640e-001
	-1.559706e-001	-1.280054e-001	1.466417e-002	1.841895e-001	2.234784e-001	-6.722540e-001	-5.959599e-001	-2.301988e-001
	-5.974547e-001	-2.329670e-001	2.235454e-001	-6.729573e-001	1.542401e-002	1.785074e-001	-1.531413e-001	-1.265053e-001
	2.179902e-001	-6.744885e-001	-5.967635e-001	-2.305385e-001	-1.532397e-001	-1.267823e-001	2.093515e-002	1.909226e-001
1017980000	2.770146e-002	1.744998e-001	-1.577093e-001	-1.262674e-001	-6.002582e-001	-2.261897e-001	2.106106e-001	-6.772453e-001
	-1.575487e-001	-1.255282e-001	1.641399e-002	1.839577e-001	2.160187e-001	-6.750073e-001	-5.984067e-001	-2.231051e-001
	-5.999652e-001	-2.259239e-001	2.160352e-001	-6.756997e-001	1.701863e-002	1.781093e-001	-1.547292e-001	-1.241422e-001
	2.104984e-001	-6.771381e-001	-5.992049e-001	-2.233697e-001	-1.547663e-001	-1.243871e-001	2.273573e-002	1.903895e-001
1022970000	2.931529e-002	1.738232e-001	-1.592931e-001	-1.238761e-001	-6.027474e-001	-2.189714e-001	2.029683e-001	-6.798411e-001
	-1.589941e-001	-1.231613e-001	1.809318e-002	1.834969e-001	2.085369e-001	-6.776621e-001	-6.007603e-001	-2.159159e-001
	-6.024483e-001	-2.186755e-001	2.085218e-001	-6.783780e-001	1.867573e-002	1.775275e-001	-1.562788e-001	-1.217949e-001
	2.028810e-001	-6.798186e-001	-6.016165e-001	-2.161840e-001	-1.563776e-001	-1.217024e-001	2.445802e-002	1.899833e-001
1027960000	3.115605e-002	1.734239e-001	-1.609173e-001	-1.214037e-001	-6.051713e-001	-2.117600e-001	1.953266e-001	-6.824213e-001
	-1.605764e-001	-1.206260e-001	1.971688e-002	1.830814e-001	2.009389e-001	-6.801464e-001	-6.031437e-001	-2.087111e-001
	-6.048708e-001	-2.115154e-001	2.009312e-001	-6.809456e-001	2.028716e-002	1.771195e-001	-1.578727e-001	-1.193255e-001
	1.952926e-001	-6.822959e-001	-6.039708e-001	-2.089914e-001	-1.581042e-001	-1.193463e-001	2.616034e-002	1.894194e-001
1032950000	3.277309e-002	1.728398e-001	-1.625580e-001	-1.189666e-001	-6.075247e-001	-2.045423e-001	1.876710e-001	-6.848314e-001
	-1.622079e-001	-1.182472e-001	2.144422e-002	1.827344e-001	1.932600e-001	-6.826211e-001	-6.054344e-001	-2.015626e-001
	-6.072361e-001	-2.043066e-001	1.933215e-001	-6.834378e-001	2.176757e-002	1.764870e-001	-1.596904e-001	-1.169536e-001
	1.875953e-001	-6.847428e-001	-6.062741e-001	-2.017886e-001	-1.597106e-001	-1.169317e-001	2.787884e-002	1.889707e-001
1037940000	3.438744e-002	1.723088e-001	-1.640986e-001	-1.167086e-001	-6.098062e-001	-1.973635e-001	1.800148e-001	-6.871534e-001
	-1.638089e-001	-1.159006e-001	2.301034e-002	1.823609e-001	1.855575e-001	-6.849606e-001	-6.076313e-001	-1.943896e-001
	-6.095313e-001	-1.971266e-001	1.856217e-001	-6.857953e-001	2.335193e-002	1.758632e-001	-1.611478e-001	-1.146533e-001
	1.799015e-001	-6.870474e-001	-6.084542e-001	-1.946130e-001	-1.612788e-001	-1.147519e-001	2.957296e-002	1.883591e-001
1042930000	3.589990e-002	1.717774e-001	-1.653701e-001	-1.142644e-001	-6.119744e-001	-1.902344e-001	1.723311e-001	-6.893933e-001
	-1.651924e-001	-1.135288e-001	2.473949e-002	1.818543e-001	1.778883e-001	-6.872565e-001	-6.097936e-001	-1.872903e-001
	-6.117129e-001	-1.899869e-001	1.780424e-001	-6.881458e-001	2.493718e-002	1.751958e-001	-1.625942e-001	-1.123836e-001
	1.722661e-001	-6.892539e-001	-6.106012e-001	-1.874559e-001	-1.626546e-001	-1.124645e-001	3.119414e-002	1.878659e-001
1047920000	3.741601e-002	1.711053e-001	-1.665792e-001	-1.120128e-001	-6.140530e-001	-1.831311e-001	1.646956e-001	-6.915663e-001
	-1.663951e-001	-1.113070e-001	2.633682e-002	1.814483e-001	1.703137e-001	-6.894631e-001	-6.118006e-001	-1.802819e-001
	-6.138391e-001	-1.828737e-001	1.704219e-001	-6.903628e-001	2.651921e-002	1.746495e-001	-1.638587e-001	-1.101639e-001
	1.646041e-001	-6.914057e-001	-6.126755e-001	-1.803940e-001	-1.639595e-001	-1.101741e-001	3.298051e-002	1.873102e-001
1052910000	3.887695e-002	1.705510e-001	-1.677212e-001	-1.096651e-001	-6.160530e-001	-1.760508e-001	1.571146e-001	-6.936567e-001
	-1.675073e-001	-1.092349e-001	2.792773e-002	1.810572e-001	1.627694e-001	-6.915508e-001	-6.137223e-001	-1.732357e-001
	-6.158122e-001	-1.758243e-001	1.628845e-001	-6.924557e-001	2.812260e-002	1.739446e-001	-1.649755e-001	-1.078722e-001
	1.569327e-001	-6.935180e-001	-6.145731e-001	-1.733618e-001	-1.651364e-001	-1.079089e-001	3.462835e-002	1.868080e-001
1057900000	4.037734e-002	1.699522e-001	-1.688244e-001	-1.072994e-001	-6.179930e-001	-1.689063e-001	1.494355e-001	-6.955867e-001
	-1.686236e-001	-1.068255e-001	2.958178e-002	1.807402e-001	1.551253e-001	-6.935987e-001	-6.156034e-001	-1.660919e-001
	-6.177141e-001	-1.686848e-001	1.551781e-001	-6.944978e-001	2.983532e-002	1.733835e-001	-1.660831e-001	-1.054858e-001
	1.492584e-001	-6.954596e-001	-6.164108e-001	-1.662098e-001	-1.662211e-001	-1.054898e-001	3.629346e-002	1.862966e-001
1062890000	4.175344e-002	1.694393e-001	-1.699994e-001	-1.046533e-001	-6.198476e-001	-1.616512e-001	1.416699e-001	-6.974680e-001
	-1.696433e-001	-1.042677e-001	3.110865e-002	1.803469e-001	1.473682e-001	-6.955426e-001	-6.174253e-001	-1.588363e-001
	-6.195522e-001	-1.614389e-001	1.474529e-001	-6.963739e-001	3.151076e-002	1.728302e-001	-1.672352e-001	-1.029673e-001
	1.414533e-001	-6.973496e-001	-6.182310e-001	-1.589618e-001	-1.673737e-001	-1.029849e-001	3.803276e-002	1.858003e-001
1067880000	4.309837e-002	1.689711e-001	-1.712763e-001	-1.021632e-001	-6.216127e-001	-1.542784e-001	1.338106e-001	-6.991772e-001
	-1.708061e-001	-1.017249e-001	3.274368e-002	1.799642e-001	1.395935e-001	-6.972591e-001	-6.192017e-001	-1.515409e-001
	-6.213110e-001	-1.540831e-001	1.395998e-001	-6.981412e-001	3.305663e-002	1.723507e-001	-1.684527e-001	-1.002589e-001
	1.335896e-001	-6.990974e-001	-6.199935e-001	-1.516589e-001	-1.687028e-001	-1.004167e-001	3.973705e-002	1.852255e-001
1072870000	4.439195e-002	1.682170e-001	-1.726028e-001	-9.950231e-002	-6.233470e-001	-1.469438e-001	1.258045e-001	-7.008339e-001
	-1.721178e-001	-9.904512e-002	3.421596e-002	1.795104e-001	1.315898e-001	-6.989714e-001	-6.208610e-001	-1.442098e-001
	-6.229882e-001	-1.467140e-001	1.317303e-001	-6.997825e-001	3.471224e-002	1.718329e-001	-1.695363e-001	-9.791059e-002
	1.256999e-001	-7.006232e-001	-6.216595e-001	-1.443011e-001	-1.698330e-001	-9.803918e-002	4.143422e-002	1.847940e-001
1077860000	4.578594e-002	1.675971e-001	-1.738045e-001	-9.720072e-002	-6.249348e-001	-1.395590e-001	1.178223e-001	-7.022993e-001
	-1.733137e-001	-9.669901e-002	3.570940e-002	1.790731e-001	1.236407e-001	-7.005301e-001	-6.224455e-001	-1.368472e-001
	-6.246126e-001	-1.393135e-001	1.236927e-001	-7.013261e-001	3.629530e-002	1.714532e-001	-1.707438e-001	-9.533216e-002
	1.176177e-001	-7.021155e-001	-6.232559e-001	-1.368835e-001	-1.711942e-001	-9.553832e-002	4.310339e-002	1.841547e-001
1082850000	4.699027e-002	1.668233e-001	-1.750415e-001	-9.475156e-002	-6.265096e-001	-1.321419e-001	1.097215e-001	-7.037019e-001
	-1.744992e-001	-9.423525e-002	3.715909e-002	1.785034e-001	1.156112e-001	-7.019943e-001	-6.239704e-001	-1.294311e-001
	-6.261481e-001	-1.319218e-001	1.156733e-001	-7.027692e-001	3.772099e-002	1.709690e-001	-1.719667e-001	-9.299065e-002
	1.096299e-001	-7.034880e-001	-6.248178e-001	-1.295301e-001	-1.722645e-001	-9.320042e-002	4.464741e-002	1.836854e-001
1087840000	4.825560e-002	1.661107e-001	-1.761170e-001	-9.257040e-002	-6.280166e-001	-1.247886e-001	1.017060e-001	-7.049508e-001
	-1.754870e-001	-9.183606e-002	3.854180e-002	1.778203e-001	1.076128e-001	-7.033443e-001	-6.254350e-001	-1.221483e-001
	-6.275767e-001	-1.245638e-001	1.076121e-001	-7.041081e-001	3.928276e-002	1.703200e-001	-1.731178e-001	-9.057716e-002
	1.015852e-001	-7.047951e-001	-6.262594e-001	-1.221716e-001	-1.732651e-001	-9.089097e-002	4.624042e-002	1.829829e-001
1092830000	4.950453e-002	1.651515e-001	-1.771092e-001	-9.040296e-002	-6.293874e-001	-1.174178e-001	9.370030e-002	-7.060323e-001
	-1.765167e-001	-8.952575e-002	3.973954e-002	1.771572e-001	9.963748e-002	-7.046060e-001	-6.268213e-001	-1.148722e-001
	-6.289802e-001	-1.172322e-001	9.959476e-002	-7.053412e-001	4.057735e-002	1.698689e-001	-1.740957e-001	-8.832282e-002
	9.361372e-002	-7.059447e-001	-6.276385e-001	-1.148565e-001	-1.741831e-001	-8.860969e-002	4.789270e-002	1.821979e-001
1097820000	5.075540e-002	1.642896e-001	-1.780138e-001	-8.808518e-002	-6.307144e-001	-1.101969e-001	8.574983e-002	-7.071297e-001
	-1.773546e-001	-8.754845e-002	4.109546e-002	1.764496e-001	9.173120e-002	-7.057842e-001	-6.281463e-001	-1.076052e-001
	-6.302670e-001	-1.099796e-001	9.173312e-002	-7.064841e-001	4.201716e-002	1.692688e-001	-1.748537e-001	-8.609310e-002
	8.564692e-002	-7.069979e-001	-6.289550e-001	-1.075955e-001	-1.749394e-001	-8.626165e-002	4.942436e-002	1.814522e-001
1102810000	5.216528e-002	1.633459e-001	-1.786128e-001	-8.598831e-002	-6.319697e-001	-1.029041e-001	7.792423e-002	-7.081646e-001
	-1.782278e-001	-8.538739e-002	4.254783e-002	1.756781e-001	8.388463e-002	-7.069172e-001	-6.293256e-001	-1.003403e-001
	-6.315201e-001	-1.027716e-001	8.388171e-002	-7.075865e-001	4.336796e-002	1.684364e-001	-1.755497e-001	-8.364601e-002
	7.775373e-002	-7.079725e-001	-6.301358e-001	-1.003748e-001	-1.754872e-001	-8.404691e-002	5.105462e-002	1.808307e-001
1107800000	5.365090e-002	1.624531e-001	-1.793441e-001	-8.362628e-002	-6.331218e-001	-9.556313e-002	6.989526e-002	-7.090775e-001
	-1.789471e-001	-8.316721e-002	4.389074e-002	1.750684e-001	7.594880e-002	-7.078640e-001	-6.304620e-001	-9.300260e-002
	-6.326578e-001	-9.536817e-002	7.595716e-002	-7.085571e-001	4.475755e-002	1.678085e-001	-1.762015e-001	-8.139477e-002
	6.978678e-002	-7.089302e-001	-6.312524e-001	-9.298463e-002	-1.761822e-001	-8.167062e-002	5.262673e-002	1.800078e-001
1112790000	5.511008e-002	1.615228e-001	-1.801645e-001	-8.115072e-002	-6.342317e-001	-8.807164e-002	6.178857e-002	-7.098940e-001
	-1.798668e-001	-8.074218e-002	4.524536e-002	1.742697e-001	6.799412e-002	-7.087537e-001	-6.314640e-001	-8.551826e-002
	-6.337543e-001	-8.790123e-002	6.795142e-002	-7.094523e-001	4.625669e-002	1.670810e-001	-1.768729e-001	-7.888498e-002
	6.172602e-002	-7.097008e-001	-6.322841e-001	-8.553179e-002	-1.768544e-001	-7.895898e-002	5.426455e-002	1.793579e-001
1117780000	5.668660e-002	1.606066e-001	-1.811158e-001	-7.872638e-002	-6.352177e-001	-8.050899e-002	5.368036e-002	-7.105454e-001
	-1.807225e-001	-7.838840e-002	4.662387e-002	1.736857e-001	5.990799e-002	-7.095195e-001	-6.324307e-001	-7.803988e-002
	-6.347193e-001	-8.040500e-002	5.981900e-002	-7.101754e-001	4.756125e-002	1.664836e-001	-1.775704e-001	-7.628473e-002
	5.356487e-002	-7.104099e-001	-6.332000e-001	-7.798581e-002	-1.774915e-001	-7.638350e-002	5.604495e-002	1.786669e-001
1122770000	5.823148e-002	1.597661e-001	-1.821403e-001	-7.620036e-002	-6.361996e-001	-7.297394e-002	4.550437e-002	-7.111541e-001
	-1.818630e-001	-7.570749e-002	4.798345e-002	1.730280e-001	5.182020e-002	-7.101526e-001	-6.332657e-001	-7.045835e-002
	-6.356939e-001	-7.281221e-002	5.166028e-002	-7.108137e-001	4.888121e-002	1.657769e-001	-1.783378e-001	-7.362267e-002
	4.545256e-002	-7.109211e-001	-6.340782e-001	-7.043987e-002	-1.784385e-001	-7.367422e-002	5.774871e-002	1.781105e-001
1127760000	5.970686e-002	1.588024e-001	-1.830808e-001	-7.369278e-002	-6.370792e-001	-6.535458e-002	3.732404e-002	-7.115961e-001
	-1.827803e-001	-7.317427e-002	4.938268e-002	1.724407e-001	4.369334e-002	-7.107073e-001	-6.340646e-001	-6.289892e-002
	-6.365833e-001	-6.517744e-002	4.352563e-002	-7.113405e-001	5.014436e-002	1.650255e-001	-1.791900e-001	-7.104331e-002
	3.723855e-002	-7.113772e-001	-6.348726e-001	-6.282236e-002	-1.791917e-001	-7.097414e-002	5.935093e-002	1.775253e-001
1132750000	6.106222e-002	1.579278e-001	-1.842183e-001	-7.115732e-002	-6.379261e-001	-5.777951e-002	2.905707e-002	-7.119261e-001
	-1.839907e-001	-7.082631e-002	5.069618e-002	1.718687e-001	3.552829e-002	-7.110840e-001	-6.347871e-001	-5.533607e-002
	-6.374113e-001	-5.757613e-002	3.534165e-002	-7.117832e-001	5.132598e-002	1.642768e-001	-1.800977e-001	-6.848621e-002
	2.900884e-002	-7.116766e-001	-6.356237e-001	-5.522821e-002	-1.802628e-001	-6.856170e-002	6.109583e-002	1.769454e-001
1137740000	6.247900e-002	1.569589e-001	-1.851811e-001	-6.880118e-002	-6.386606e-001	-5.020053e-002	2.083454e-002	-7.122167e-001
	-1.849319e-001	-6.841872e-002	5.201549e-002	1.712232e-001	2.734850e-002	-7.114420e-001	-6.354573e-001	-4.778609e-002
	-6.382031e-001	-4.998513e-002	2.713964e-002	-7.121354e-001	5.249785e-002	1.634856e-001	-1.808772e-001	-6.605332e-002
	2.080070e-002	-7.119805e-001	-6.362747e-001	-4.770748e-002	-1.809347e-001	-6.606934e-002	6.273296e-002	1.763431e-001
1142730000	6.378872e-002	1.559031e-001	-1.859458e-001	-6.641724e-002	-6.393327e-001	-4.265866e-002	1.272817e-002	-7.124184e-001
	-1.857169e-001	-6.603058e-002	5.336675e-002	1.707107e-001	1.922199e-002	-7.117209e-001	-6.360218e-001	-4.031979e-002
	-6.388528e-001	-4.248563e-002	1.902668e-002	-7.124262e-001	5.374814e-002	1.627005e-001	-1.813878e-001	-6.353865e-002
	1.267421e-002	-7.121565e-001	-6.368569e-001	-4.025666e-002	-1.816637e-001	-6.351878e-002	6.438509e-002	1.758432e-001
1147720000	6.503218e-002	1.550092e-001	-1.865242e-001	-6.395029e-002	-6.399691e-001	-3.524705e-002	4.625380e-003	-7.125758e-001
	-1.864586e-001	-6.365601e-002	5.477713e-002	1.699575e-001	1.115130e-002	-7.119697e-001	-6.365447e-001	-3.291206e-002
	-6.394556e-001	-3.507329e-002	1.098072e-002	-7.127076e-001	5.498552e-002	1.618364e-001	-1.818514e-001	-6.106224e-002
	4.627010e-003	-7.122758e-001	-6.373410e-001	-3.285528e-002	-1.821929e-001	-6.121694e-002	6.604464e-002	1.751068e-001
1152710000	6.631011e-002	1.539440e-001	-1.871299e-001	-6.144465e-002	-6.404682e-001	-2.787520e-002	-3.391392e-003	-7.126080e-001
	-1.870410e-001	-6.115438e-002	5.614402e-002	1.694231e-001	3.125463e-003	-7.121028e-001	-6.369714e-001	-2.560843e-002
	-6.399528e-001	-2.767387e-002	2.994266e-003	-7.128004e-001	5.631668e-002	1.608739e-001	-1.822967e-001	-5.869242e-002
	-3.360291e-003	-7.122836e-001	-6.377414e-001	-2.555253e-002	-1.824141e-001	-5.855072e-002	6.772285e-002	1.744493e-001
1157700000	6.761176e-002	1.530417e-001	-1.875892e-001	-5.902996e-002	-6.409885e-001	-2.039335e-002	-1.148872e-002	-7.125450e-001
	-1.874882e-001	-5.862689e-002	5.762581e-002	1.687303e-001	-4.940217e-003	-7.120644e-001	-6.373312e-001	-1.818307e-002
	-6.404249e-001	-2.018646e-002	-5.098130e-003	-7.127773e-001	5.755173e-002	1.598723e-001	-1.825530e-001	-5.610737e-002
	-1.137573e-002	-7.122162e-001	-6.380991e-001	-1.818711e-002	-1.827818e-001	-5.605741e-002	6.946075e-002	1.738264e-001
1162690000	6.881157e-002	1.519263e-001	-1.880910e-001	-5.632809e-002	-6.413476e-001	-1.282870e-002	-1.955117e-002	-7.123865e-001
	-1.879342e-001	-5.609084e-002	5.915530e-002	1.680741e-001	-1.305451e-002	-7.120016e-001	-6.376267e-001	-1.071301e-002
	-6.408021e-001	-1.266181e-002	-1.318886e-002	-7.126177e-001	5.899015e-002	1.590459e-001	-1.828488e-001	-5.337796e-002
	-1.955160e-002	-7.120233e-001	-6.384249e-001	-1.065023e-002	-1.830354e-001	-5.337683e-002	7.112235e-002	1.731589e-001
1167680000	7.001406e-002	1.508704e-001	-1.888831e-001	-5.365598e-002	-6.416232e-001	-5.192185e-003	-2.772713e-002	-7.120831e-001
	-1.884146e-001	-5.342556e-002	6.074237e-002	1.674933e-001	-2.127038e-002	-7.117472e-001	-6.378115e-001	-3.113104e-003
	-6.411222e-001	-5.021725e-003	-2.134297e-002	-7.122980e-001	6.046389e-002	1.582419e-001	-1.829816e-001	-5.068016e-002
	-2.768973e-002	-7.117337e-001	-6.386527e-001	-3.141147e-003	-1.834527e-001	-5.070414e-002	7.270199e-002	1.725745e-001
1172670000	7.118548e-002	1.498879e-001	-1.893839e-001	-5.097564e-002	-6.418478e-001	2.505436e-003	-3.590760e-002	-7.116727e-001
	-1.889567e-001	-5.066646e-002	6.234988e-002	1.668235e-001	-2.954299e-002	-7.113392e-001	-6.379356e-001	4.495857e-003
	-6.413239e-001	2.677532e-003	-2.957974e-002	-7.119208e-001	6.181916e-002	1.575752e-001	-1.832595e-001	-4.798664e-002
	-3.583708e-002	-7.113261e-001	-6.388344e-001	4.467485e-003	-1.838608e-001	-4.810472e-002	7.431888e-002	1.720892e-001
1177660000	7.239011e-002	1.485938e-001	-1.901849e-001	-4.852143e-002	-6.420355e-001	1.024073e-002	-4.415174e-002	-7.111246e-001
	-1.895783e-001	-4.799818e-002	6.381817e-002	1.661283e-001	-3.784054e-002	-7.107859e-001	-6.379639e-001	1.209825e-002
	-6.415085e-001	1.036856e-002	-3.786752e-002	-7.114029e-001	6.327276e-002	1.568385e-001	-1.836152e-001	-4.541314e-002
	-4.401731e-002	-7.107660e-001	-6.388935e-001	1.208604e-002	-1.842871e-001	-4.549523e-002	7.583498e-002	1.716198e-001
1182650000	7.350491e-002	1.475054e-001	-1.905540e-001	-4.588542e-002	-6.421132e-001	1.799885e-002	-5.234547e-002	-7.104321e-001
	-1.901678e-001	-4.546164e-002	6.524071e-002	1.654868e-001	-4.609390e-002	-7.102115e-001	-6.379651e-001	1.967643e-002
	-6.415461e-001	1.810323e-002	-4.609538e-002	-7.108270e-001	6.465537e-002	1.558582e-001	-1.839247e-001	-4.299361e-002
	-5.223693e-002	-7.101452e-001	-6.388837e-001	1.967507e-002	-1.843592e-001	-4.312838e-002	7.733297e-002	1.710240e-001
1187640000	7.435251e-002	1.463485e-001	-1.911418e-001	-4.354518e-002	-6.421397e-001	2.567362e-002	-6.056491e-002	-7.096579e-001
	-1.906234e-001	-4.294277e-002	6.666192e-002	1.647544e-001	-5.438938e-002	-7.095153e-001	-6.378757e-001	2.731591e-002
	-6.415177e-001	2.583564e-002	-5.438447e-002	-7.100367e-001	6.610829e-002	1.551990e-001	-1.842668e-001	-4.051684e-002
	-6.044172e-002	-7.094941e-001	-6.388073e-001	2.731076e-002	-1.845772e-001	-4.097921e-002	7.876163e-002	1.703896e-001
1192630000	7.544693e-002	1.450746e-001	-1.914947e-001	-4.108808e-002	-6.420711e-001	3.333321e-002	-6.875059e-002	-7.088149e-001
	-1.911003e-001	-4.058280e-002	6.831568e-002	1.639145e-001	-6.257761e-002	-7.087244e-001	-6.377038e-001	3.487539e-002
	-6.413844e-001	3.345512e-002	-6.257366e-002	-7.092588e-001	6.753229e-002	1.544255e-001	-1.844875e-001	-3.836635e-002
	-6.863549e-002	-7.085941e-001	-6.386636e-001	3.481736e-002	-1.849230e-001	-3.864634e-002	8.019001e-002	1.697358e-001
1197620000	7.653060e-002	1.437527e-001	-1.918917e-001	-3.880997e-002	-6.418638e-001	4.094571e-002	-7.680787e-002	-7.078848e-001
	-1.914079e-001	-3.821722e-002	6.982545e-002	1.630720e-001	-7.069577e-002	-7.078783e-001	-6.374358e-001	4.235152e-002
	-6.411992e-001	4.103550e-002	-7.070718e-002	-7.082875e-001	6.906646e-002	1.536453e-001	-1.845906e-001	-3.600450e-002
	-7.674846e-002	-7.076872e-001	-6.383831e-001	4.227507e-002	-1.848370e-001	-3.637339e-002	8.156545e-002	1.691372e-001
1202610000	7.780793e-002	1.424079e-001	-1.920158e-001	-3.651179e-002	-6.415799e-001	4.847389e-002	-8.488208e-002	-7.068650e-001
	-1.916484e-001	-3.588248e-002	7.123204e-002	1.622291e-001	-7.875433e-002	-7.068699e-001	-6.370773e-001	4.980846e-002
	-6.409137e-001	4.852021e-002	-7.882120e-002	-7.073488e-001	7.045699e-002	1.527765e-001	-1.846077e-001	-3.378394e-002
	-8.481500e-002	-7.066268e-001	-6.380189e-001	4.977810e-002	-1.848858e-001	-3.416643e-002	8.290711e-002	1.683765e-001
1207600000	7.896928e-002	1.411482e-001	-1.922875e-001	-3.391796e-002	-6.411554e-001	5.609828e-002	-9.298442e-002	-7.056458e-001
	-1.918188e-001	-3.345666e-002	7.289954e-002	1.613668e-001	-8.681451e-002	-7.057921e-001	-6.366073e-001	5.728168e-002
	-6.404958e-001	5.608618e-002	-8.688806e-002	-7.061830e-001	7.200038e-002	1.519519e-001	-1.846512e-001	-3.155407e-002
	-9.293100e-002	-7.054699e-001	-6.375356e-001	5.722986e-002	-1.848452e-001	-3.179769e-002	8.434343e-002	1.677459e-001
1212590000	8.032811e-002	1.398565e-001	-1.925587e-001	-3.132246e-002	-6.406987e-001	6.376966e-002	-1.011194e-001	-7.043183e-001
	-1.922419e-001	-3.097411e-002	7.463516e-002	1.605262e-001	-9.493171e-002	-7.044908e-001	-6.360375e-001	6.486334e-002
	-6.400310e-001	6.372397e-002	-9.501001e-002	-7.049070e-001	7.348602e-002	1.511207e-001	-1.846429e-001	-2.917925e-002
	-1.010734e-001	-7.040926e-001	-6.369483e-001	6.482098e-002	-1.848928e-001	-2.936395e-002	8.576993e-002	1.670339e-001
1217580000	8.156157e-002	1.386965e-001	-1.928291e-001	-2.858545e-002	-6.401370e-001	7.147885e-002	-1.092940e-001	-7.027947e-001
	-1.927771e-001	-2.813425e-002	7.636479e-002	1.597697e-001	-1.030723e-001	-7.031184e-001	-6.353961e-001	7.247565e-002
	-6.394885e-001	7.145686e-002	-1.031730e-001	-7.034796e-001	7.500250e-002	1.503125e-001	-1.848281e-001	-2.673234e-002
	-1.091533e-001	-7.026065e-001	-6.363032e-001	7.245814e-002	-1.849027e-001	-2.683402e-002	8.724710e-002	1.663388e-001
1222570000	8.275817e-002	1.375225e-001	-1.932834e-001	-2.584534e-002	-6.395151e-001	7.923520e-002	-1.174399e-001	-7.012088e-001
	-1.931609e-001	-2.540085e-002	7.800175e-002	1.589715e-001	-1.111767e-001	-7.015508e-001	-6.347164e-001	8.015827e-002
	-6.388741e-001	7.923012e-002	-1.113527e-001	-7.019195e-001	7.655583e-002	1.496390e-001	-1.849979e-001	-2.420948e-002
	-1.173508e-001	-7.010099e-001	-6.355929e-001	8.013379e-002	-1.852160e-001	-2.431422e-002	8.870320e-002	1.656486e-001
1227560000	8.413596e-002	1.364633e-001	-1.936458e-001	-2.321849e-002	-6.387853e-001	8.701555e-002	-1.255556e-001	-6.994423e-001
	-1.935140e-001	-2.269248e-002	7.956723e-002	1.582167e-001	-1.192815e-001	-6.999730e-001	-6.339593e-001	8.782879e-002
	-6.381631e-001	8.699372e-002	-1.195567e-001	-7.003066e-001	7.796544e-002	1.488368e-001	-1.853286e-001	-2.159347e-002
	-1.255097e-001	-6.993265e-001	-6.348387e-001	8.787639e-002	-1.854122e-001	-2.162885e-002	9.015809e-002	1.650420e-001
1232550000	8.531740e-002	1.355967e-001	-1.940921e-001	-2.051245e-002	-6.379849e-001	9.480553e-002	-1.337145e-001	-6.976277e-001
	-1.939105e-001	-2.014130e-002	8.121138e-002	1.573535e-001	-1.273872e-001	-6.982043e-001	-6.331415e-001	9.557554e-002
	-6.374017e-001	9.478323e-002	-1.276839e-001	-6.985595e-001	7.921445e-002	1.481218e-001	-1.854989e-001	-1.904331e-002
	-1.336920e-001	-6.974872e-001	-6.340227e-001	9.556701e-002	-1.856759e-001	-1.900376e-002	9.150749e-002	1.643728e-001
1237540000	8.647490e-002	1.345658e-001	-1.945191e-001	-1.784885e-002	-6.371602e-001	1.025184e-001	-1.418053e-001	-6.958094e-001
	-1.942601e-001	-1.743538e-002	8.280867e-002	1.566342e-001	-1.355084e-001	-6.964024e-001	-6.322538e-001	1.031921e-001
	-6.365620e-001	1.025326e-001	-1.358129e-001	-6.967176e-001	8.050606e-002	1.472313e-001	-1.855580e-001	-1.658237e-002
	-1.418113e-001	-6.956024e-001	-6.331343e-001	1.032624e-001	-1.857567e-001	-1.665841e-002	9.289972e-002	1.636851e-001
1242530000	8.757804e-002	1.336787e-001	-1.946410e-001	-1.512122e-002	-6.362202e-001	1.102075e-001	-1.498366e-001	-6.938256e-001
	-1.943784e-001	-1.476299e-002	8.436751e-002	1.558136e-001	-1.435103e-001	-6.945545e-001	-6.313261e-001	1.107790e-001
	-6.356370e-001	1.102326e-001	-1.437810e-001	-6.948956e-001	8.180522e-002	1.464695e-001	-1.857359e-001	-1.421340e-002
	-1.498506e-001	-6.936901e-001	-6.321712e-001	1.108532e-001	-1.857062e-001	-1.421925e-002	9.414943e-002	1.629255e-001
1247520000	8.854715e-002	1.328010e-001	-1.947642e-001	-1.253701e-002	-6.352655e-001	1.178718e-001	-1.577594e-001	-6.919199e-001
	-1.944745e-001	-1.207223e-002	8.594651e-002	1.549617e-001	-1.515015e-001	-6.926910e-001	-6.303473e-001	1.183104e-001
	-6.346847e-001	1.178581e-001	-1.517644e-001	-6.929664e-001	8.284647e-002	1.455236e-001	-1.854543e-001	-1.172215e-002
	-1.577768e-001	-6.917009e-001	-6.311268e-001	1.184176e-001	-1.855729e-001	-1.187895e-002	9.542265e-002	1.620880e-001
1252510000	8.950569e-002	1.317762e-001	-1.947322e-001	-9.838150e-003	-6.341958e-001	1.254202e-001	-1.655576e-001	-6.898543e-001
	-1.944143e-001	-9.622679e-003	8.741060e-002	1.541218e-001	-1.592980e-001	-6.906944e-001	-6.292832e-001	1.257564e-001
	-6.336278e-001	1.254634e-001	-1.595836e-001	-6.910231e-001	8.419738e-002	1.445642e-001	-1.854209e-001	-9.372045e-003
	-1.656536e-001	-6.896593e-001	-6.300251e-001	1.258780e-001	-1.854197e-001	-9.436493e-003	9.676737e-002	1.613822e-001
1257500000	9.053711e-002	1.308316e-001	-1.946229e-001	-7.009073e-003	-6.330569e-001	1.330279e-001	-1.734621e-001	-6.876697e-001
	-1.942501e-001	-6.794099e-003	8.914295e-002	1.532387e-001	-1.671984e-001	-6.886018e-001	-6.280632e-001	1.332642e-001
	-6.324708e-001	1.330632e-001	-1.674567e-001	-6.889110e-001	8.541777e-002	1.435944e-001	-1.850907e-001	-7.044247e-003
	-1.735424e-001	-6.875031e-001	-6.287934e-001	1.333184e-001	-1.851197e-001	-7.068954e-003	9.797920e-002	1.605314e-001
1262490000	9.137645e-002	1.298200e-001	-1.943860e-001	-4.274178e-003	-6.317903e-001	1.407387e-001	-1.813349e-001	-6.854275e-001
	-1.939736e-001	-3.840350e-003	9.062459e-002	1.522895e-001	-1.751534e-001	-6.863451e-001	-6.267458e-001	1.408572e-001
	-6.311430e-001	1.407568e-001	-1.753607e-001	-6.866777e-001	8.670321e-002	1.425863e-001	-1.847550e-001	-4.489262e-003
	-1.814045e-001	-6.851923e-001	-6.274931e-001	1.409282e-001	-1.848332e-001	-4.530780e-003	9.922285e-002	1.597289e-001
1267480000	9.243044e-002	1.288334e-001	-1.941842e-001	-1.383250e-003	-6.303696e-001	1.484868e-001	-1.893181e-001	-6.830263e-001
	-1.936366e-001	-1.059250e-003	9.220752e-002	1.514922e-001	-1.830980e-001	-6.840098e-001	-6.253265e-001	1.485102e-001
	-6.297711e-001	1.484924e-001	-1.832788e-001	-6.843196e-001	8.804759e-002	1.415062e-001	-1.843398e-001	-1.980550e-003
	-1.893900e-001	-6.828452e-001	-6.260185e-001	1.485603e-001	-1.844430e-001	-1.943641e-003	1.005770e-001	1.590001e-001
1272470000	9.316868e-002	1.278445e-001	-1.939389e-001	1.338084e-003	-6.288289e-001	1.563358e-001	-1.972306e-001	-6.805015e-001
	-1.935217e-001	1.713285e-003	9.376229e-002	1.506165e-001	-1.911180e-001	-6.814533e-001	-6.237189e-001	1.561791e-001
	-6.282497e-001	1.563530e-001	-1.912736e-001	-6.817949e-001	8.935039e-002	1.404650e-001	-1.841476e-001	6.415783e-004
	-1.973343e-001	-6.802494e-001	-6.244345e-001	1.562284e-001	-1.842281e-001	5.099285e-004	1.018526e-001	1.582429e-001
1277460000	9.403299e-002	1.267214e-001	-1.935968e-001	4.117092e-003	-6.272178e-001	1.641233e-001	-2.052417e-001	-6.778022e-001
	-1.932349e-001	4.487601e-003	9.526305e-002	1.498042e-001	-1.991392e-001	-6.788169e-001	-6.220890e-001	1.638118e-001
	-6.266639e-001	1.641252e-001	-1.992155e-001	-6.792306e-001	9.082205e-002	1.395247e-001	-1.837604e-001	2.944405e-003
	-2.053098e-001	-6.775583e-001	-6.227837e-001	1.638722e-001	-1.839708e-001	2.933540e-003	1.030753e-001	1.574666e-001
1282450000	9.482759e-002	1.256474e-001	-1.933313e-001	6.667492e-003	-6.255938e-001	1.719137e-001	-2.132056e-001	-6.749957e-001
	-1.927464e-001	7.050515e-003	9.685105e-002	1.488053e-001	-2.071634e-001	-6.760994e-001	-6.203519e-001	1.714156e-001
	-6.249373e-001	1.718758e-001	-2.071461e-001	-6.764675e-001	9.219579e-002	1.383253e-001	-1.835005e-001	5.116023e-003
	-2.132973e-001	-6.748162e-001	-6.210852e-001	1.714621e-001	-1.835822e-001	5.174440e-003	1.043188e-001	1.566808e-001
1287440000	9.562866e-002	1.244344e-001	-1.929440e-001	9.074935e-003	-6.237807e-001	1.796239e-001	-2.211221e-001	-6.722428e-001
	-1.925958e-001	9.551023e-003	9.848531e-002	1.479392e-001	-2.151358e-001	-6.732737e-001	-6.185629e-001	1.790266e-001
	-6.232255e-001	1.795567e-001	-2.150825e-001	-6.736968e-001	9.354127e-002	1.373306e-001	-1.829887e-001	7.356067e-003
	-2.211754e-001	-6.718958e-001	-6.192694e-001	1.790464e-001	-1.831499e-001	7.329640e-003	1.053658e-001	1.559268e-001
1292430000	9.641120e-002	1.233506e-001	-1.925542e-001	1.135528e-002	-6.219247e-001	1.872497e-001	-2.289136e-001	-6.692680e-001
	-1.920516e-001	1.188954e-002	1.000380e-001	1.468973e-001	-2.230468e-001	-6.703503e-001	-6.167148e-001	1.864986e-001
	-6.213732e-001	1.872419e-001	-2.229426e-001	-6.707380e-001	9.492624e-002	1.362097e-001	-1.824510e-001	9.641629e-003
	-2.290865e-001	-6.689577e-001	-6.173811e-001	1.865380e-001	-1.826431e-001	9.249242e-003	1.065712e-001	1.548946e-001
1297420000	9.720343e-002	1.222500e-001	-1.921554e-001	1.358455e-002	-6.200145e-001	1.947767e-001	-2.366979e-001	-6.662178e-001
	-1.918047e-001	1.418642e-002	1.016224e-001	1.458405e-001	-2.307952e-001	-6.673239e-001	-6.147811e-001	1.939186e-001
	-6.194354e-001	1.947499e-001	-2.307241e-001	-6.677341e-001	9.628137e-002	1.352080e-001	-1.820927e-001	1.167815e-002
	-2.368685e-001	-6.658930e-001	-6.154517e-001	1.938867e-001	-1.822893e-001	1.136000e-002	1.075702e-001	1.540839e-001
1302410000	9.812535e-002	1.210587e-001	-1.915351e-001	1.588308e-002	-6.180259e-001	2.022225e-001	-2.443675e-001	-6.631043e-001
	-1.912062e-001	1.648311e-002	1.032558e-001	1.446663e-001	-2.384747e-001	-6.642590e-001	-6.128275e-001	2.011868e-001
	-6.174602e-001	2.022048e-001	-2.383660e-001	-6.646434e-001	9.780872e-002	1.341104e-001	-1.815497e-001	1.357705e-002
	-2.445087e-001	-6.627369e-001	-6.134614e-001	2.012443e-001	-1.816166e-001	1.334439e-002	1.087818e-001	1.530778e-001
1307400000	9.904879e-002	1.198364e-001	-1.909631e-001	1.825517e-002	-6.159038e-001	2.097636e-001	-2.520754e-001	-6.597698e-001
	-1.906673e-001	1.872326e-002	1.049701e-001	1.434176e-001	-2.460982e-001	-6.610739e-001	-6.107072e-001	2.085501e-001
	-6.153347e-001	2.096773e-001	-2.460135e-001	-6.614217e-001	9.918443e-002	1.329432e-001	-1.811276e-001	1.556977e-002
	-2.521920e-001	-6.594784e-001	-6.113858e-001	2.086104e-001	-1.811283e-001	1.542664e-002	1.099319e-001	1.520709e-001
1312390000	1.000121e-001	1.186600e-001	-1.904096e-001	2.062849e-002	-6.137044e-001	2.172973e-001	-2.596610e-001	-6.563839e-001
	-1.900878e-001	2.096849e-002	1.065929e-001	1.420950e-001	-2.537706e-001	-6.576705e-001	-6.085673e-001	2.159930e-001
	-6.131297e-001	2.172285e-001	-2.537272e-001	-6.580762e-001	1.007206e-001	1.318173e-001	-1.806617e-001	1.790524e-002
	-2.598570e-001	-6.560486e-001	-6.092431e-001	2.160893e-001	-1.807071e-001	1.763442e-002	1.111796e-001	1.509475e-001
1317380000	1.010938e-001	1.176726e-001	-1.899692e-001	2.316450e-002	-6.114441e-001	2.249393e-001	-2.673360e-001	-6.527982e-001
	-1.896007e-001	2.350742e-002	1.082648e-001	1.408078e-001	-2.613684e-001	-6.541240e-001	-6.062807e-001	2.234633e-001
	-6.108113e-001	2.248540e-001	-2.613424e-001	-6.545741e-001	1.021987e-001	1.306974e-001	-1.804570e-001	2.013240e-002
	-2.675032e-001	-6.524717e-001	-6.069823e-001	2.235888e-001	-1.804564e-001	1.986181e-002	1.124374e-001	1.498998e-001
1322370000	1.024713e-001	1.166766e-001	-1.895976e-001	2.566668e-002	-6.090313e-001	2.325509e-001	-2.749985e-001	-6.492083e-001
	-1.892131e-001	2.607959e-002	1.099262e-001	1.396890e-001	-2.689551e-001	-6.504933e-001	-6.039293e-001	2.310071e-001
	-6.084275e-001	2.324086e-001	-2.689962e-001	-6.508583e-001	1.037317e-001	1.296130e-001	-1.799147e-001	2.246498e-002
	-2.751196e-001	-6.487957e-001	-6.046160e-001	2.311794e-001	-1.800804e-001	2.226823e-002	1.136877e-001	1.486847e-001
1327360000	1.034493e-001	1.156979e-001	-1.891749e-001	2.825495e-002	-6.065594e-001	2.402328e-001	-2.825944e-001	-6.454067e-001
	-1.887393e-001	2.864079e-002	1.114725e-001	1.385551e-001	-2.765192e-001	-6.467406e-001	-6.014764e-001	2.385541e-001
	-6.059715e-001	2.401150e-001	-2.765781e-001	-6.471020e-001	1.049971e-001	1.286040e-001	-1.796053e-001	2.477409e-002
	-2.827311e-001	-6.450207e-001	-6.021980e-001	2.387554e-001	-1.799509e-001	2.476974e-002	1.149694e-001	1.475772e-001
1332350000	1.046392e-001	1.147995e-001	-1.887950e-001	3.077083e-002	-6.040694e-001	2.478687e-001	-2.902501e-001	-6.415424e-001
	-1.882908e-001	3.111863e-002	1.130750e-001	1.373947e-001	-2.840994e-001	-6.429461e-001	-5.989970e-001	2.460869e-001
	-6.034396e-001	2.477105e-001	-2.841455e-001	-6.433596e-001	1.063869e-001	1.275544e-001	-1.792064e-001	2.695635e-002
	-2.903149e-001	-6.411680e-001	-5.996904e-001	2.463352e-001	-1.796470e-001	2.695038e-002	1.160950e-001	1.464804e-001
1337340000	1.056826e-001	1.140927e-001	-1.883761e-001	3.324398e-002	-6.014543e-001	2.554730e-001	-2.977683e-001	-6.376825e-001
	-1.879459e-001	3.359328e-002	1.145361e-001	1.363437e-001	-2.915836e-001	-6.391082e-001	-5.964816e-001	2.535865e-001
	-6.008280e-001	2.553150e-001	-2.916213e-001	-6.394812e-001	1.075326e-001	1.265766e-001	-1.787751e-001	2.927004e-002
	-2.978147e-001	-6.372024e-001	-5.971342e-001	2.538471e-001	-1.790791e-001	2.913800e-002	1.173035e-001	1.453374e-001
1342330000	1.068570e-001	1.132588e-001	-1.876462e-001	3.584349e-002	-5.988012e-001	2.630033e-001	-3.051885e-001	-6.337082e-001
	-1.872557e-001	3.606233e-002	1.158952e-001	1.351193e-001	-2.989915e-001	-6.351782e-001	-5.938127e-001	2.610767e-001
	-5.982079e-001	2.628542e-001	-2.990233e-001	-6.356344e-001	1.086634e-001	1.254755e-001	-1.782818e-001	3.145976e-002
	-3.052188e-001	-6.332842e-001	-5.945540e-001	2.613594e-001	-1.785567e-001	3.134582e-002	1.184806e-001	1.443586e-001
1347320000	1.077382e-001	1.122927e-001	-1.870567e-001	3.818771e-002	-5.960565e-001	2.704749e-001	-3.125262e-001	-6.297273e-001
	-1.865536e-001	3.855240e-002	1.171826e-001	1.340267e-001	-3.063095e-001	-6.313119e-001	-5.911493e-001	2.684204e-001
	-5.954917e-001	2.703627e-001	-3.063760e-001	-6.316452e-001	1.098072e-001	1.244262e-001	-1.775900e-001	3.371988e-002
	-3.124950e-001	-6.292486e-001	-5.918505e-001	2.687644e-001	-1.777909e-001	3.350141e-002	1.197105e-001	1.432955e-001
1352310000	1.088017e-001	1.115570e-001	-1.860401e-001	4.066923e-002	-5.933168e-001	2.778510e-001	-3.196750e-001	-6.256329e-001
	-1.856950e-001	4.098567e-002	1.185165e-001	1.328513e-001	-3.134762e-001	-6.272965e-001	-5.884159e-001	2.757296e-001
	-5.926942e-001	2.776701e-001	-3.135282e-001	-6.277055e-001	1.108353e-001	1.232594e-001	-1.769234e-001	3.588435e-002
	-3.196364e-001	-6.252088e-001	-5.891175e-001	2.760111e-001	-1.771091e-001	3.572839e-002	1.208464e-001	1.422387e-001
1357300000	1.094549e-001	1.106018e-001	-1.851931e-001	4.316608e-002	-5.903905e-001	2.852721e-001	-3.268566e-001	-6.214251e-001
	-1.848245e-001	4.338435e-002	1.198410e-001	1.317700e-001	-3.206375e-001	-6.231458e-001	-5.855218e-001	2.830263e-001
	-5.897653e-001	2.851583e-001	-3.206838e-001	-6.235603e-001	1.119223e-001	1.221601e-001	-1.761806e-001	3.813246e-002
	-3.267956e-001	-6.209728e-001	-5.862382e-001	2.833254e-001	-1.762938e-001	3.793118e-002	1.221277e-001	1.411308e-001
1362290000	1.103176e-001	1.096924e-001	-1.843911e-001	4.569095e-002	-5.873411e-001	2.927591e-001	-3.340162e-001	-6.171618e-001
	-1.837057e-001	4.588765e-002	1.212345e-001	1.306091e-001	-3.277385e-001	-6.188904e-001	-5.825393e-001	2.903576e-001
	-5.867289e-001	2.926311e-001	-3.278770e-001	-6.192563e-001	1.129890e-001	1.209138e-001	-1.750297e-001	4.049094e-002
	-3.339594e-001	-6.166643e-001	-5.832181e-001	2.906615e-001	-1.754644e-001	4.043322e-002	1.233827e-001	1.399738e-001
1367280000	1.111682e-001	1.087598e-001	-1.834516e-001	4.820356e-002	-5.841146e-001	3.003207e-001	-3.411836e-001	-6.126907e-001
	-1.829263e-001	4.840660e-002	1.225676e-001	1.294265e-001	-3.349673e-001	-6.145046e-001	-5.793819e-001	2.977618e-001
	-5.835596e-001	3.001608e-001	-3.350383e-001	-6.148776e-001	1.139833e-001	1.197081e-001	-1.743065e-001	4.277991e-002
	-3.411039e-001	-6.121443e-001	-5.800779e-001	2.980501e-001	-1.746587e-001	4.261892e-002	1.247087e-001	1.388532e-001
1372270000	1.118638e-001	1.077628e-001	-1.822666e-001	5.054191e-002	-5.808005e-001	3.078637e-001	-3.483666e-001	-6.081586e-001
	-1.817949e-001	5.092417e-002	1.238778e-001	1.282451e-001	-3.421128e-001	-6.100383e-001	-5.761342e-001	3.052306e-001
	-5.802478e-001	3.076926e-001	-3.422395e-001	-6.104154e-001	1.150395e-001	1.183904e-001	-1.734018e-001	4.505947e-002
	-3.482109e-001	-6.076311e-001	-5.768053e-001	3.054873e-001	-1.735816e-001	4.486035e-002	1.259001e-001	1.376605e-001
1377260000	1.124860e-001	1.066678e-001	-1.813911e-001	5.282165e-002	-5.773973e-001	3.154264e-001	-3.554820e-001	-6.034779e-001
	-1.807404e-001	5.317290e-002	1.252652e-001	1.270255e-001	-3.492615e-001	-6.054585e-001	-5.727450e-001	3.125935e-001
	-5.768243e-001	3.152694e-001	-3.494060e-001	-6.057965e-001	1.160991e-001	1.170407e-001	-1.725828e-001	4.732928e-002
	-3.553702e-001	-6.030005e-001	-5.735073e-001	3.128429e-001	-1.726753e-001	4.715216e-002	1.271882e-001	1.364779e-001
1382250000	1.131401e-001	1.055050e-001	-1.803845e-001	5.512236e-002	-5.738998e-001	3.229290e-001	-3.625822e-001	-5.987317e-001
	-1.796657e-001	5.547134e-002	1.264449e-001	1.257749e-001	-3.564099e-001	-6.007602e-001	-5.693115e-001	3.199763e-001
	-5.733073e-001	3.227872e-001	-3.565623e-001	-6.011263e-001	1.171339e-001	1.156705e-001	-1.715662e-001	4.933916e-002
	-3.624535e-001	-5.982647e-001	-5.700145e-001	3.202416e-001	-1.717196e-001	4.915532e-002	1.283702e-001	1.352359e-001
1387240000	1.138285e-001	1.043264e-001	-1.793736e-001	5.717276e-002	-5.702945e-001	3.303617e-001	-3.696636e-001	-5.938889e-001
	-1.786576e-001	5.761774e-002	1.277513e-001	1.244961e-001	-3.635449e-001	-5.959367e-001	-5.657291e-001	3.272684e-001
	-5.696758e-001	3.302329e-001	-3.636824e-001	-5.962924e-001	1.181617e-001	1.143007e-001	-1.707114e-001	5.139436e-002
	-3.695496e-001	-5.934229e-001	-5.664577e-001	3.275106e-001	-1.709171e-001	5.098628e-002	1.295846e-001	1.339807e-001
1392230000	1.143840e-001	1.031278e-001	-1.782701e-001	5.913866e-002	-5.666001e-001	3.376915e-001	-3.766486e-001	-5.889456e-001
	-1.776090e-001	5.945179e-002	1.288830e-001	1.230358e-001	-3.705074e-001	-5.911128e-001	-5.621636e-001	3.344520e-001
	-5.659922e-001	3.375710e-001	-3.707279e-001	-5.914975e-001	1.192743e-001	1.127106e-001	-1.698704e-001	5.319294e-002
	-3.765875e-001	-5.884778e-001	-5.628783e-001	3.347300e-001	-1.698646e-001	5.295139e-002	1.307712e-001	1.325703e-001
1397220000	1.150823e-001	1.016983e-001	-1.771812e-001	6.094722e-002	-5.628658e-001	3.449611e-001	-3.835884e-001	-5.839809e-001
	-1.766476e-001	6.139129e-002	1.300826e-001	1.216058e-001	-3.774459e-001	-5.862270e-001	-5.584797e-001	3.415694e-001
	-5.622520e-001	3.448077e-001	-3.776546e-001	-5.865527e-001	1.202202e-001	1.113370e-001	-1.687493e-001	5.492168e-002
	-3.834380e-001	-5.834657e-001	-5.591761e-001	3.418169e-001	-1.687943e-001	5.477344e-002	1.318593e-001	1.312127e-001
1402210000	1.158063e-001	1.003926e-001	-1.759960e-001	6.290604e-002	-5.590389e-001	3.521117e-001	-3.902545e-001	-5.788814e-001
	-1.755904e-001	6.336472e-002	1.312680e-001	1.200079e-001	-3.841866e-001	-5.812327e-001	-5.548134e-001	3.485462e-001
	-5.584750e-001	3.519105e-001	-3.844141e-001	-5.815603e-001	1.212211e-001	1.098922e-001	-1.678288e-001	5.683375e-002
	-3.901483e-001	-5.784391e-001	-5.554907e-001	3.488379e-001	-1.678071e-001	5.648601e-002	1.329354e-001	1.297250e-001
1407200000	1.166412e-001	9.892108e-002	-1.749336e-001	6.469143e-002	-5.551018e-001	3.591888e-001	-3.970104e-001	-5.736410e-001
	-1.744944e-001	6.537733e-002	1.325659e-001	1.185019e-001	-3.909060e-001	-5.760359e-001	-5.509198e-001	3.555998e-001
	-5.545193e-001	3.590171e-001	-3.911637e-001	-5.763362e-001	1.224805e-001	1.084010e-001	-1.668645e-001	5.852091e-002
	-3.967997e-001	-5.732107e-001	-5.516250e-001	3.558293e-001	-1.668613e-001	5.824652e-002	1.340214e-001	1.282417e-001
1412190000	1.175323e-001	9.738535e-002	-1.738520e-001	6.673774e-002	-5.510496e-001	3.664145e-001	-4.036770e-001	-5.682354e-001
	-1.733601e-001	6.731932e-002	1.338784e-001	1.168198e-001	-3.976112e-001	-5.707173e-001	-5.468902e-001	3.626518e-001
	-5.504614e-001	3.661664e-001	-3.978471e-001	-5.710206e-001	1.236665e-001	1.067811e-001	-1.659215e-001	6.048570e-002
	-4.034737e-001	-5.678347e-001	-5.476809e-001	3.628912e-001	-1.658206e-001	6.024462e-002	1.351426e-001	1.266017e-001
1417180000	1.185775e-001	9.605046e-002	-1.727450e-001	6.883579e-002	-5.468115e-001	3.736170e-001	-4.102460e-001	-5.626319e-001
	-1.725278e-001	6.932962e-002	1.352841e-001	1.150999e-001	-4.042413e-001	-5.651785e-001	-5.428381e-001	3.697167e-001
	-5.462855e-001	3.732858e-001	-4.045056e-001	-5.655211e-001	1.249489e-001	1.053216e-001	-1.650323e-001	6.250316e-002
	-4.100831e-001	-5.622316e-001	-5.435696e-001	3.699324e-001	-1.649715e-001	6.241672e-002	1.364278e-001	1.250635e-001
1422170000	1.197177e-001	9.482524e-002	-1.718749e-001	7.102870e-002	-5.425405e-001	3.808477e-001	-4.168172e-001	-5.569505e-001
	-1.715193e-001	7.140838e-002	1.367289e-001	1.134232e-001	-4.108557e-001	-5.595892e-001	-5.386226e-001	3.768065e-001
	-5.419567e-001	3.804545e-001	-4.110956e-001	-5.599147e-001	1.261125e-001	1.038852e-001	-1.640096e-001	6.447511e-002
	-4.166309e-001	-5.565369e-001	-5.393964e-001	3.770025e-001	-1.639639e-001	6.435176e-002	1.376577e-001	1.234615e-001
1427160000	1.207581e-001	9.356326e-002	-1.708705e-001	7.304237e-002	-5.381611e-001	3.879686e-001	-4.233415e-001	-5.511760e-001
	-1.704278e-001	7.364339e-002	1.379965e-001	1.118658e-001	-4.173679e-001	-5.538588e-001	-5.343852e-001	3.839063e-001
	-5.375721e-001	3.876074e-001	-4.176578e-001	-5.541769e-001	1.275388e-001	1.023972e-001	-1.632313e-001	6.654865e-002
	-4.231000e-001	-5.507870e-001	-5.351147e-001	3.840946e-001	-1.631487e-001	6.640520e-002	1.388008e-001	1.218080e-001
1432150000	1.219714e-001	9.223447e-002	-1.699313e-001	7.517932e-002	-5.337618e-001	3.951397e-001	-4.297495e-001	-5.453246e-001
	-1.696491e-001	7.572789e-002	1.393290e-001	1.104024e-001	-4.238181e-001	-5.480485e-001	-5.300595e-001	3.909427e-001
	-5.331805e-001	3.947324e-001	-4.240673e-001	-5.483626e-001	1.287501e-001	1.009737e-001	-1.623416e-001	6.852473e-002
	-4.295260e-001	-5.449359e-001	-5.307336e-001	3.911687e-001	-1.624400e-001	6.849825e-002	1.400138e-001	1.201861e-001
1437140000	1.229735e-001	9.112154e-002	-1.689907e-001	7.740864e-002	-5.292717e-001	4.022629e-001	-4.360710e-001	-5.394109e-001
	-1.685472e-001	7.763478e-002	1.405466e-001	1.090083e-001	-4.301268e-001	-5.422584e-001	-5.256639e-001	3.979136e-001
	-5.286773e-001	4.018460e-001	-4.303606e-001	-5.425736e-001	1.299163e-001	9.958272e-002	-1.614629e-001	7.062353e-002
	-4.358945e-001	-5.390333e-001	-5.262989e-001	3.982192e-001	-1.614248e-001	7.062478e-002	1.414139e-001	1.186237e-001
1442130000	1.241197e-001	8.991147e-002	-1.679167e-001	7.946833e-002	-5.247134e-001	4.093005e-001	-4.422884e-001	-5.335140e-001
	-1.675147e-001	7.989014e-002	1.419179e-001	1.074031e-001	-4.364001e-001	-5.364484e-001	-5.212152e-001	4.048694e-001
	-5.241126e-001	4.087627e-001	-4.366460e-001	-5.367805e-001	1.309327e-001	9.814686e-002	-1.603568e-001	7.258489e-002
	-4.420749e-001	-5.331372e-001	-5.218515e-001	4.051077e-001	-1.603091e-001	7.261852e-002	1.426290e-001	1.171365e-001
1447120000	1.253007e-001	8.878546e-002	-1.666487e-001	8.154674e-002	-5.200991e-001	4.161723e-001	-4.483436e-001	-5.276177e-001
	-1.663848e-001	8.180290e-002	1.429473e-001	1.059674e-001	-4.424485e-001	-5.306392e-001	-5.167300e-001	4.117472e-001
	-5.195536e-001	4.156504e-001	-4.426915e-001	-5.309635e-001	1.319340e-001	9.684077e-002	-1.590819e-001	7.476154e-002
	-4.481198e-001	-5.272354e-001	-5.173516e-001	4.119666e-001	-1.591460e-001	7.464482e-002	1.437844e-001	1.153933e-001
1452110000	1.261759e-001	8.762285e-002	-1.653979e-001	8.347142e-002	-5.154842e-001	4.229453e-001	-4.542538e-001	-5.217042e-001
	-1.650844e-001	8.387400e-002	1.440458e-001	1.046109e-001	-4.484006e-001	-5.247981e-001	-5.122256e-001	4.185091e-001
	-5.149887e-001	4.224262e-001	-4.486347e-001	-5.251970e-001	1.328384e-001	9.538960e-002	-1.577724e-001	7.658710e-002
	-4.539900e-001	-5.213227e-001	-5.128443e-001	4.187053e-001	-1.579053e-001	7.666666e-002	1.449087e-001	1.137947e-001
1457100000	1.271133e-001	8.655016e-002	-1.640582e-001	8.560150e-002	-5.107451e-001	4.297220e-001	-4.600914e-001	-5.157637e-001
	-1.637737e-001	8.595097e-002	1.449662e-001	1.030951e-001	-4.543712e-001	-5.188467e-001	-5.075743e-001	4.252319e-001
	-5.101867e-001	4.292039e-001	-4.545419e-001	-5.192617e-001	1.337218e-001	9.384476e-002	-1.563269e-001	7.874810e-002
	-4.598474e-001	-5.153092e-001	-5.081939e-001	4.254762e-001	-1.566081e-001	7.854937e-002	1.461748e-001	1.121540e-001
1462090000	1.279831e-001	8.526031e-002	-1.626725e-001	8.784474e-002	-5.058550e-001	4.365050e-001	-4.659491e-001	-5.095954e-001
	-1.623060e-001	8.785755e-002	1.459171e-001	1.016208e-001	-4.602889e-001	-5.127516e-001	-5.027652e-001	4.320470e-001
	-5.053458e-001	4.359996e-001	-4.604192e-001	-5.132117e-001	1.345147e-001	9.244357e-002	-1.550033e-001	8.074426e-002
	-4.657451e-001	-5.091602e-001	-5.033729e-001	4.322211e-001	-1.552302e-001	8.055327e-002	1.474348e-001	1.105161e-001
1467080000	1.287346e-001	8.406380e-002	-1.611764e-001	8.975369e-002	-5.008650e-001	4.433697e-001	-4.717999e-001	-5.034054e-001
	-1.608481e-001	9.003437e-002	1.469254e-001	1.002423e-001	-4.661909e-001	-5.065816e-001	-4.977792e-001	4.388011e-001
	-5.002607e-001	4.428609e-001	-4.663777e-001	-5.070661e-001	1.353898e-001	9.093540e-002	-1.535848e-001	8.268659e-002
	-4.715544e-001	-5.029210e-001	-4.983977e-001	4.390208e-001	-1.538529e-001	8.252335e-002	1.487001e-001	1.088876e-001
1472070000	1.294037e-001	8.274331e-002	-1.598167e-001	9.191640e-002	-4.956779e-001	4.502053e-001	-4.776316e-001	-4.970283e-001
	-1.594483e-001	9.213022e-002	1.477779e-001	9.878041e-002	-4.720361e-001	-5.002937e-001	-4.926808e-001	4.455596e-001
	-4.951088e-001	4.497106e-001	-4.721781e-001	-5.007425e-001	1.362600e-001	8.949412e-002	-1.521076e-001	8.470472e-002
	-4.773739e-001	-4.965426e-001	-4.932947e-001	4.458112e-001	-1.523236e-001	8.439662e-002	1.499758e-001	1.072334e-001
1477060000	1.299755e-001	8.124652e-002	-1.584055e-001	9.379351e-002	-4.903990e-001	4.569719e-001	-4.834034e-001	-4.905611e-001
	-1.579343e-001	9.402561e-002	1.486073e-001	9.725651e-002	-4.778080e-001	-4.938797e-001	-4.874768e-001	4.523400e-001
	-4.898828e-001	4.564258e-001	-4.779731e-001	-4.943141e-001	1.370650e-001	8.779672e-002	-1.507734e-001	8.649329e-002
	-4.831074e-001	-4.900527e-001	-4.880913e-001	4.525580e-001	-1.510422e-001	8.639902e-002	1.512506e-001	1.054877e-001
1482050000	1.305483e-001	7.983817e-002	-1.568777e-001	9.563837e-002	-4.849994e-001	4.636266e-001	-4.890888e-001	-4.839915e-001
	-1.564549e-001	9.602915e-002	1.494609e-001	9.557873e-002	-4.835745e-001	-4.873511e-001	-4.821696e-001	4.589592e-001
	-4.845454e-001	4.631436e-001	-4.837077e-001	-4.878062e-001	1.379018e-001	8.624497e-002	-1.492785e-001	8.821366e-002
	-4.887947e-001	-4.834774e-001	-4.827742e-001	4.592104e-001	-1.495734e-001	8.812034e-002	1.524025e-001	1.037398e-001
1487040000	1.308387e-001	7.840894e-002	-1.555391e-001	9.728664e-002	-4.795480e-001	4.702480e-001	-4.947148e-001	-4.773608e-001
	-1.550956e-001	9.762253e-002	1.502173e-001	9.409946e-002	-4.892784e-001	-4.806988e-001	-4.767631e-001	4.654778e-001
	-4.790383e-001	4.697866e-001	-4.894018e-001	-4.812158e-001	1.386522e-001	8.466329e-002	-1.479121e-001	8.986742e-002
	-4.944540e-001	-4.768486e-001	-4.773770e-001	4.657703e-001	-1.482763e-001	8.963152e-002	1.537492e-001	1.021198e-001
1492030000	1.313624e-001	7.672540e-002	-1.541412e-001	9.896579e-002	-4.740850e-001	4.767861e-001	-5.001978e-001	-4.706697e-001
	-1.536153e-001	9.914043e-002	1.510262e-001	9.246515e-002	-4.947970e-001	-4.740631e-001	-4.713588e-001	4.719337e-001
	-4.735730e-001	4.762686e-001	-4.949786e-001	-4.745549e-001	1.395520e-001	8.284449e-002	-1.465774e-001	9.145882e-002
	-4.999472e-001	-4.701412e-001	-4.719416e-001	4.721840e-001	-1.468072e-001	9.124487e-002	1.549159e-001	1.004563e-001
1497020000	1.317448e-001	7.501280e-002	-1.526895e-001	1.003403e-001	-4.685289e-001	4.831961e-001	-5.055784e-001	-4.639544e-001
	-1.523944e-001	1.007337e-001	1.517838e-001	9.077208e-002	-5.002425e-001	-4.673948e-001	-4.659038e-001	4.781960e-001
	-4.680442e-001	4.826604e-001	-5.004266e-001	-4.678523e-001	1.402938e-001	8.103985e-002	-1.452782e-001	9.277739e-002
	-5.052887e-001	-4.633754e-001	-4.664853e-001	4.785762e-001	-1.453809e-001	9.267511e-002	1.559361e-001	9.853840e-002
1502010000	1.321429e-001	7.344057e-002	-1.513545e-001	1.016917e-001	-4.629612e-001	4.894414e-001	-5.108086e-001	-4.571696e-001
	-1.509300e-001	1.020269e-001	1.524705e-001	8.891153e-002	-5.055435e-001	-4.605947e-001	-4.604538e-001	4.844102e-001
	-4.624592e-001	4.889523e-001	-5.057199e-001	-4.610849e-001	1.411081e-001	7.918778e-002	-1.439743e-001	9.416076e-002
	-5.105268e-001	-4.566161e-001	-4.610143e-001	4.847530e-001	-1.441202e-001	9.382364e-002	1.571193e-001	9.677217e-002
1507000000	1.326628e-001	7.161275e-002	-1.499225e-001	1.033185e-001	-4.572700e-001	4.957127e-001	-5.159046e-001	-4.502444e-001
	-1.496246e-001	1.036010e-001	1.535064e-001	8.692334e-002	-5.107252e-001	-4.537353e-001	-4.548291e-001	4.905657e-001
	-4.567555e-001	4.951940e-001	-5.108657e-001	-4.542367e-001	1.420617e-001	7.719513e-002	-1.426033e-001	9.554927e-002
	-5.156502e-001	-4.497146e-001	-4.554373e-001	4.908953e-001	-1.427015e-001	9.531330e-002	1.583152e-001	9.486097e-002
1511990000	1.334077e-001	6.981421e-002	-1.487399e-001	1.049364e-001	-4.514147e-001	5.019836e-001	-5.210135e-001	-4.431832e-001
	-1.482788e-001	1.051538e-001	1.545300e-001	8.496168e-002	-5.158067e-001	-4.466859e-001	-4.490628e-001	4.967554e-001
	-4.508970e-001	5.014396e-001	-5.159403e-001	-4.471310e-001	1.431444e-001	7.517042e-002	-1.412795e-001	9.689236e-002
	-5.207581e-001	-4.426231e-001	-4.496301e-001	4.971034e-001	-1.412915e-001	9.680430e-002	1.593548e-001	9.288704e-002
1516980000	1.341229e-001	6.803439e-002	-1.473068e-001	1.066796e-001	-4.454259e-001	5.082864e-001	-5.259752e-001	-4.359652e-001
	-1.470296e-001	1.067529e-001	1.556411e-001	8.284985e-002	-5.208750e-001	-4.395083e-001	-4.431450e-001	5.029229e-001
	-4.449150e-001	5.077079e-001	-5.209788e-001	-4.399512e-001	1.441023e-001	7.318785e-002	-1.399109e-001	9.853014e-002
	-5.256908e-001	-4.354439e-001	-4.437430e-001	5.032616e-001	-1.400095e-001	9.835532e-002	1.605840e-001	9.092014e-002
1521970000	1.348881e-001	6.625594e-002	-1.461050e-001	1.082727e-001	-4.393544e-001	5.145600e-001	-5.309479e-001	-4.286447e-001
	-1.456460e-001	1.085507e-001	1.567150e-001	8.083138e-002	-5.258002e-001	-4.322583e-001	-4.371815e-001	5.090672e-001
	-4.388240e-001	5.139864e-001	-5.259470e-001	-4.326584e-001	1.453650e-001	7.112341e-002	-1.387359e-001	1.000729e-001
	-5.305684e-001	-4.281378e-001	-4.377048e-001	5.094327e-001	-1.388415e-001	1.000462e-001	1.618026e-001	8.892406e-002
1526960000	1.357531e-001	6.453783e-002	-1.448375e-001	1.102539e-001	-4.331199e-001	5.207925e-001	-5.357526e-001	-4.213195e-001
	-1.444743e-001	1.103668e-001	1.579000e-001	7.867680e-002	-5.306972e-001	-4.249138e-001	-4.310991e-001	5.152533e-001
	-4.326369e-001	5.201774e-001	-5.308096e-001	-4.253026e-001	1.464768e-001	6.916006e-002	-1.374693e-001	1.015574e-001
	-5.354114e-001	-4.207475e-001	-4.316297e-001	5.155748e-001	-1.374875e-001	1.015488e-001	1.628947e-001	8.687883e-002
1531950000	1.366563e-001	6.289829e-002	-1.435999e-001	1.119490e-001	-4.268680e-001	5.269969e-001	-5.404819e-001	-4.138836e-001
	-1.431907e-001	1.122462e-001	1.589674e-001	7.649688e-002	-5.354986e-001	-4.174941e-001	-4.249190e-001	5.213053e-001
	-4.263516e-001	5.263761e-001	-5.356321e-001	-4.178939e-001	1.476038e-001	6.734990e-002	-1.360637e-001	1.030814e-001
	-5.400707e-001	-4.133331e-001	-4.254754e-001	5.216279e-001	-1.361917e-001	1.031499e-001	1.641327e-001	8.508737e-002
1536940000	1.376413e-001	6.128908e-002	-1.422896e-001	1.138588e-001	-4.205322e-001	5.331042e-001	-5.450592e-001	-4.064996e-001
	-1.418400e-001	1.140709e-001	1.600110e-001	7.455938e-002	-5.401875e-001	-4.101673e-001	-4.186673e-001	5.273076e-001
	-4.200357e-001	5.324478e-001	-5.402953e-001	-4.104821e-001	1.488337e-001	6.545181e-002	-1.346315e-001	1.047620e-001
	-5.446447e-001	-4.059082e-001	-4.192071e-001	5.276942e-001	-1.347031e-001	1.047847e-001	1.653921e-001	8.323663e-002
1541930000	1.384175e-001	5.992060e-002	-1.409041e-001	1.157582e-001	-4.141152e-001	5.391007e-001	-5.495546e-001	-3.990547e-001
	-1.404747e-001	1.157511e-001	1.612212e-001	7.255329e-002	-5.447656e-001	-4.027716e-001	-4.124344e-001	5.333039e-001
	-4.136357e-001	5.384781e-001	-5.448073e-001	-4.030759e-001	1.498451e-001	6.373398e-002	-1.330935e-001	1.063821e-001
	-5.491438e-001	-3.984759e-001	-4.129312e-001	5.336364e-001	-1.331689e-001	1.062068e-001	1.664503e-001	8.136549e-002
1546920000	1.393610e-001	5.834240e-002	-1.393582e-001	1.173677e-001	-4.077389e-001	5.449853e-001	-5.539407e-001	-3.916604e-001
	-1.388195e-001	1.176258e-001	1.622473e-001	7.066248e-002	-5.491555e-001	-3.953913e-001	-4.061260e-001	5.390742e-001
	-4.072614e-001	5.443281e-001	-5.492013e-001	-3.956785e-001	1.508743e-001	6.188324e-002	-1.316552e-001	1.078543e-001
	-5.534784e-001	-3.911709e-001	-4.066252e-001	5.394918e-001	-1.316678e-001	1.078044e-001	1.676534e-001	7.954605e-002
1551910000	1.400412e-001	5.714997e-002	-1.378632e-001	1.191412e-001	-4.012679e-001	5.508305e-001	-5.581322e-001	-3.842921e-001
	-1.372312e-001	1.192630e-001	1.633577e-001	6.885077e-002	-5.533786e-001	-3.880618e-001	-3.997459e-001	5.448531e-001
	-4.008164e-001	5.501209e-001	-5.534267e-001	-3.883348e-001	1.517133e-001	6.010121e-002	-1.298942e-001	1.093189e-001
	-5.576587e-001	-3.837831e-001	-4.002598e-001	5.452334e-001	-1.300056e-001	1.092831e-001	1.687497e-001	7.786478e-002
1556900000	1.407083e-001	5.576503e-002	-1.361145e-001	1.207806e-001	-3.946689e-001	5.565215e-001	-5.622395e-001	-3.767878e-001
	-1.355179e-001	1.209028e-001	1.641440e-001	6.695374e-002	-5.575495e-001	-3.806231e-001	-3.933224e-001	5.505216e-001
	-3.942525e-001	5.558393e-001	-5.576199e-001	-3.808784e-001	1.527001e-001	5.842817e-002	-1.280890e-001	1.108340e-001
	-5.617997e-001	-3.762919e-001	-3.938186e-001	5.509425e-001	-1.283142e-001	1.107814e-001	1.697736e-001	7.596421e-002
1561890000	1.413582e-001	5.437881e-002	-1.343996e-001	1.226668e-001	-3.878721e-001	5.622051e-001	-5.663413e-001	-3.691569e-001
	-1.338088e-001	1.227218e-001	1.651373e-001	6.507652e-002	-5.616781e-001	-3.730282e-001	-3.866075e-001	5.562081e-001
	-3.874732e-001	5.615206e-001	-5.617272e-001	-3.733103e-001	1.534899e-001	5.660407e-002	-1.263258e-001	1.121778e-001
	-5.658151e-001	-3.687017e-001	-3.871428e-001	5.565776e-001	-1.265043e-001	1.120503e-001	1.707433e-001	7.426640e-002
1566880000	1.417934e-001	5.303865e-002	-1.325188e-001	1.241581e-001	-3.809270e-001	5.678551e-001	-5.703382e-001	-3.614002e-001
	-1.319650e-001	1.244134e-001	1.659749e-001	6.318012e-002	-5.657168e-001	-3.653281e-001	-3.798078e-001	5.618002e-001
	-3.805084e-001	5.671881e-001	-5.658359e-001	-3.656430e-001	1.542871e-001	5.482449e-002	-1.245509e-001	1.135700e-001
	-5.698333e-001	-3.610342e-001	-3.803645e-001	5.622186e-001	-1.248327e-001	1.134921e-001	1.717137e-001	7.250504e-002
1571870000	1.421770e-001	5.166530e-002	-1.307803e-001	1.256956e-001	-3.738210e-001	5.734472e-001	-5.742960e-001	-3.535781e-001
	-1.302337e-001	1.258645e-001	1.668382e-001	6.139068e-002	-5.697189e-001	-3.575703e-001	-3.728839e-001	5.673823e-001
	-3.734673e-001	5.727560e-001	-5.698738e-001	-3.578450e-001	1.551489e-001	5.322589e-002	-1.228102e-001	1.148411e-001
	-5.737934e-001	-3.531498e-001	-3.734238e-001	5.677891e-001	-1.230880e-001	1.148334e-001	1.728160e-001	7.061048e-002
1576860000	1.425444e-001	5.033259e-002	-1.290869e-001	1.273474e-001	-3.666392e-001	5.789203e-001	-5.781564e-001	-3.456339e-001
	-1.284874e-001	1.273607e-001	1.676414e-001	5.948022e-002	-5.736389e-001	-3.496841e-001	-3.658692e-001	5.728496e-001
	-3.662913e-001	5.782493e-001	-5.737797e-001	-3.499335e-001	1.558467e-001	5.131494e-002	-1.210117e-001	1.160990e-001
	-5.776731e-001	-3.452615e-001	-3.664516e-001	5.732480e-001	-1.211944e-001	1.160344e-001	1.738662e-001	6.875673e-002
1581850000	1.428766e-001	4.874423e-002	-1.272234e-001	1.288184e-001	-3.594260e-001	5.843808e-001	-5.818723e-001	-3.377120e-001
	-1.267804e-001	1.290183e-001	1.681911e-001	5.748021e-002	-5.774566e-001	-3.417465e-001	-3.587477e-001	5.782245e-001
	-3.590828e-001	5.836756e-001	-5.775811e-001	-3.420540e-001	1.565645e-001	4.954648e-002	-1.192325e-001	1.173108e-001
	-5.814007e-001	-3.373574e-001	-3.593840e-001	5.787035e-001	-1.195256e-001	1.171097e-001	1.747040e-001	6.694829e-002
1586840000	1.430393e-001	4.718741e-002	-1.254652e-001	1.301492e-001	-3.521369e-001	5.897110e-001	-5.855293e-001	-3.297324e-001
	-1.251316e-001	1.304432e-001	1.688090e-001	5.548683e-002	-5.812123e-001	-3.337998e-001	-3.516403e-001	5.835101e-001
	-3.518030e-001	5.890140e-001	-5.813529e-001	-3.341085e-001	1.571421e-001	4.777678e-002	-1.176124e-001	1.183847e-001
	-5.850370e-001	-3.293538e-001	-3.522106e-001	5.839843e-001	-1.178072e-001	1.181573e-001	1.756526e-001	6.521254e-002
1591830000	1.430993e-001	4.563992e-002	-1.236449e-001	1.314170e-001	-3.448197e-001	5.949268e-001	-5.890308e-001	-3.217483e-001
	-1.232715e-001	1.315527e-001	1.691668e-001	5.353840e-002	-5.847887e-001	-3.258361e-001	-3.444919e-001	5.887139e-001
	-3.444838e-001	5.942357e-001	-5.850122e-001	-3.261384e-001	1.575980e-001	4.580202e-002	-1.159034e-001	1.193850e-001
	-5.886634e-001	-3.213594e-001	-3.450514e-001	5.891744e-001	-1.162343e-001	1.192030e-001	1.762618e-001	6.321752e-002
1596820000	1.431107e-001	4.401468e-002	-1.219910e-001	1.326450e-001	-3.374955e-001	6.000390e-001	-5.924198e-001	-3.136965e-001
	-1.217314e-001	1.327904e-001	1.696567e-001	5.153215e-002	-5.882747e-001	-3.179001e-001	-3.372923e-001	5.936991e-001
	-3.371586e-001	5.992934e-001	-5.884474e-001	-3.181755e-001	1.579848e-001	4.384953e-002	-1.143466e-001	1.201486e-001
	-5.920401e-001	-3.133745e-001	-3.378647e-001	5.942164e-001	-1.144631e-001	1.200118e-001	1.770801e-001	6.144855e-002
1601810000	1.432296e-001	4.210413e-002	-1.203736e-001	1.336679e-001	-3.301616e-001	6.049809e-001	-5.956103e-001	-3.057398e-001
	-1.199684e-001	1.339994e-001	1.700890e-001	4.939085e-002	-5.915025e-001	-3.099154e-001	-3.301103e-001	5.985986e-001
	-3.298696e-001	6.042119e-001	-5.917092e-001	-3.101558e-001	1.584527e-001	4.182928e-002	-1.127317e-001	1.212136e-001
	-5.952002e-001	-3.054190e-001	-3.306189e-001	5.990839e-001	-1.128523e-001	1.209690e-001	1.777693e-001	5.939687e-002
1606800000	1.432200e-001	4.018948e-002	-1.186271e-001	1.348906e-001	-3.226836e-001	6.098250e-001	-5.987329e-001	-2.976424e-001
	-1.183836e-001	1.351024e-001	1.704881e-001	4.700336e-002	-5.945785e-001	-3.018323e-001	-3.227870e-001	6.034061e-001
	-3.224155e-001	6.090931e-001	-5.948396e-001	-3.020978e-001	1.590155e-001	3.958220e-002	-1.111813e-001	1.218223e-001
	-5.983273e-001	-2.972974e-001	-3.232840e-001	6.039300e-001	-1.113803e-001	1.219993e-001	1.783565e-001	5.740317e-002
1611790000	1.434965e-001	3.820739e-002	-1.170804e-001	1.360458e-001	-3.150418e-001	6.146231e-001	-6.016744e-001	-2.893291e-001
	-1.165873e-001	1.364235e-001	1.710182e-001	4.475895e-002	-5.976406e-001	-2.936070e-001	-3.152641e-001	6.081490e-001
	-3.147684e-001	6.139291e-001	-5.978860e-001	-2.938108e-001	1.593740e-001	3.744938e-002	-1.098200e-001	1.228746e-001
	-6.012778e-001	-2.890598e-001	-3.157528e-001	6.086900e-001	-1.098874e-001	1.228380e-001	1.791509e-001	5.538483e-002
1616780000	1.437368e-001	3.622240e-002	-1.152607e-001	1.373081e-001	-3.073145e-001	6.194531e-001	-6.045946e-001	-2.810378e-001
	-1.149477e-001	1.376599e-001	1.713678e-001	4.226532e-002	-6.005516e-001	-2.853268e-001	-3.076490e-001	6.129237e-001
	-3.069950e-001	6.186818e-001	-6.008336e-001	-2.855267e-001	1.598326e-001	3.510412e-002	-1.081767e-001	1.239742e-001
	-6.041461e-001	-2.806968e-001	-3.081437e-001	6.134056e-001	-1.082385e-001	1.239799e-001	1.797250e-001	5.320989e-002
1621770000	1.440872e-001	3.413705e-002	-1.137360e-001	1.388703e-001	-2.994024e-001	6.241370e-001	-6.073750e-001	-2.726113e-001
	-1.132283e-001	1.390221e-001	1.721536e-001	3.963176e-002	-6.033770e-001	-2.769274e-001	-2.999235e-001	6.175828e-001
	-2.991203e-001	6.233881e-001	-6.036200e-001	-2.770874e-001	1.604730e-001	3.280330e-002	-1.067370e-001	1.250585e-001
	-6.069523e-001	-2.723461e-001	-3.003739e-001	6.180163e-001	-1.067763e-001	1.248440e-001	1.804541e-001	5.096514e-002
1626760000	1.445626e-001	3.207964e-002	-1.119351e-001	1.401962e-001	-2.914436e-001	6.288016e-001	-6.100575e-001	-2.641647e-001
	-1.114873e-001	1.404137e-001	1.726986e-001	3.699833e-002	-6.060781e-001	-2.684714e-001	-2.921250e-001	6.221742e-001
	-2.911445e-001	6.279927e-001	-6.063722e-001	-2.686629e-001	1.609772e-001	3.048522e-002	-1.052184e-001	1.261974e-001
	-6.096347e-001	-2.638781e-001	-2.925618e-001	6.226418e-001	-1.053016e-001	1.260535e-001	1.811347e-001	4.875815e-002
1631750000	1.450382e-001	3.025285e-002	-1.103652e-001	1.415672e-001	-2.834245e-001	6.333277e-001	-6.126565e-001	-2.557462e-001
	-1.096333e-001	1.418891e-001	1.732218e-001	3.432533e-002	-6.087321e-001	-2.600211e-001	-2.842129e-001	6.267379e-001
	-2.830846e-001	6.325759e-001	-6.089926e-001	-2.601899e-001	1.617324e-001	2.816661e-002	-1.035358e-001	1.271882e-001
	-6.121535e-001	-2.554320e-001	-2.847051e-001	6.272137e-001	-1.038229e-001	1.271285e-001	1.817634e-001	4.660644e-002
1636740000	1.456811e-001	2.826084e-002	-1.085291e-001	1.427843e-001	-2.753315e-001	6.378010e-001	-6.151608e-001	-2.472797e-001
	-1.078843e-001	1.431629e-001	1.738964e-001	3.187761e-002	-6.111967e-001	-2.516181e-001	-2.762675e-001	6.312195e-001
	-2.750352e-001	6.370100e-001	-6.115289e-001	-2.517669e-001	1.622444e-001	2.597049e-002	-1.020081e-001	1.282089e-001
	-6.147005e-001	-2.469850e-001	-2.767068e-001	6.316410e-001	-1.021994e-001	1.281939e-001	1.823640e-001	4.452212e-002
1641730000	1.462827e-001	2.650149e-002	-1.065652e-001	1.441180e-001	-2.672244e-001	6.421643e-001	-6.175687e-001	-2.388435e-001
	-1.059688e-001	1.444416e-001	1.744419e-001	2.929515e-002	-6.135618e-001	-2.431850e-001	-2.683215e-001	6.355768e-001
	-2.669412e-001	6.413532e-001	-6.138454e-001	-2.434070e-001	1.628799e-001	2.375632e-002	-1.004055e-001	1.291751e-001
	-6.170755e-001	-2.385563e-001	-2.687399e-001	6.360097e-001	-1.006053e-001	1.293553e-001	1.830651e-001	4.238849e-002
1646720000	1.468030e-001	2.492504e-002	-1.046586e-001	1.454807e-001	-2.590719e-001	6.463635e-001	-6.197457e-001	-2.304280e-001
	-1.042737e-001	1.456706e-001	1.748888e-001	2.675093e-002	-6.158014e-001	-2.348981e-001	-2.603544e-001	6.398498e-001
	-2.588231e-001	6.456533e-001	-6.160523e-001	-2.350741e-001	1.634950e-001	2.172495e-002	-9.885358e-002	1.302316e-001
	-6.192679e-001	-2.301669e-001	-2.607736e-001	6.403011e-001	-9.893687e-002	1.302403e-001	1.836543e-001	4.028169e-002
1651710000	1.474137e-001	2.319114e-002	-1.027776e-001	1.467345e-001	-2.509315e-001	6.504985e-001	-6.218022e-001	-2.221578e-001
	-1.022871e-001	1.469418e-001	1.753934e-001	2.431406e-002	-6.179327e-001	-2.266328e-001	-2.523577e-001	6.439316e-001
	-2.507373e-001	6.497414e-001	-6.181319e-001	-2.268248e-001	1.639832e-001	1.958088e-002	-9.712342e-002	1.313040e-001
	-6.213408e-001	-2.218359e-001	-2.528200e-001	6.443990e-001	-9.718504e-002	1.311689e-001	1.842838e-001	3.830513e-002
1656700000	1.478194e-001	2.176041e-002	-1.006840e-001	1.479616e-001	-2.426667e-001	6.545447e-001	-6.237819e-001	-2.137510e-001
	-1.001604e-001	1.480207e-001	1.758071e-001	2.183556e-002	-6.198976e-001	-2.183038e-001	-2.442659e-001	6.479701e-001
	-2.425339e-001	6.537792e-001	-6.201712e-001	-2.185503e-001	1.644662e-001	1.743696e-002	-9.518389e-002	1.321876e-001
	-6.233109e-001	-2.134208e-001	-2.447342e-001	6.484693e-001	-9.548998e-002	1.322268e-001	1.846746e-001	3.624513e-002
1661690000	1.481747e-001	2.025485e-002	-9.875489e-002	1.492319e-001	-2.341813e-001	6.585146e-001	-6.256627e-001	-2.052886e-001
	-9.808812e-002	1.494325e-001	1.762639e-001	1.950249e-002	-6.218801e-001	-2.098555e-001	-2.360224e-001	6.519439e-001
	-2.340738e-001	6.577231e-001	-6.220934e-001	-2.100874e-001	1.648624e-001	1.536529e-002	-9.351015e-002	1.331902e-001
	-6.251338e-001	-2.049526e-001	-2.364379e-001	6.523819e-001	-9.364593e-002	1.331444e-001	1.852080e-001	3.426773e-002
1666680000	1.486224e-001	1.878695e-002	-9.653352e-002	1.504163e-001	-2.256068e-001	6.623989e-001	-6.273683e-001	-1.967282e-001
	-9.589322e-002	1.504848e-001	1.764099e-001	1.709701e-002	-6.237157e-001	-2.013303e-001	-2.276122e-001	6.558573e-001
	-2.254991e-001	6.615870e-001	-6.238964e-001	-2.016249e-001	1.651978e-001	1.325182e-002	-9.168558e-002	1.341838e-001
	-6.269393e-001	-1.963842e-001	-2.280548e-001	6.563034e-001	-9.179986e-002	1.341017e-001	1.855739e-001	3.220276e-002
1671670000	1.488213e-001	1.723800e-002	-9.438074e-002	1.514935e-001	-2.168918e-001	6.661936e-001	-6.290486e-001	-1.880346e-001
	-9.393510e-002	1.516383e-001	1.766693e-001	1.476960e-002	-6.254701e-001	-1.927095e-001	-2.191414e-001	6.596399e-001
	-2.168139e-001	6.653323e-001	-6.256758e-001	-1.930688e-001	1.653760e-001	1.108390e-002	-8.990970e-002	1.350318e-001
	-6.285667e-001	-1.876859e-001	-2.194978e-001	6.600941e-001	-9.007920e-002	1.349168e-001	1.859436e-001	3.007959e-002
1676660000	1.490228e-001	1.573488e-002	-9.228296e-002	1.524893e-001	-2.080834e-001	6.698467e-001	-6.306398e-001	-1.793640e-001
	-9.168551e-002	1.526048e-001	1.768955e-001	1.245368e-002	-6.271765e-001	-1.840244e-001	-2.105485e-001	6.633491e-001
	-2.080236e-001	6.690015e-001	-6.273666e-001	-1.843927e-001	1.655251e-001	9.030315e-003	-8.813098e-002	1.357635e-001
	-6.301953e-001	-1.790802e-001	-2.109347e-001	6.637750e-001	-8.827288e-002	1.357617e-001	1.863137e-001	2.796120e-002
1681650000	1.489457e-001	1.405142e-002	-9.013840e-002	1.533846e-001	-1.992217e-001	6.734041e-001	-6.320991e-001	-1.706845e-001
	-8.956827e-002	1.535407e-001	1.769266e-001	1.018855e-002	-6.286897e-001	-1.753402e-001	-2.019006e-001	6.669432e-001
	-1.992406e-001	6.725745e-001	-6.289096e-001	-1.757307e-001	1.655944e-001	6.938833e-003	-8.626784e-002	1.364921e-001
	-6.316440e-001	-1.703966e-001	-2.022243e-001	6.673774e-001	-8.658181e-002	1.364965e-001	1.865407e-001	2.591736e-002
1686640000	1.488039e-001	1.230662e-002	-8.804969e-002	1.541692e-001	-1.903128e-001	6.768172e-001	-6.334720e-001	-1.620242e-001
	-8.732517e-002	1.545074e-001	1.768191e-001	7.903176e-003	-6.301947e-001	-1.666391e-001	-1.932298e-001	6.704578e-001
	-1.903847e-001	6.760344e-001	-6.304040e-001	-1.670568e-001	1.656033e-001	4.882661e-003	-8.452767e-002	1.372451e-001
	-6.330005e-001	-1.617111e-001	-1.935422e-001	6.708853e-001	-8.487664e-002	1.370568e-001	1.868164e-001	2.379279e-002
1691630000	1.485769e-001	1.071361e-002	-8.601107e-002	1.549514e-001	-1.814459e-001	6.801509e-001	-6.347179e-001	-1.532908e-001
	-8.538672e-002	1.552078e-001	1.766506e-001	5.608534e-003	-6.315371e-001	-1.580171e-001	-1.845015e-001	6.737864e-001
	-1.815380e-001	6.793237e-001	-6.317810e-001	-1.583959e-001	1.655113e-001	2.696699e-003	-8.299414e-002	1.378393e-001
	-6.342552e-001	-1.529812e-001	-1.848115e-001	6.742518e-001	-8.304180e-002	1.377351e-001	1.869017e-001	2.170064e-002
1696620000	1.484048e-001	8.846189e-003	-8.386976e-002	1.558142e-001	-1.726330e-001	6.833322e-001	-6.358139e-001	-1.446622e-001
	-8.340719e-002	1.559743e-001	1.763567e-001	3.279624e-003	-6.327755e-001	-1.493779e-001	-1.757920e-001	6.769552e-001
	-1.726459e-001	6.824285e-001	-6.329838e-001	-1.498094e-001	1.653666e-001	5.186116e-004	-8.126974e-002	1.383412e-001
	-6.353526e-001	-1.443751e-001	-1.761284e-001	6.774392e-001	-8.144022e-002	1.383332e-001	1.870500e-001	1.953502e-002
1701610000	1.480772e-001	6.932298e-003	-8.192139e-002	1.565590e-001	-1.637828e-001	6.863107e-001	-6.367701e-001	-1.360987e-001
	-8.130105e-002	1.566208e-001	1.759626e-001	9.965807e-004	-6.338076e-001	-1.407997e-001	-1.671112e-001	6.799694e-001
	-1.638277e-001	6.854158e-001	-6.340263e-001	-1.411950e-001	1.651408e-001	-1.593629e-003	-7.944247e-002	1.388698e-001
	-6.362607e-001	-1.358410e-001	-1.673984e-001	6.804675e-001	-7.975239e-002	1.388463e-001	1.869138e-001	1.728757e-002
1706600000	1.478646e-001	4.893307e-003	-7.989071e-002	1.573514e-001	-1.548015e-001	6.892025e-001	-6.375289e-001	-1.274166e-001
	-7.926290e-002	1.573727e-001	1.756146e-001	-1.412844e-003	-6.347017e-001	-1.321566e-001	-1.582899e-001	6.828911e-001
	-1.548642e-001	6.883278e-001	-6.349326e-001	-1.325180e-001	1.648288e-001	-3.846056e-003	-7.788683e-002	1.395186e-001
	-6.370661e-001	-1.271736e-001	-1.585846e-001	6.833676e-001	-7.797776e-002	1.394848e-001	1.868432e-001	1.491256e-002
1711590000	1.476143e-001	2.780186e-003	-7.779982e-002	1.580416e-001	-1.457025e-001	6.919863e-001	-6.382252e-001	-1.186555e-001
	-7.727014e-002	1.580689e-001	1.750372e-001	-4.016154e-003	-6.354626e-001	-1.233213e-001	-1.493026e-001	6.856971e-001
	-1.457508e-001	6.910732e-001	-6.357407e-001	-1.237018e-001	1.645753e-001	-6.200530e-003	-7.617693e-002	1.400632e-001
	-6.377396e-001	-1.184000e-001	-1.496452e-001	6.861745e-001	-7.649185e-002	1.402446e-001	1.866535e-001	1.251791e-002
1716580000	1.473541e-001	5.964489e-004	-7.577484e-002	1.586848e-001	-1.364180e-001	6.946260e-001	-6.387984e-001	-1.097806e-001
	-7.518637e-002	1.587813e-001	1.746516e-001	-6.657102e-003	-6.360920e-001	-1.144136e-001	-1.402200e-001	6.883665e-001
	-1.365045e-001	6.937056e-001	-6.363890e-001	-1.147879e-001	1.643687e-001	-8.545806e-003	-7.462896e-002	1.406674e-001
	-6.382280e-001	-1.095311e-001	-1.405900e-001	6.888238e-001	-7.489490e-002	1.408166e-001	1.864453e-001	1.006694e-002
1721570000	1.473222e-001	-1.746701e-003	-7.367320e-002	1.595665e-001	-1.270954e-001	6.971857e-001	-6.391520e-001	-1.008184e-001
	-7.339204e-002	1.596374e-001	1.742000e-001	-9.304859e-003	-6.365982e-001	-1.054357e-001	-1.310367e-001	6.909558e-001
	-1.272046e-001	6.962375e-001	-6.368351e-001	-1.057678e-001	1.640977e-001	-1.090259e-002	-7.309243e-002	1.413000e-001
	-6.386147e-001	-1.005613e-001	-1.314424e-001	6.913977e-001	-7.327239e-002	1.414250e-001	1.863389e-001	7.563596e-003
1726560000	1.474222e-001	-4.038989e-003	-7.176728e-002	1.602617e-001	-1.177770e-001	6.995347e-001	-6.393964e-001	-9.190202e-002
	-7.151034e-002	1.604674e-001	1.738969e-001	-1.201526e-002	-6.369564e-001	-9.642842e-002	-1.218063e-001	6.934153e-001
	-1.178193e-001	6.986352e-001	-6.372446e-001	-9.676868e-002	1.639857e-001	-1.342908e-002	-7.139370e-002	1.419547e-001
	-6.388200e-001	-9.161781e-002	-1.222602e-001	6.938657e-001	-7.162721e-002	1.420858e-001	1.862628e-001	4.974952e-003
1731550000	1.475902e-001	-6.410473e-003	-6.979010e-002	1.609970e-001	-1.083261e-001	7.018416e-001	-6.394995e-001	-8.299827e-002
	-6.947936e-002	1.610576e-001	1.735436e-001	-1.476545e-002	-6.371746e-001	-8.743570e-002	-1.125735e-001	6.957591e-001
	-1.084618e-001	7.009342e-001	-6.374581e-001	-8.773444e-002	1.639068e-001	-1.574494e-002	-6.980608e-002	1.425872e-001
	-6.389747e-001	-8.278414e-002	-1.130635e-001	6.962118e-001	-7.025288e-002	1.427258e-001	1.862628e-001	2.409474e-003
1736540000	1.476903e-001	-8.698071e-003	-6.782930e-002	1.619251e-001	-9.892670e-002	7.040538e-001	-6.394814e-001	-7.414503e-002
	-6.757131e-002	1.618870e-001	1.734258e-001	-1.753707e-002	-6.373165e-001	-7.851063e-002	-1.033207e-001	6.980263e-001
	-9.905503e-002	7.031791e-001	-6.374980e-001	-7.882279e-002	1.638283e-001	-1.826441e-002	-6.820907e-002	1.433621e-001
	-6.389677e-001	-7.392965e-002	-1.038827e-001	6.984467e-001	-6.856535e-002	1.432670e-001	1.861985e-001	-2.533971e-004
1741530000	1.480369e-001	-1.091056e-002	-6.573136e-002	1.627104e-001	-8.955980e-002	7.061788e-001	-6.394151e-001	-6.549967e-002
	-6.558835e-002	1.625930e-001	1.732224e-001	-2.014909e-002	-6.372458e-001	-6.967746e-002	-9.413101e-002	7.002246e-001
	-8.964942e-002	7.052870e-001	-6.374374e-001	-6.999046e-002	1.637449e-001	-2.063333e-002	-6.652709e-002	1.439303e-001
	-6.388772e-001	-6.524859e-002	-9.466283e-002	7.006943e-001	-6.701294e-002	1.439556e-001	1.861650e-001	-2.802258e-003
1746520000	1.482360e-001	-1.304963e-002	-6.377890e-002	1.631688e-001	-8.012609e-002	7.081176e-001	-6.392450e-001	-5.684076e-002
	-6.350918e-002	1.632608e-001	1.730905e-001	-2.287387e-002	-6.370362e-001	-6.094248e-002	-8.494722e-002	7.023654e-001
	-8.030531e-002	7.073098e-001	-6.373157e-001	-6.125494e-002	1.637542e-001	-2.298192e-002	-6.493532e-002	1.444639e-001
	-6.386859e-001	-5.663546e-002	-8.546059e-002	7.028519e-001	-6.530802e-002	1.446196e-001	1.861062e-001	-5.445796e-003
1751510000	1.484751e-001	-1.512440e-002	-6.156353e-002	1.638533e-001	-7.074110e-002	7.099800e-001	-6.389542e-001	-4.838093e-002
	-6.140311e-002	1.637862e-001	1.729224e-001	-2.549496e-002	-6.367065e-001	-5.235244e-002	-7.576195e-002	7.044027e-001
	-7.099119e-002	7.091272e-001	-6.369373e-001	-5.272308e-002	1.636402e-001	-2.535393e-002	-6.319557e-002	1.452179e-001
	-6.384207e-001	-4.810596e-002	-7.629409e-002	7.048640e-001	-6.369351e-002	1.452645e-001	1.858379e-001	-7.996922e-003
1756500000	1.484532e-001	-1.713502e-002	-5.959285e-002	1.644918e-001	-6.124265e-002	7.116906e-001	-6.385865e-001	-3.971831e-002
	-5.918857e-002	1.643309e-001	1.727818e-001	-2.816053e-002	-6.362945e-001	-4.384873e-002	-6.639783e-002	7.062612e-001
	-6.149080e-002	7.109583e-001	-6.365104e-001	-4.415356e-002	1.634866e-001	-2.774050e-002	-6.159683e-002	1.457644e-001
	-6.380641e-001	-3.958937e-002	-6.695081e-002	7.067016e-001	-6.178616e-002	1.457567e-001	1.857073e-001	-1.045320e-002
1761490000	1.485133e-001	-1.895004e-002	-5.733807e-002	1.649569e-001	-5.163629e-002	7.132976e-001	-6.380963e-001	-3.100814e-002
	-5.705835e-002	1.649327e-001	1.723367e-001	-3.092022e-002	-6.358746e-001	-3.522357e-002	-5.690952e-002	7.080171e-001
	-5.185861e-002	7.124930e-001	-6.360983e-001	-3.551654e-002	1.631905e-001	-3.013417e-002	-5.981328e-002	1.463963e-001
	-6.375588e-001	-3.095938e-002	-5.743688e-002	7.084879e-001	-6.002938e-002	1.463391e-001	1.854378e-001	-1.297275e-002
1766480000	1.486479e-001	-2.093600e-002	-5.513102e-002	1.653541e-001	-4.192731e-002	7.147143e-001	-6.374969e-001	-2.230330e-002
	-5.484945e-002	1.653312e-001	1.718513e-001	-3.345916e-002	-6.352755e-001	-2.646468e-002	-4.728783e-002	7.095969e-001
	-4.223383e-002	7.139470e-001	-6.355537e-001	-2.681129e-002	1.628509e-001	-3.251512e-002	-5.788839e-002	1.469212e-001
	-6.369492e-001	-2.221725e-002	-4.786159e-002	7.101052e-001	-5.821764e-002	1.469335e-001	1.851075e-001	-1.527949e-002
1771470000	1.484059e-001	-2.264877e-002	-5.308598e-002	1.656762e-001	-3.208438e-002	7.160695e-001	-6.367544e-001	-1.350402e-002
	-5.277853e-002	1.658078e-001	1.715409e-001	-3.593971e-002	-6.346009e-001	-1.768252e-002	-3.761062e-002	7.111245e-001
	-3.240651e-002	7.152931e-001	-6.348408e-001	-1.799321e-002	1.625173e-001	-3.479764e-002	-5.604073e-002	1.473190e-001
	-6.361522e-001	-1.347479e-002	-3.813941e-002	7.115602e-001	-5.644560e-002	1.474978e-001	1.847715e-001	-1.776843e-002
1776460000	1.481873e-001	-2.446917e-002	-5.098016e-002	1.660589e-001	-2.219754e-002	7.172263e-001	-6.358967e-001	-4.688185e-003
	-5.053326e-002	1.661348e-001	1.709473e-001	-3.836003e-002	-6.337942e-001	-8.896697e-003	-2.788826e-002	7.123891e-001
	-2.258588e-002	7.164663e-001	-6.340361e-001	-9.192663e-003	1.621063e-001	-3.710682e-002	-5.437712e-002	1.479183e-001
	-6.353228e-001	-4.706151e-003	-2.835946e-002	7.128631e-001	-5.463822e-002	1.478544e-001	1.844815e-001	-2.019728e-002
1781450000	1.478127e-001	-2.621566e-002	-4.891350e-002	1.662669e-001	-1.231273e-002	7.182890e-001	-6.349293e-001	4.041143e-003
	-4.827752e-002	1.664270e-001	1.704200e-001	-4.070446e-002	-6.328440e-001	-1.170421e-004	-1.815063e-002	7.135464e-001
	-1.267746e-002	7.175461e-001	-6.331238e-001	-4.357940e-004	1.616588e-001	-3.934513e-002	-5.235640e-002	1.483359e-001
	-6.344113e-001	4.011850e-003	-1.857355e-002	7.140504e-001	-5.278911e-002	1.482957e-001	1.841429e-001	-2.251021e-002
1786440000	1.473267e-001	-2.788494e-002	-4.685529e-002	1.666390e-001	-2.401800e-003	7.191744e-001	-6.339264e-001	1.276366e-002
	-4.624553e-002	1.666583e-001	1.696739e-001	-4.310229e-002	-6.318450e-001	8.611131e-003	-8.316706e-003	7.146180e-001
	-2.756330e-003	7.184681e-001	-6.321148e-001	8.255789e-003	1.611503e-001	-4.149290e-002	-5.048626e-002	1.487520e-001
	-6.333837e-001	1.272724e-002	-8.763172e-003	7.151147e-001	-5.093423e-002	1.484864e-001	1.837222e-001	-2.482033e-002
1791430000	1.467430e-001	-2.955103e-002	-4.477266e-002	1.668091e-001	7.445397e-003	7.199901e-001	-6.327724e-001	2.146820e-002
	-4.434505e-002	1.668642e-001	1.688181e-001	-4.526049e-002	-6.306979e-001	1.721456e-002	1.432006e-003	7.154848e-001
	7.083205e-003	7.192415e-001	-6.310070e-001	1.687861e-002	1.605020e-001	-4.380164e-002	-4.892632e-002	1.490537e-001
	-6.322356e-001	2.140008e-002	1.015935e-003	7.160488e-001	-4.915192e-002	1.487942e-001	1.833594e-001	-2.703964e-002
1796420000	1.460179e-001	-3.147153e-002	-4.267818e-002	1.669277e-001	1.724811e-002	7.206813e-001	-6.314515e-001	3.003052e-002
	-4.235747e-002	1.671376e-001	1.677860e-001	-4.736688e-002	-6.294453e-001	2.579072e-002	1.114218e-002	7.162777e-001
	1.686829e-002	7.198496e-001	-6.297498e-001	2.549795e-002	1.598485e-001	-4.607663e-002	-4.702525e-002	1.493210e-001
	-6.308854e-001	2.992027e-002	1.071123e-002	7.168026e-001	-4.730431e-002	1.491723e-001	1.826381e-001	-2.942904e-002
1801410000	1.451997e-001	-3.328712e-002	-4.084020e-002	1.673354e-001	2.696330e-002	7.211862e-001	-6.300550e-001	3.850242e-002
	-4.034256e-002	1.673973e-001	1.667274e-001	-4.961125e-002	-6.280280e-001	3.430740e-002	2.077655e-002	7.167996e-001
	2.662452e-002	7.203272e-001	-6.283138e-001	3.393744e-002	1.590677e-001	-4.834877e-002	-4.532950e-002	1.495046e-001
	-6.294625e-001	3.841566e-002	2.036391e-002	7.173575e-001	-4.568978e-002	1.493931e-001	1.819256e-001	-3.168751e-002
1806400000	1.443506e-001	-3.538629e-002	-3.890719e-002	1.674278e-001	3.678678e-002	7.214702e-001	-6.284968e-001	4.701935e-002
	-3.838043e-002	1.674778e-001	1.655823e-001	-5.189688e-002	-6.264955e-001	4.277603e-002	3.050986e-002	7.172497e-001
	3.645740e-002	7.206569e-001	-6.267949e-001	4.240905e-002	1.581487e-001	-5.083228e-002	-4.359170e-002	1.498054e-001
	-6.279255e-001	4.693558e-002	3.011360e-002	7.177869e-001	-4.392100e-002	1.497011e-001	1.811314e-001	-3.407363e-002
1811390000	1.434422e-001	-3.741481e-002	-3.693508e-002	1.675681e-001	4.678831e-002	7.216836e-001	-6.267858e-001	5.557714e-002
	-3.649643e-002	1.677597e-001	1.643580e-001	-5.424597e-002	-6.248518e-001	5.129741e-002	4.035723e-002	7.175029e-001
	4.641001e-002	7.208364e-001	-6.251577e-001	5.100233e-002	1.572686e-001	-5.314688e-002	-4.196825e-002	1.500976e-001
	-6.262356e-001	5.549554e-002	3.996976e-002	7.180445e-001	-4.217925e-002	1.499672e-001	1.803073e-001	-3.648810e-002
1816380000	1.425520e-001	-3.979203e-002	-3.509001e-002	1.678737e-001	5.684814e-002	7.216841e-001	-6.249506e-001	6.421844e-002
	-3.456366e-002	1.680063e-001	1.630114e-001	-5.666619e-002	-6.230294e-001	5.988761e-002	5.026883e-002	7.176103e-001
	5.643516e-002	7.208893e-001	-6.233585e-001	5.961482e-002	1.564354e-001	-5.573467e-002	-4.033695e-002	1.503009e-001
	-6.243951e-001	6.408522e-002	4.989735e-002	7.182199e-001	-4.037911e-002	1.501853e-001	1.793912e-001	-3.910730e-002
1821370000	1.418745e-001	-4.198851e-002	-3.315944e-002	1.681389e-001	6.689330e-002	7.216181e-001	-6.229841e-001	7.282749e-002
	-3.283503e-002	1.682508e-001	1.617948e-001	-5.913271e-002	-6.211302e-001	6.853473e-002	6.019395e-002	7.175985e-001
	6.652279e-002	7.207774e-001	-6.214564e-001	6.826520e-002	1.554450e-001	-5.828714e-002	-3.865947e-002	1.504420e-001
	-6.224046e-001	7.276430e-002	5.987017e-002	7.181964e-001	-3.875281e-002	1.504318e-001	1.785085e-001	-4.163290e-002
1826360000	1.410249e-001	-4.441761e-002	-3.134184e-002	1.681420e-001	7.707361e-002	7.213129e-001	-6.209622e-001	8.146771e-002
	-3.086373e-002	1.685052e-001	1.606477e-001	-6.167678e-002	-6.191402e-001	7.719283e-002	7.020191e-002	7.174515e-001
	7.663233e-002	7.205147e-001	-6.194945e-001	7.694940e-002	1.544889e-001	-6.085224e-002	-3.694658e-002	1.505205e-001
	-6.203477e-001	8.140247e-002	6.986041e-002	7.180565e-001	-3.697493e-002	1.506243e-001	1.776169e-001	-4.436004e-002
1831350000	1.406290e-001	-4.677612e-002	-2.922848e-002	1.684729e-001	8.724413e-002	7.209514e-001	-6.188339e-001	9.007253e-002
	-2.888304e-002	1.687142e-001	1.594168e-001	-6.437520e-002	-6.170802e-001	8.579401e-002	8.027474e-002	7.172576e-001
	8.685268e-002	7.201262e-001	-6.173639e-001	8.553792e-002	1.536110e-001	-6.342051e-002	-3.531193e-002	1.505893e-001
	-6.181759e-001	8.995422e-002	7.992665e-002	7.178429e-001	-3.537386e-002	1.507600e-001	1.767143e-001	-4.708323e-002
1836340000	1.399823e-001	-4.907125e-002	-2.729662e-002	1.686206e-001	9.739006e-002	7.204866e-001	-6.165797e-001	9.855772e-002
	-2.700268e-002	1.688096e-001	1.582661e-001	-6.695108e-002	-6.148733e-001	9.433010e-002	9.030230e-002	7.169121e-001
	9.701009e-002	7.197205e-001	-6.151873e-001	9.410743e-002	1.526538e-001	-6.595994e-002	-3.349647e-002	1.508190e-001
	-6.159057e-001	9.847433e-002	8.994004e-002	7.175676e-001	-3.360560e-002	1.508983e-001	1.757583e-001	-4.995421e-002
1841330000	1.394982e-001	-5.153115e-002	-2.532799e-002	1.689201e-001	1.074770e-001	7.198876e-001	-6.141805e-001	1.069755e-001
	-2.497451e-002	1.688359e-001	1.571482e-001	-6.952234e-002	-6.125619e-001	1.028074e-001	1.003119e-001	7.164790e-001
	1.070700e-001	7.191213e-001	-6.128254e-001	1.025668e-001	1.517816e-001	-6.853849e-002	-3.183416e-002	1.510537e-001
	-6.135596e-001	1.068641e-001	9.994387e-002	7.170943e-001	-3.185634e-002	1.511698e-001	1.749402e-001	-5.253077e-002
1846320000	1.391490e-001	-5.375055e-002	-2.334387e-002	1.689505e-001	1.175022e-001	7.191384e-001	-6.117189e-001	1.152640e-001
	-2.277531e-002	1.689785e-001	1.560463e-001	-7.203244e-002	-6.101255e-001	1.111259e-001	1.102589e-001	7.158861e-001
	1.171051e-001	7.183331e-001	-6.103996e-001	1.109178e-001	1.509473e-001	-7.112802e-002	-2.997074e-002	1.511358e-001
	-6.110841e-001	1.151483e-001	1.098823e-001	7.165607e-001	-3.006241e-002	1.513777e-001	1.739868e-001	-5.525575e-002
1851310000	1.388042e-001	-5.577646e-002	-2.114445e-002	1.691061e-001	1.274943e-001	7.182881e-001	-6.091139e-001	1.234255e-001
	-2.088091e-002	1.691571e-001	1.549998e-001	-7.457690e-002	-6.075901e-001	1.193432e-001	1.201624e-001	7.151513e-001
	1.271327e-001	7.174879e-001	-6.078377e-001	1.191274e-001	1.499635e-001	-7.348507e-002	-2.823792e-002	1.512912e-001
	-6.084937e-001	1.233288e-001	1.197191e-001	7.158803e-001	-2.835871e-002	1.514620e-001	1.731640e-001	-5.779140e-002
1856300000	1.383391e-001	-5.794883e-002	-1.923542e-002	1.691351e-001	1.374923e-001	7.172018e-001	-6.063842e-001	1.315811e-001
	-1.867814e-002	1.691102e-001	1.537684e-001	-7.688325e-002	-6.048652e-001	1.276184e-001	1.300865e-001	7.143222e-001
	1.370731e-001	7.164838e-001	-6.051600e-001	1.273328e-001	1.490213e-001	-7.590972e-002	-2.646061e-002	1.514691e-001
	-6.057945e-001	1.314895e-001	1.297309e-001	7.150416e-001	-2.665403e-002	1.517398e-001	1.722248e-001	-6.029120e-002
1861290000	1.377718e-001	-5.992950e-002	-1.731515e-002	1.691759e-001	1.476169e-001	7.159865e-001	-6.035863e-001	1.397824e-001
	-1.671251e-002	1.693801e-001	1.526739e-001	-7.922859e-002	-6.020615e-001	1.358289e-001	1.401834e-001	7.132623e-001
	1.471993e-001	7.152888e-001	-6.023264e-001	1.355672e-001	1.481124e-001	-7.826805e-002	-2.461966e-002	1.516098e-001
	-6.029562e-001	1.396767e-001	1.397857e-001	7.139880e-001	-2.487200e-002	1.516694e-001	1.713144e-001	-6.281574e-002
1866280000	1.372270e-001	-6.179646e-002	-1.522866e-002	1.690755e-001	1.578355e-001	7.145425e-001	-6.006247e-001	1.479571e-001
	-1.475207e-002	1.692110e-001	1.514901e-001	-8.152255e-002	-5.990862e-001	1.440829e-001	1.502990e-001	7.120423e-001
	1.573456e-001	7.138759e-001	-5.994508e-001	1.438014e-001	1.471458e-001	-8.063466e-002	-2.292366e-002	1.515263e-001
	-6.000455e-001	1.478961e-001	1.498762e-001	7.127692e-001	-2.314049e-002	1.518912e-001	1.703616e-001	-6.505185e-002
1871270000	1.366430e-001	-6.342930e-002	-1.314167e-002	1.691262e-001	1.680564e-001	7.130494e-001	-5.975981e-001	1.561442e-001
	-1.272370e-002	1.690555e-001	1.502251e-001	-8.380665e-002	-5.960804e-001	1.523527e-001	1.604723e-001	7.107110e-001
	1.676103e-001	7.123154e-001	-5.964031e-001	1.520597e-001	1.460433e-001	-8.303417e-002	-2.114716e-002	1.516716e-001
	-5.970188e-001	1.560965e-001	1.600619e-001	7.114474e-001	-2.139170e-002	1.517938e-001	1.694284e-001	-6.756877e-002
1876260000	1.357561e-001	-6.521330e-002	-1.106068e-002	1.689714e-001	1.783629e-001	7.113029e-001	-5.944364e-001	1.643628e-001
	-1.064905e-002	1.690411e-001	1.489514e-001	-8.604908e-002	-5.929828e-001	1.605865e-001	1.706700e-001	7.091547e-001
	1.778618e-001	7.106641e-001	-5.933484e-001	1.603123e-001	1.447800e-001	-8.517207e-002	-1.931380e-002	1.516591e-001
	-5.938383e-001	1.642952e-001	1.702932e-001	7.099328e-001	-1.969926e-002	1.515917e-001	1.683683e-001	-6.994877e-002
1881250000	1.348776e-001	-6.673104e-002	-8.938960e-003	1.687655e-001	1.885410e-001	7.094460e-001	-5.911767e-001	1.725225e-001
	-8.419722e-003	1.687600e-001	1.475785e-001	-8.810539e-002	-5.897687e-001	1.687845e-001	1.808293e-001	7.075120e-001
	1.880863e-001	7.087863e-001	-5.900910e-001	1.684872e-001	1.435079e-001	-8.743676e-002	-1.740859e-002	1.515168e-001
	-5.906487e-001	1.724589e-001	1.804491e-001	7.082709e-001	-1.775465e-002	1.513741e-001	1.672985e-001	-7.218833e-002
1886240000	1.338267e-001	-6.845099e-002	-6.925734e-003	1.684744e-001	1.988098e-001	7.074617e-001	-5.878302e-001	1.806033e-001
	-6.578489e-003	1.684386e-001	1.461620e-001	-9.021864e-002	-5.864258e-001	1.768648e-001	1.909913e-001	7.056980e-001
	1.983137e-001	7.067778e-001	-5.867919e-001	1.766419e-001	1.421484e-001	-8.960605e-002	-1.561942e-002	1.514536e-001
	-5.872666e-001	1.805804e-001	1.905871e-001	7.064454e-001	-1.583634e-002	1.512038e-001	1.661655e-001	-7.432557e-002
1891230000	1.326467e-001	-6.989659e-002	-4.903023e-003	1.682750e-001	2.089905e-001	7.052966e-001	-5.843707e-001	1.885528e-001
	-4.556394e-003	1.681921e-001	1.445992e-001	-9.216876e-002	-5.830129e-001	1.849242e-001	2.010720e-001	7.037370e-001
	2.084665e-001	7.046185e-001	-5.833758e-001	1.846663e-001	1.408350e-001	-9.167047e-002	-1.392225e-002	1.511831e-001
	-5.838509e-001	1.885353e-001	2.006550e-001	7.044545e-001	-1.418798e-002	1.510113e-001	1.649541e-001	-7.631817e-002
1896220000	1.312897e-001	-7.137749e-002	-2.919736e-003	1.680675e-001	2.190458e-001	7.029791e-001	-5.808271e-001	1.964546e-001
	-2.576532e-003	1.679336e-001	1.428048e-001	-9.410656e-002	-5.794602e-001	1.928751e-001	2.110227e-001	7.016242e-001
	2.185328e-001	7.023574e-001	-5.798582e-001	1.925838e-001	1.394055e-001	-9.370542e-002	-1.223861e-002	1.510108e-001
	-5.803202e-001	1.964104e-001	2.106620e-001	7.023422e-001	-1.250999e-002	1.509015e-001	1.636923e-001	-7.836480e-002
1901210000	1.299009e-001	-7.300805e-002	-1.082444e-003	1.678403e-001	2.290096e-001	7.005566e-001	-5.771624e-001	2.042257e-001
	-7.266254e-004	1.677424e-001	1.409164e-001	-9.585394e-002	-5.758625e-001	2.006418e-001	2.208648e-001	6.993769e-001
	2.284523e-001	6.998979e-001	-5.762549e-001	2.003657e-001	1.378212e-001	-9.566587e-002	-1.070307e-002	1.508566e-001
	-5.766409e-001	2.041371e-001	2.204982e-001	7.000904e-001	-1.087436e-002	1.505763e-001	1.622121e-001	-8.046895e-002
1906200000	1.283655e-001	-7.458038e-002	7.137302e-004	1.674821e-001	2.389533e-001	6.979272e-001	-5.733984e-001	2.119301e-001
	1.173844e-003	1.675535e-001	1.389949e-001	-9.772822e-002	-5.720291e-001	2.084015e-001	2.307121e-001	6.969597e-001
	2.384070e-001	6.973284e-001	-5.724803e-001	2.081478e-001	1.361577e-001	-9.776643e-002	-9.192108e-003	1.506305e-001
	-5.728391e-001	2.118623e-001	2.303747e-001	6.976462e-001	-9.225522e-003	1.505623e-001	1.606836e-001	-8.247931e-002
1911190000	1.267936e-001	-7.637236e-002	2.388822e-003	1.673768e-001	2.489766e-001	6.950880e-001	-5.694603e-001	2.197579e-001
	2.858853e-003	1.673130e-001	1.369858e-001	-9.948471e-002	-5.680708e-001	2.162149e-001	2.406852e-001	6.943642e-001
	2.484584e-001	6.944465e-001	-5.685092e-001	2.159749e-001	1.344791e-001	-9.979961e-002	-7.821235e-003	1.505512e-001
	-5.689092e-001	2.196422e-001	2.403992e-001	6.950867e-001	-7.733708e-003	1.502938e-001	1.589292e-001	-8.450590e-002
1916180000	1.250000e-001	-7.819112e-002	4.149778e-003	1.672803e-001	2.590653e-001	6.921102e-001	-5.653731e-001	2.275283e-001
	4.495473e-003	1.672078e-001	1.348203e-001	-1.015320e-001	-5.640095e-001	2.240204e-001	2.506979e-001	6.915670e-001
	2.584999e-001	6.915160e-001	-5.644314e-001	2.237765e-001	1.326568e-001	-1.018378e-001	-6.362420e-003	1.502946e-001
	-5.648376e-001	2.274408e-001	2.504137e-001	6.922707e-001	-6.373232e-003	1.501715e-001	1.571004e-001	-8.656996e-002
1921170000	1.234358e-001	-8.018158e-002	5.933475e-003	1.667841e-001	2.691726e-001	6.889492e-001	-5.611431e-001	2.352707e-001
	6.350027e-003	1.670103e-001	1.325456e-001	-1.034586e-001	-5.597484e-001	2.317919e-001	2.607513e-001	6.885835e-001
	2.686122e-001	6.883017e-001	-5.602633e-001	2.315264e-001	1.309160e-001	-1.038999e-001	-4.895484e-003	1.502223e-001
	-5.606053e-001	2.352032e-001	2.604511e-001	6.893746e-001	-4.871454e-003	1.501523e-001	1.551767e-001	-8.876164e-002
1926160000	1.217505e-001	-8.216473e-002	7.719319e-003	1.665684e-001	2.793288e-001	6.856180e-001	-5.568325e-001	2.430004e-001
	8.091876e-003	1.666693e-001	1.303243e-001	-1.054182e-001	-5.554826e-001	2.395866e-001	2.707992e-001	6.854840e-001
	2.787268e-001	6.850331e-001	-5.559684e-001	2.392607e-001	1.291217e-001	-1.059533e-001	-3.362607e-003	1.500912e-001
	-5.563066e-001	2.429063e-001	2.705683e-001	6.862325e-001	-3.399656e-003	1.499638e-001	1.532341e-001	-9.088955e-002
1931150000	1.202145e-001	-8.430454e-002	9.420844e-003	1.663020e-001	2.893755e-001	6.821115e-001	-5.524208e-001	2.506781e-001
	9.846185e-003	1.663509e-001	1.280143e-001	-1.073652e-001	-5.510590e-001	2.472200e-001	2.808463e-001	6.821638e-001
	2.887802e-001	6.815510e-001	-5.515558e-001	2.469803e-001	1.273302e-001	-1.080789e-001	-1.934241e-003	1.499019e-001
	-5.519260e-001	2.505600e-001	2.805725e-001	6.829939e-001	-1.799638e-003	1.498417e-001	1.513435e-001	-9.314341e-002
1936140000	1.186610e-001	-8.645194e-002	1.131196e-002	1.660278e-001	2.993144e-001	6.785155e-001	-5.479425e-001	2.582040e-001
	1.174259e-002	1.661079e-001	1.258080e-001	-1.093366e-001	-5.465700e-001	2.548042e-001	2.907473e-001	6.787943e-001
	2.987524e-001	6.779975e-001	-5.471192e-001	2.545688e-001	1.255300e-001	-1.102977e-001	-1.985434e-004	1.495959e-001
	-5.474373e-001	2.580775e-001	2.905693e-001	6.796061e-001	-2.421793e-004	1.495440e-001	1.491737e-001	-9.539265e-002
1941130000	1.172003e-001	-8.858499e-002	1.320975e-002	1.656976e-001	3.092532e-001	6.748018e-001	-5.433974e-001	2.656139e-001
	1.363524e-002	1.658145e-001	1.237526e-001	-1.112885e-001	-5.420377e-001	2.622804e-001	3.006407e-001	6.752996e-001
	3.086887e-001	6.742960e-001	-5.425480e-001	2.619645e-001	1.238251e-001	-1.124127e-001	1.446908e-003	1.493721e-001
	-5.429092e-001	2.655158e-001	3.004503e-001	6.761412e-001	1.267654e-003	1.494017e-001	1.472411e-001	-9.753013e-002
1946120000	1.158436e-001	-9.070270e-002	1.502002e-002	1.653245e-001	3.190254e-001	6.710171e-001	-5.387982e-001	2.728997e-001
	1.552082e-002	1.653419e-001	1.216993e-001	-1.131544e-001	-5.373416e-001	2.694942e-001	3.104144e-001	6.717383e-001
	3.184670e-001	6.705126e-001	-5.379736e-001	2.692901e-001	1.220399e-001	-1.144991e-001	2.994037e-003	1.490702e-001
	-5.382898e-001	2.727718e-001	3.101963e-001	6.725230e-001	2.975418e-003	1.493802e-001	1.452209e-001	-9.979934e-002
1951110000	1.145929e-001	-9.279923e-002	1.707385e-002	1.650452e-001	3.286974e-001	6.670891e-001	-5.341074e-001	2.800387e-001
	1.734481e-002	1.650880e-001	1.196159e-001	-1.150684e-001	-5.327436e-001	2.766241e-001	3.200480e-001	6.679690e-001
	3.280810e-001	6.665765e-001	-5.332717e-001	2.763483e-001	1.202399e-001	-1.166043e-001	4.604122e-003	1.488073e-001
	-5.335677e-001	2.799077e-001	3.198551e-001	6.688240e-001	4.500871e-003	1.490038e-001	1.432106e-001	-1.018807e-001
1956100000	1.133712e-001	-9.469275e-002	1.877390e-002	1.646296e-001	3.383684e-001	6.629541e-001	-5.293258e-001	2.870680e-001
	1.918158e-002	1.647278e-001	1.174766e-001	-1.168672e-001	-5.279168e-001	2.836827e-001	3.297221e-001	6.640717e-001
	3.377753e-001	6.624805e-001	-5.285185e-001	2.834430e-001	1.184453e-001	-1.185555e-001	6.279543e-003	1.485924e-001
	-5.288094e-001	2.869837e-001	3.295461e-001	6.649996e-001	6.098558e-003	1.488484e-001	1.412115e-001	-1.039981e-001
1961090000	1.119029e-001	-9.646296e-002	2.049164e-002	1.641165e-001	3.481119e-001	6.586730e-001	-5.243826e-001	2.941140e-001
	2.091042e-002	1.641988e-001	1.155008e-001	-1.184550e-001	-5.230059e-001	2.907039e-001	3.393970e-001	6.600286e-001
	3.475183e-001	6.582577e-001	-5.236437e-001	2.905043e-001	1.164922e-001	-1.204438e-001	7.906738e-003	1.484287e-001
	-5.239177e-001	2.939844e-001	3.392376e-001	6.608844e-001	7.552695e-003	1.486163e-001	1.390616e-001	-1.059988e-001
1966080000	1.104458e-001	-9.815831e-002	2.236337e-002	1.636551e-001	3.578326e-001	6.541461e-001	-5.193552e-001	3.011904e-001
	2.263117e-002	1.635520e-001	1.132910e-001	-1.202081e-001	-5.180025e-001	2.977052e-001	3.491294e-001	6.557000e-001
	3.572696e-001	6.537187e-001	-5.186448e-001	2.975546e-001	1.144229e-001	-1.222409e-001	9.454704e-003	1.481552e-001
	-5.189321e-001	3.010147e-001	3.490312e-001	6.566522e-001	9.097497e-003	1.482017e-001	1.370803e-001	-1.081020e-001
1971070000	1.090627e-001	-9.967175e-002	2.401269e-002	1.629876e-001	3.676247e-001	6.493779e-001	-5.142528e-001	3.081875e-001
	2.447597e-002	1.631167e-001	1.110228e-001	-1.217700e-001	-5.129280e-001	3.047433e-001	3.588528e-001	6.511944e-001
	3.669762e-001	6.490109e-001	-5.135400e-001	3.045714e-001	1.124771e-001	-1.239796e-001	1.088128e-002	1.477482e-001
	-5.137927e-001	3.079671e-001	3.587485e-001	6.521530e-001	1.056010e-002	1.478422e-001	1.350103e-001	-1.100978e-001
1976060000	1.074991e-001	-1.010642e-001	2.575588e-002	1.623796e-001	3.773065e-001	6.444976e-001	-5.090482e-001	3.151403e-001
	2.611104e-002	1.624068e-001	1.088771e-001	-1.231382e-001	-5.077518e-001	3.116883e-001	3.685247e-001	6.465265e-001
	3.766320e-001	6.440969e-001	-5.084147e-001	3.115549e-001	1.104192e-001	-1.257453e-001	1.244917e-002	1.472968e-001
	-5.086341e-001	3.149272e-001	3.684748e-001	6.475153e-001	1.198789e-002	1.473538e-001	1.328465e-001	-1.121337e-001
1981050000	1.057886e-001	-1.023965e-001	2.750954e-002	1.617182e-001	3.869219e-001	6.394410e-001	-5.037460e-001	3.220432e-001
	2.785601e-002	1.616948e-001	1.065078e-001	-1.245334e-001	-5.025060e-001	3.186338e-001	3.781541e-001	6.416984e-001
	3.862580e-001	6.390809e-001	-5.031167e-001	3.184140e-001	1.082250e-001	-1.273374e-001	1.397732e-002	1.470553e-001
	-5.033376e-001	3.217765e-001	3.780498e-001	6.427368e-001	1.349200e-002	1.468110e-001	1.306835e-001	-1.139116e-001
1986040000	1.039811e-001	-1.037066e-001	2.927097e-002	1.609428e-001	3.964797e-001	6.342477e-001	-4.984417e-001	3.288561e-001
	2.973807e-002	1.609652e-001	1.041166e-001	-1.256903e-001	-4.971667e-001	3.254043e-001	3.876916e-001	6.367095e-001
	3.957447e-001	6.339420e-001	-4.978542e-001	3.252549e-001	1.060179e-001	-1.290256e-001	1.565514e-002	1.464785e-001
	-4.980330e-001	3.285616e-001	3.876314e-001	6.377791e-001	1.515395e-002	1.463656e-001	1.283490e-001	-1.155895e-001
1991030000	1.020863e-001	-1.048771e-001	3.091755e-002	1.604225e-001	4.058785e-001	6.288996e-001	-4.930658e-001	3.355928e-001
	3.129349e-002	1.603245e-001	1.017805e-001	-1.268154e-001	-4.918241e-001	3.320923e-001	3.970299e-001	6.316548e-001
	4.050966e-001	6.285692e-001	-4.924994e-001	3.319877e-001	1.037484e-001	-1.306461e-001	1.709953e-002	1.460499e-001
	-4.926576e-001	3.353009e-001	3.970499e-001	6.326805e-001	1.670229e-002	1.458488e-001	1.261129e-001	-1.171806e-001
1996020000	1.000097e-001	-1.060322e-001	3.256892e-002	1.598887e-001	4.151130e-001	6.234588e-001	-4.876269e-001	3.422235e-001
	3.309377e-002	1.596377e-001	9.917509e-002	-1.278415e-001	-4.863585e-001	3.386692e-001	4.063123e-001	6.264658e-001
	4.143779e-001	6.231940e-001	-4.870995e-001	3.385474e-001	1.014326e-001	-1.321217e-001	1.854735e-002	1.456096e-001
	-4.872194e-001	3.418937e-001	4.063064e-001	6.275313e-001	1.813791e-002	1.456350e-001	1.237535e-001	-1.187541e-001
2001010000	9.803552e-002	-1.073218e-001	3.416511e-002	1.593904e-001	4.241844e-001	6.179088e-001	-4.821209e-001	3.487003e-001
	3.466040e-002	1.592962e-001	9.660015e-002	-1.287359e-001	-4.808779e-001	3.450844e-001	4.153923e-001	6.212049e-001
	4.234403e-001	6.176588e-001	-4.816324e-001	3.449957e-001	9.907684e-002	-1.336312e-001	1.987451e-002	1.452446e-001
	-4.816992e-001	3.483528e-001	4.154349e-001	6.222433e-001	1.968526e-002	1.451774e-001	1.212703e-001	-1.202035e-001
2006000000	9.572716e-002	-1.086750e-001	3.583363e-002	1.589604e-001	4.332054e-001	6.122195e-001	-4.764394e-001	3.551068e-001
	3.633635e-002	1.588330e-001	9.383410e-002	-1.296712e-001	-4.752924e-001	3.514814e-001	4.244979e-001	6.157596e-001
	4.324447e-001	6.119187e-001	-4.760226e-001	3.513727e-001	9.652218e-002	-1.350984e-001	2.154736e-002	1.449583e-001
	-4.760500e-001	3.547024e-001	4.245384e-001	6.167823e-001	2.115738e-002	1.448255e-001	1.186548e-001	-1.217253e-001
2010990000	9.343861e-002	-1.097837e-001	3.719065e-002	1.587129e-001	4.421677e-001	6.062439e-001	-4.706657e-001	3.614899e-001
	3.776471e-002	1.583080e-001	9.102388e-002	-1.305490e-001	-4.695863e-001	3.578155e-001	4.335615e-001	6.100880e-001
	4.414566e-001	6.060190e-001	-4.703124e-001	3.577889e-001	9.396383e-002	-1.366522e-001	2.272372e-002	1.445918e-001
	-4.702464e-001	3.610983e-001	4.336555e-001	6.111051e-001	2.262870e-002	1.445176e-001	1.158962e-001	-1.232136e-001
2015980000	9.091657e-002	-1.113294e-001	3.872040e-002	1.582496e-001	4.511439e-001	6.001171e-001	-4.647310e-001	3.678650e-001
	3.927081e-002	1.580315e-001	8.805646e-002	-1.315357e-001	-4.637872e-001	3.642041e-001	4.426382e-001	6.042545e-001
	4.504369e-001	5.999069e-001	-4.645120e-001	3.641727e-001	9.135688e-002	-1.380661e-001	2.417493e-002	1.442608e-001
	-4.643057e-001	3.674913e-001	4.426760e-001	6.052538e-001	2.399849e-002	1.441723e-001	1.130613e-001	-1.245526e-001
2020970000	8.840895e-002	-1.129384e-001	4.010695e-002	1.576803e-001	4.600845e-001	5.938874e-001	-4.586836e-001	3.742075e-001
	4.077558e-002	1.575832e-001	8.532231e-002	-1.324162e-001	-4.578883e-001	3.705913e-001	4.516268e-001	5.982385e-001
	4.593720e-001	5.935985e-001	-4.586149e-001	3.705628e-001	8.870711e-002	-1.395597e-001	2.543600e-002	1.438771e-001
	-4.582969e-001	3.738496e-001	4.516898e-001	5.992429e-001	2.531772e-002	1.438179e-001	1.102622e-001	-1.261304e-001
2025960000	8.588821e-002	-1.146419e-001	4.158743e-002	1.571215e-001	4.689358e-001	5.874169e-001	-4.525453e-001	3.805138e-001
	4.224716e-002	1.569724e-001	8.229444e-002	-1.332918e-001	-4.518353e-001	3.768917e-001	4.606162e-001	5.921342e-001
	4.682729e-001	5.871882e-001	-4.526040e-001	3.769243e-001	8.620990e-002	-1.411382e-001	2.670107e-002	1.434305e-001
	-4.521907e-001	3.801437e-001	4.606912e-001	5.931762e-001	2.668962e-002	1.434021e-001	1.072447e-001	-1.277232e-001
2030950000	8.339688e-002	-1.164863e-001	4.318307e-002	1.565094e-001	4.777588e-001	5.809185e-001	-4.463127e-001	3.866897e-001
	4.366430e-002	1.563507e-001	7.933323e-002	-1.343671e-001	-4.457271e-001	3.831499e-001	4.694975e-001	5.859231e-001
	4.770505e-001	5.806724e-001	-4.465450e-001	3.831893e-001	8.359521e-002	-1.426597e-001	2.818239e-002	1.429152e-001
	-4.459825e-001	3.863402e-001	4.695476e-001	5.869382e-001	2.809763e-002	1.430561e-001	1.041860e-001	-1.293467e-001
2035940000	8.082232e-002	-1.183149e-001	4.461782e-002	1.558757e-001	4.864522e-001	5.742580e-001	-4.400313e-001	3.927548e-001
	4.524576e-002	1.559436e-001	7.648192e-002	-1.353121e-001	-4.396001e-001	3.892893e-001	4.782967e-001	5.795909e-001
	4.857440e-001	5.740624e-001	-4.404057e-001	3.893497e-001	8.106692e-002	-1.442103e-001	2.974597e-002	1.423545e-001
	-4.396877e-001	3.924316e-001	4.783813e-001	5.806015e-001	2.970737e-002	1.424302e-001	1.012334e-001	-1.311821e-001
2040930000	7.828962e-002	-1.199776e-001	4.632577e-002	1.553885e-001	4.950069e-001	5.675201e-001	-4.337019e-001	3.987381e-001
	4.680182e-002	1.553156e-001	7.366949e-002	-1.362806e-001	-4.334068e-001	3.953293e-001	4.869763e-001	5.731684e-001
	4.943737e-001	5.673414e-001	-4.341523e-001	3.954050e-001	7.849798e-002	-1.457364e-001	3.122342e-002	1.417268e-001
	-4.333871e-001	3.984630e-001	4.870874e-001	5.741052e-001	3.111940e-002	1.418393e-001	9.815429e-002	-1.330259e-001
2045920000	7.593903e-002	-1.219436e-001	4.791251e-002	1.549441e-001	5.033991e-001	5.607822e-001	-4.272972e-001	4.045770e-001
	4.847930e-002	1.548072e-001	7.078751e-002	-1.373253e-001	-4.271551e-001	4.012534e-001	4.955047e-001	5.666386e-001
	5.028129e-001	5.605644e-001	-4.278814e-001	4.014004e-001	7.598015e-002	-1.473406e-001	3.275072e-002	1.412505e-001
	-4.270259e-001	4.042865e-001	4.956750e-001	5.676440e-001	3.278048e-002	1.414238e-001	9.526289e-002	-1.348783e-001
2050910000	7.363745e-002	-1.235602e-001	4.940810e-002	1.543247e-001	5.116556e-001	5.538560e-001	-4.209546e-001	4.102256e-001
	4.986333e-002	1.540217e-001	6.818253e-002	-1.381223e-001	-4.208596e-001	4.070566e-001	5.039516e-001	5.600801e-001
	5.111034e-001	5.537016e-001	-4.216081e-001	4.071668e-001	7.373496e-002	-1.487251e-001	3.415455e-002	1.405769e-001
	-4.207237e-001	4.099763e-001	5.041265e-001	5.610887e-001	3.406757e-002	1.407578e-001	9.220649e-002	-1.365963e-001
2055900000	7.149742e-002	-1.252272e-001	5.092063e-002	1.537930e-001	5.198600e-001	5.467081e-001	-4.144484e-001	4.158517e-001
	5.144877e-002	1.535487e-001	6.555852e-002	-1.390093e-001	-4.143967e-001	4.127635e-001	5.123011e-001	5.533478e-001
	5.192624e-001	5.466025e-001	-4.151639e-001	4.129106e-001	7.147071e-002	-1.500480e-001	3.548151e-002	1.399388e-001
	-4.141851e-001	4.155664e-001	5.125306e-001	5.542890e-001	3.540855e-002	1.403565e-001	8.919328e-002	-1.384847e-001
2060890000	6.941832e-002	-1.266683e-001	5.221031e-002	1.532124e-001	5.280028e-001	5.394043e-001	-4.078224e-001	4.213962e-001
	5.287224e-002	1.531652e-001	6.284794e-002	-1.397836e-001	-4.079078e-001	4.184343e-001	5.207120e-001	5.463370e-001
	5.274157e-001	5.392819e-001	-4.086009e-001	4.185962e-001	6.906644e-002	-1.514080e-001	3.675632e-002	1.392534e-001
	-4.075436e-001	4.211354e-001	5.208969e-001	5.473187e-001	3.662082e-002	1.395893e-001	8.609162e-002	-1.401832e-001
2065880000	6.732099e-002	-1.280280e-001	5.350649e-002	1.526643e-001	5.360023e-001	5.319183e-001	-4.010749e-001	4.269542e-001
	5.407792e-002	1.524363e-001	6.014094e-002	-1.404122e-001	-4.012489e-001	4.240776e-001	5.290833e-001	5.390773e-001
	5.355102e-001	5.318008e-001	-4.018801e-001	4.242611e-001	6.671280e-002	-1.526513e-001	3.780359e-002	1.386401e-001
	-4.008723e-001	4.267225e-001	5.293355e-001	5.401304e-001	3.766059e-002	1.387700e-001	8.308440e-002	-1.418749e-001
2070870000	6.508543e-002	-1.291595e-001	5.478702e-002	1.517112e-001	5.440424e-001	5.242606e-001	-3.942740e-001	4.324219e-001
	5.549483e-002	1.516780e-001	5.750623e-002	-1.409106e-001	-3.944189e-001	4.296927e-001	5.373814e-001	5.316949e-001
	5.434996e-001	5.242252e-001	-3.951198e-001	4.298646e-001	6.426771e-002	-1.538225e-001	3.883250e-002	1.379234e-001
	-3.940629e-001	4.321719e-001	5.376534e-001	5.327480e-001	3.871635e-002	1.381132e-001	7.989011e-002	-1.433723e-001
2075860000	6.291850e-002	-1.303800e-001	5.610513e-002	1.509882e-001	5.519537e-001	5.165354e-001	-3.873769e-001	4.377866e-001
	5.672435e-002	1.511577e-001	5.476813e-002	-1.412848e-001	-3.875771e-001	4.351986e-001	5.456454e-001	5.241560e-001
	5.514815e-001	5.164513e-001	-3.882477e-001	4.354141e-001	6.159873e-002	-1.550035e-001	3.995354e-002	1.372144e-001
	-3.871423e-001	4.376085e-001	5.458923e-001	5.251706e-001	3.965909e-002	1.373352e-001	7.674135e-002	-1.447172e-001
2080850000	6.049012e-002	-1.313724e-001	5.753441e-002	1.502894e-001	5.598424e-001	5.086940e-001	-3.803860e-001	4.431444e-001
	5.816387e-002	1.502143e-001	5.196361e-002	-1.415531e-001	-3.806656e-001	4.405903e-001	5.537770e-001	5.164393e-001
	5.592941e-001	5.085793e-001	-3.812535e-001	4.408408e-001	5.908503e-002	-1.560601e-001	4.082680e-002	1.364726e-001
	-3.801904e-001	4.428722e-001	5.540633e-001	5.174529e-001	4.058078e-002	1.365036e-001	7.375911e-002	-1.460266e-001
2085840000	5.823187e-002	-1.320109e-001	5.903582e-002	1.495153e-001	5.675666e-001	5.006079e-001	-3.733873e-001	4.483027e-001
	5.939490e-002	1.496306e-001	4.922981e-002	-1.417024e-001	-3.736166e-001	4.458726e-001	5.617616e-001	5.085567e-001
	5.670665e-001	5.005508e-001	-3.742054e-001	4.461156e-001	5.635358e-002	-1.571296e-001	4.194736e-002	1.357607e-001
	-3.731391e-001	4.480981e-001	5.620514e-001	5.096121e-001	4.184239e-002	1.356930e-001	7.071859e-002	-1.470388e-001
2090830000	5.572992e-002	-1.327410e-001	6.047120e-002	1.489230e-001	5.750848e-001	4.925099e-001	-3.662900e-001	4.533606e-001
	6.087072e-002	1.488938e-001	4.644072e-002	-1.415465e-001	-3.664886e-001	4.510102e-001	5.695400e-001	5.005550e-001
	5.745641e-001	4.924054e-001	-3.671077e-001	4.512618e-001	5.364450e-002	-1.578377e-001	4.296764e-002	1.350767e-001
	-3.660792e-001	4.530949e-001	5.698869e-001	5.016049e-001	4.287792e-002	1.349986e-001	6.771609e-002	-1.478889e-001
2095820000	5.319695e-002	-1.332829e-001	6.203499e-002	1.484493e-001	5.824191e-001	4.842415e-001	-3.591931e-001	4.581965e-001
	6.228887e-002	1.483480e-001	4.379057e-002	-1.415744e-001	-3.593166e-001	4.559620e-001	5.770980e-001	4.925099e-001
	5.818778e-001	4.841956e-001	-3.599509e-001	4.561960e-001	5.097241e-002	-1.586716e-001	4.418566e-002	1.346534e-001
	-3.590074e-001	4.579098e-001	5.774596e-001	4.935019e-001	4.397195e-002	1.346001e-001	6.469030e-002	-1.486683e-001
2100810000	5.063354e-002	-1.337264e-001	6.353075e-002	1.478920e-001	5.894690e-001	4.759907e-001	-3.521996e-001	4.629081e-001
	6.391597e-002	1.477008e-001	4.091982e-002	-1.414833e-001	-3.522172e-001	4.607194e-001	5.844168e-001	4.844398e-001
	5.889315e-001	4.759425e-001	-3.528729e-001	4.609864e-001	4.825571e-002	-1.594863e-001	4.533592e-002	1.342123e-001
	-3.519607e-001	4.626268e-001	5.847944e-001	4.854038e-001	4.520181e-002	1.341030e-001	6.158691e-002	-1.492479e-001
2105800000	4.780063e-002	-1.342826e-001	6.480269e-002	1.474311e-001	5.964485e-001	4.675940e-001	-3.449887e-001	4.675950e-001
	6.521440e-002	1.472491e-001	3.789576e-002	-1.412189e-001	-3.450000e-001	4.654771e-001	5.917482e-001	4.761984e-001
	5.958828e-001	4.675893e-001	-3.456620e-001	4.657487e-001	4.548122e-002	-1.601071e-001	4.638785e-002	1.338801e-001
	-3.447762e-001	4.672824e-001	5.921489e-001	4.772275e-001	4.631435e-002	1.337899e-001	5.869259e-002	-1.498293e-001
2110790000	4.485338e-002	-1.346708e-001	6.614732e-002	1.469724e-001	6.033520e-001	4.590696e-001	-3.377054e-001	4.721932e-001
	6.646341e-002	1.468207e-001	3.479092e-002	-1.410641e-001	-3.377146e-001	4.701224e-001	5.989428e-001	4.678058e-001
	6.027771e-001	4.590755e-001	-3.383257e-001	4.704487e-001	4.257940e-002	-1.607765e-001	4.751006e-002	1.333110e-001
	-3.374937e-001	4.718876e-001	5.994177e-001	4.688046e-001	4.733444e-002	1.332789e-001	5.548152e-002	-1.503825e-001
2115780000	4.200478e-002	-1.350943e-001	6.728071e-002	1.466567e-001	6.101817e-001	4.503352e-001	-3.302181e-001	4.767327e-001
	6.773268e-002	1.464818e-001	3.148742e-002	-1.407077e-001	-3.301608e-001	4.746820e-001	6.061411e-001	4.591383e-001
	6.096051e-001	4.503101e-001	-3.308532e-001	4.750814e-001	3.958742e-002	-1.614292e-001	4.847471e-002	1.330551e-001
	-3.299820e-001	4.764401e-001	6.066325e-001	4.601500e-001	4.848271e-002	1.328969e-001	5.238542e-002	-1.507644e-001
2120770000	3.897579e-002	-1.356068e-001	6.861353e-002	1.461644e-001	6.168752e-001	4.415253e-001	-3.226462e-001	4.811593e-001
	6.895293e-002	1.458667e-001	2.829303e-002	-1.404672e-001	-3.225642e-001	4.792008e-001	6.132188e-001	4.502790e-001
	6.163369e-001	4.414895e-001	-3.232359e-001	4.795613e-001	3.659625e-002	-1.622427e-001	4.932982e-002	1.325536e-001
	-3.224673e-001	4.808428e-001	6.136898e-001	4.512720e-001	4.935979e-002	1.325198e-001	4.920902e-002	-1.512711e-001
2125760000	3.594680e-002	-1.362090e-001	6.989432e-002	1.456792e-001	6.234198e-001	4.325922e-001	-3.150270e-001	4.854915e-001
	7.029678e-002	1.454252e-001	2.491447e-002	-1.402740e-001	-3.149384e-001	4.835977e-001	6.201384e-001	4.413188e-001
	6.229828e-001	4.325324e-001	-3.156000e-001	4.840238e-001	3.343789e-002	-1.631840e-001	5.033848e-002	1.320689e-001
	-3.148782e-001	4.851846e-001	6.206228e-001	4.423165e-001	5.042338e-002	1.319680e-001	4.579170e-002	-1.517396e-001
2130750000	3.278289e-002	-1.370991e-001	7.124193e-002	1.451231e-001	6.299239e-001	4.235340e-001	-3.074287e-001	4.896777e-001
	7.163259e-002	1.449746e-001	2.171874e-002	-1.401582e-001	-3.072478e-001	4.878676e-001	6.268819e-001	4.322646e-001
	6.294993e-001	4.235318e-001	-3.078974e-001	4.883289e-001	3.034109e-002	-1.640981e-001	5.129499e-002	1.314812e-001
	-3.072738e-001	4.894317e-001	6.274511e-001	4.332478e-001	5.145233e-002	1.315212e-001	4.243516e-002	-1.522790e-001
2135740000	2.961928e-002	-1.378710e-001	7.287434e-002	1.445919e-001	6.364065e-001	4.144451e-001	-2.997206e-001	4.937091e-001
	7.324151e-002	1.444774e-001	1.859078e-002	-1.400571e-001	-2.995423e-001	4.920152e-001	6.334606e-001	4.230940e-001
	6.359269e-001	4.144283e-001	-3.002543e-001	4.924373e-001	2.731173e-002	-1.647861e-001	5.241346e-002	1.309087e-001
	-2.995743e-001	4.935035e-001	6.340575e-001	4.240353e-001	5.238935e-002	1.310212e-001	3.902146e-002	-1.528902e-001
2140730000	2.666929e-002	-1.387466e-001	7.440217e-002	1.441343e-001	6.427013e-001	4.051780e-001	-2.920772e-001	4.975908e-001
	7.472392e-002	1.438565e-001	1.549357e-002	-1.400297e-001	-2.918571e-001	4.959595e-001	6.399296e-001	4.139100e-001
	6.422198e-001	4.052707e-001	-2.925146e-001	4.964781e-001	2.419238e-002	-1.654740e-001	5.349082e-002	1.304327e-001
	-2.919405e-001	4.974140e-001	6.404904e-001	4.148525e-001	5.360024e-002	1.305848e-001	3.569237e-002	-1.534105e-001
2145720000	2.374461e-002	-1.396006e-001	7.608284e-002	1.436169e-001	6.487563e-001	3.960106e-001	-2.844383e-001	5.012904e-001
	7.643977e-002	1.434523e-001	1.248081e-002	-1.398669e-001	-2.842260e-001	4.998223e-001	6.461260e-001	4.046816e-001
	6.483382e-001	3.960069e-001	-2.848887e-001	5.003302e-001	2.123641e-002	-1.662997e-001	5.479236e-002	1.299837e-001
	-2.842721e-001	5.011623e-001	6.468101e-001	4.056305e-001	5.466827e-002	1.301313e-001	3.242838e-002	-1.539722e-001
2150710000	2.083329e-002	-1.406285e-001	7.781006e-002	1.430554e-001	6.547153e-001	3.867177e-001	-2.767995e-001	5.048567e-001
	7.821570e-002	1.429093e-001	9.458620e-003	-1.397622e-001	-2.765993e-001	5.035518e-001	6.521335e-001	3.955316e-001
	6.542770e-001	3.866924e-001	-2.772627e-001	5.041205e-001	1.818452e-002	-1.669520e-001	5.610129e-002	1.294644e-001
	-2.766398e-001	5.047948e-001	6.528985e-001	3.964051e-001	5.600543e-002	1.298421e-001	2.903128e-002	-1.545928e-001
2155700000	1.797835e-002	-1.412987e-001	7.936654e-002	1.426721e-001	6.605246e-001	3.770943e-001	-2.691662e-001	5.084381e-001
	7.983133e-002	1.423414e-001	6.608428e-003	-1.394946e-001	-2.688924e-001	5.073493e-001	6.581229e-001	3.861241e-001
	6.600834e-001	3.771110e-001	-2.695363e-001	5.079058e-001	1.550049e-002	-1.674516e-001	5.739626e-002	1.291793e-001
	-2.690605e-001	5.084213e-001	6.589727e-001	3.869473e-001	5.717561e-002	1.294893e-001	2.583986e-002	-1.549731e-001
2160690000	1.531942e-002	-1.416858e-001	8.082294e-002	1.421078e-001	6.661125e-001	3.672429e-001	-2.614486e-001	5.119642e-001
	8.139909e-002	1.416256e-001	3.810736e-003	-1.391833e-001	-2.610614e-001	5.110411e-001	6.640286e-001	3.764341e-001
	6.656727e-001	3.672904e-001	-2.616539e-001	5.116093e-001	1.292869e-002	-1.677993e-001	5.842271e-002	1.288140e-001
	-2.613498e-001	5.119889e-001	6.648719e-001	3.773147e-001	5.815838e-002	1.289289e-001	2.258708e-002	-1.551865e-001
2165680000	1.279391e-002	-1.421180e-001	8.219162e-002	1.412511e-001	6.714171e-001	3.573951e-001	-2.535869e-001	5.154534e-001
	8.274656e-002	1.409181e-001	1.202943e-003	-1.387977e-001	-2.530044e-001	5.145670e-001	6.697168e-001	3.666248e-001
	6.710307e-001	3.574445e-001	-2.535942e-001	5.151451e-001	1.041836e-002	-1.681718e-001	5.931633e-002	1.281387e-001
	-2.534028e-001	5.154962e-001	6.705860e-001	3.674395e-001	5.909323e-002	1.285788e-001	1.936625e-002	-1.551967e-001
2170670000	1.029980e-002	-1.425313e-001	8.346104e-002	1.405265e-001	6.766553e-001	3.474773e-001	-2.455079e-001	5.188493e-001
	8.416124e-002	1.402186e-001	-1.483769e-003	-1.383024e-001	-2.448527e-001	5.179789e-001	6.751890e-001	3.566430e-001
	6.762703e-001	3.475737e-001	-2.454421e-001	5.184965e-001	7.652376e-003	-1.686446e-001	6.005650e-002	1.278872e-001
	-2.453651e-001	5.188609e-001	6.761070e-001	3.574509e-001	5.983862e-002	1.279924e-001	1.645102e-002	-1.551661e-001
2175660000	7.829818e-003	-1.428064e-001	8.493521e-002	1.396021e-001	6.817485e-001	3.374768e-001	-2.374391e-001	5.220265e-001
	8.570280e-002	1.394673e-001	-4.114790e-003	-1.378074e-001	-2.367547e-001	5.212345e-001	6.805607e-001	3.465910e-001
	6.813728e-001	3.375492e-001	-2.373561e-001	5.217629e-001	5.020908e-003	-1.690084e-001	6.103643e-002	1.274007e-001
	-2.372774e-001	5.220632e-001	6.814800e-001	3.474683e-001	6.071068e-002	1.274804e-001	1.357801e-002	-1.550734e-001
2180650000	5.414953e-003	-1.428957e-001	8.661124e-002	1.387750e-001	6.866887e-001	3.274119e-001	-2.294465e-001	5.251279e-001
	8.713821e-002	1.386573e-001	-6.706564e-003	-1.370472e-001	-2.287583e-001	5.244069e-001	6.857312e-001	3.364949e-001
	6.863106e-001	3.274270e-001	-2.293038e-001	5.249457e-001	2.227845e-003	-1.691761e-001	6.198774e-002	1.269300e-001
	-2.292717e-001	5.252129e-001	6.866702e-001	3.373404e-001	6.177454e-002	1.269433e-001	1.083290e-002	-1.549512e-001
2185640000	3.040325e-003	-1.429467e-001	8.836972e-002	1.379698e-001	6.914548e-001	3.173267e-001	-2.215033e-001	5.281025e-001
	8.871360e-002	1.377605e-001	-9.230258e-003	-1.364387e-001	-2.207011e-001	5.274403e-001	6.906773e-001	3.263551e-001
	6.910845e-001	3.173705e-001	-2.212383e-001	5.280224e-001	-5.394434e-004	-1.694628e-001	6.310720e-002	1.264395e-001
	-2.213282e-001	5.281977e-001	6.915432e-001	3.272054e-001	6.308261e-002	1.264348e-001	8.149888e-003	-1.546261e-001
2190630000	5.703555e-004	-1.430844e-001	8.991967e-002	1.370603e-001	6.960377e-001	3.072607e-001	-2.136323e-001	5.310465e-001
	9.031174e-002	1.367721e-001	-1.185083e-002	-1.356621e-001	-2.126998e-001	5.304850e-001	6.954177e-001	3.162781e-001
	6.956601e-001	3.072864e-001	-2.132426e-001	5.310600e-001	-3.378824e-003	-1.695277e-001	6.427199e-002	1.260213e-001
	-2.134037e-001	5.311226e-001	6.962874e-001	3.171574e-001	6.426128e-002	1.259110e-001	5.588373e-003	-1.543770e-001
2195620000	-2.066197e-003	-1.430353e-001	9.154360e-002	1.360446e-001	7.004756e-001	2.972962e-001	-2.057334e-001	5.339211e-001
	9.210905e-002	1.358380e-001	-1.453989e-002	-1.348962e-001	-2.046982e-001	5.334072e-001	7.000126e-001	3.064391e-001
	7.000838e-001	2.973726e-001	-2.052908e-001	5.340524e-001	-6.281490e-003	-1.697772e-001	6.571569e-002	1.253971e-001
	-2.055633e-001	5.340022e-001	7.009182e-001	3.073135e-001	6.556642e-002	1.253953e-001	2.982775e-003	-1.542140e-001
2200610000	-4.930995e-003	-1.428816e-001	9.319467e-002	1.350890e-001	7.048503e-001	2.873936e-001	-1.978254e-001	5.367410e-001
	9.361798e-002	1.347887e-001	-1.732511e-002	-1.341670e-001	-1.966871e-001	5.362745e-001	7.045729e-001	2.966159e-001
	7.044704e-001	2.874485e-001	-1.972211e-001	5.368989e-001	-9.472552e-003	-1.696792e-001	6.686616e-002	1.247891e-001
	-1.976113e-001	5.367764e-001	7.054852e-001	2.973818e-001	6.688153e-002	1.246865e-001	1.200268e-004	-1.539788e-001
2205600000	-7.959785e-003	-1.425272e-001	9.442800e-002	1.341108e-001	7.091463e-001	2.772326e-001	-1.897172e-001	5.394185e-001
	9.495581e-002	1.340085e-001	-2.056923e-002	-1.331735e-001	-1.884418e-001	5.390542e-001	7.090505e-001	2.866308e-001
	7.087050e-001	2.773777e-001	-1.890709e-001	5.396692e-001	-1.261026e-002	-1.695538e-001	6.809091e-002	1.243187e-001
	-1.895880e-001	5.394872e-001	7.099439e-001	2.874185e-001	6.794143e-002	1.244968e-001	-2.887213e-003	-1.535081e-001
2210590000	-1.084469e-002	-1.420870e-001	9.566632e-002	1.334077e-001	7.132755e-001	2.669569e-001	-1.815582e-001	5.419889e-001
	9.630049e-002	1.330084e-001	-2.384411e-002	-1.321178e-001	-1.801229e-001	5.417257e-001	7.135349e-001	2.763664e-001
	7.128932e-001	2.669999e-001	-1.807050e-001	5.423434e-001	-1.617348e-002	-1.691742e-001	6.899253e-002	1.238314e-001
	-1.814128e-001	5.420176e-001	7.143998e-001	2.771636e-001	6.879469e-002	1.239786e-001	-5.880410e-003	-1.529412e-001
2215580000	-1.410454e-002	-1.415543e-001	9.678409e-002	1.325813e-001	7.172842e-001	2.564358e-001	-1.732408e-001	5.444982e-001
	9.735340e-002	1.323931e-001	-2.740997e-002	-1.308139e-001	-1.716705e-001	5.442156e-001	7.178095e-001	2.658624e-001
	7.168701e-001	2.565241e-001	-1.722067e-001	5.448553e-001	-1.953766e-002	-1.687191e-001	6.983345e-002	1.234677e-001
	-1.731181e-001	5.445418e-001	7.187489e-001	2.667138e-001	6.965196e-002	1.236407e-001	-9.171325e-003	-1.521344e-001
2220570000	-1.742199e-002	-1.410137e-001	9.794597e-002	1.318184e-001	7.211573e-001	2.458542e-001	-1.649005e-001	5.468892e-001
	9.858177e-002	1.316140e-001	-3.092268e-002	-1.294496e-001	-1.631467e-001	5.465782e-001	7.219740e-001	2.552322e-001
	7.207398e-001	2.459485e-001	-1.636569e-001	5.472261e-001	-2.307620e-002	-1.681817e-001	7.047191e-002	1.232430e-001
	-1.647735e-001	5.468466e-001	7.229076e-001	2.560600e-001	7.039970e-002	1.232182e-001	-1.250142e-002	-1.512422e-001
2225560000	-2.071566e-002	-1.405834e-001	9.907374e-002	1.310160e-001	7.248141e-001	2.351503e-001	-1.564835e-001	5.491069e-001
	9.975034e-002	1.309441e-001	-3.450527e-002	-1.280787e-001	-1.546039e-001	5.487801e-001	7.259177e-001	2.445608e-001
	7.243810e-001	2.352260e-001	-1.550706e-001	5.494237e-001	-2.673504e-002	-1.676899e-001	7.156215e-002	1.227986e-001
	-1.563406e-001	5.490847e-001	7.269315e-001	2.453652e-001	7.130176e-002	1.228844e-001	-1.599671e-002	-1.503725e-001
2230550000	-2.412261e-002	-1.400323e-001	1.004261e-001	1.302283e-001	7.282934e-001	2.243863e-001	-1.480641e-001	5.512558e-001
	1.008962e-001	1.300331e-001	-3.811904e-002	-1.267629e-001	-1.459745e-001	5.508461e-001	7.298093e-001	2.337162e-001
	7.279878e-001	2.244874e-001	-1.464826e-001	5.514708e-001	-3.033756e-002	-1.674149e-001	7.235373e-002	1.224242e-001
	-1.479528e-001	5.512060e-001	7.307484e-001	2.345403e-001	7.226121e-002	1.225835e-001	-1.950309e-002	-1.493470e-001
2235540000	-2.739903e-002	-1.397245e-001	1.018531e-001	1.296345e-001	7.316278e-001	2.134833e-001	-1.396046e-001	5.532028e-001
	1.023916e-001	1.294247e-001	-4.159188e-002	-1.255038e-001	-1.374106e-001	5.526965e-001	7.334736e-001	2.228700e-001
	7.312827e-001	2.136119e-001	-1.378169e-001	5.533260e-001	-3.376313e-002	-1.669674e-001	7.358621e-002	1.219926e-001
	-1.394714e-001	5.531547e-001	7.343938e-001	2.236702e-001	7.337763e-002	1.220705e-001	-2.296894e-002	-1.481388e-001
2240530000	-3.070612e-002	-1.392368e-001	1.034097e-001	1.288503e-001	7.347864e-001	2.026760e-001	-1.311496e-001	5.549878e-001
	1.037538e-001	1.287271e-001	-4.499239e-002	-1.242301e-001	-1.288408e-001	5.544418e-001	7.368362e-001	2.120228e-001
	7.344782e-001	2.027592e-001	-1.292597e-001	5.550367e-001	-3.728645e-002	-1.665521e-001	7.495913e-002	1.216210e-001
	-1.310712e-001	5.550566e-001	7.378425e-001	2.128250e-001	7.461403e-002	1.217215e-001	-2.651113e-002	-1.472513e-001
2245520000	-3.375795e-002	-1.389786e-001	1.050366e-001	1.281961e-001	7.376546e-001	1.918665e-001	-1.228047e-001	5.567086e-001
	1.056023e-001	1.281348e-001	-4.815875e-002	-1.229415e-001	-1.203879e-001	5.559985e-001	7.401179e-001	2.011289e-001
	7.372804e-001	1.918951e-001	-1.207563e-001	5.566074e-001	-4.072771e-002	-1.663518e-001	7.608077e-002	1.212094e-001
	-1.226068e-001	5.566854e-001	7.410954e-001	2.018255e-001	7.605772e-002	1.212578e-001	-2.990784e-002	-1.461766e-001
2250510000	-3.676691e-002	-1.386512e-001	1.068172e-001	1.275440e-001	7.403109e-001	1.810849e-001	-1.145059e-001	5.581904e-001
	1.071734e-001	1.272906e-001	-5.127045e-002	-1.216880e-001	-1.119811e-001	5.574203e-001	7.431486e-001	1.903005e-001
	7.400423e-001	1.811469e-001	-1.123180e-001	5.580267e-001	-4.388342e-002	-1.661702e-001	7.763548e-002	1.206552e-001
	-1.143163e-001	5.582498e-001	7.441345e-001	1.909029e-001	7.743055e-002	1.210012e-001	-3.326010e-002	-1.451245e-001
2255500000	-3.992734e-002	-1.384510e-001	1.082926e-001	1.267174e-001	7.428734e-001	1.702740e-001	-1.061224e-001	5.596936e-001
	1.087928e-001	1.265268e-001	-5.395770e-002	-1.203710e-001	-1.035972e-001	5.588544e-001	7.460277e-001	1.792307e-001
	7.425821e-001	1.703286e-001	-1.039466e-001	5.594717e-001	-4.707353e-002	-1.658354e-001	7.889571e-002	1.203698e-001
	-1.059181e-001	5.597539e-001	7.470209e-001	1.798881e-001	7.865650e-002	1.205290e-001	-3.651565e-002	-1.440108e-001
2260490000	-4.271292e-002	-1.380282e-001	1.098388e-001	1.261089e-001	7.452500e-001	1.593007e-001	-9.763079e-002	5.610971e-001
	1.103967e-001	1.256101e-001	-5.664676e-002	-1.190105e-001	-9.505782e-002	5.601439e-001	7.486632e-001	1.681187e-001
	7.449695e-001	1.593386e-001	-9.541329e-002	5.608044e-001	-5.035555e-002	-1.656020e-001	8.012727e-002	1.200277e-001
	-9.749941e-002	5.611518e-001	7.496916e-001	1.686643e-001	7.987233e-002	1.201154e-001	-3.951873e-002	-1.428809e-001
2265480000	-4.550850e-002	-1.375665e-001	1.112062e-001	1.251486e-001	7.474353e-001	1.481707e-001	-8.909871e-002	5.623878e-001
	1.118167e-001	1.248351e-001	-5.922946e-002	-1.175407e-001	-8.645886e-002	5.613626e-001	7.511527e-001	1.568704e-001
	7.472203e-001	1.483023e-001	-8.683888e-002	5.620154e-001	-5.343731e-002	-1.652067e-001	8.135287e-002	1.194861e-001
	-8.891124e-002	5.624448e-001	7.522134e-001	1.574089e-001	8.114843e-002	1.197732e-001	-4.254463e-002	-1.416989e-001
2270470000	-4.826696e-002	-1.370053e-001	1.124769e-001	1.242378e-001	7.495642e-001	1.370278e-001	-8.046305e-002	5.635846e-001
	1.132678e-001	1.240152e-001	-6.176119e-002	-1.160358e-001	-7.788006e-002	5.625310e-001	7.535157e-001	1.454310e-001
	7.493098e-001	1.371120e-001	-7.825423e-002	5.632042e-001	-5.662111e-002	-1.649364e-001	8.252577e-002	1.190154e-001
	-8.027755e-002	5.636360e-001	7.546129e-001	1.460104e-001	8.213885e-002	1.192025e-001	-4.544672e-002	-1.406072e-001
2275460000	-5.102399e-002	-1.361889e-001	1.140635e-001	1.231230e-001	7.514827e-001	1.258104e-001	-7.186132e-002	5.646286e-001
	1.146599e-001	1.228390e-001	-6.417950e-002	-1.145181e-001	-6.930668e-002	5.635878e-001	7.557024e-001	1.340101e-001
	7.512520e-001	1.258530e-001	-6.960973e-002	5.642435e-001	-5.984717e-002	-1.642923e-001	8.350965e-002	1.184393e-001
	-7.163545e-002	5.646920e-001	7.568190e-001	1.346160e-001	8.320106e-002	1.183932e-001	-4.840938e-002	-1.394317e-001
2280450000	-5.360557e-002	-1.353965e-001	1.154503e-001	1.219270e-001	7.531916e-001	1.145568e-001	-6.329333e-002	5.656241e-001
	1.160984e-001	1.219039e-001	-6.647257e-002	-1.127835e-001	-6.064921e-002	5.645353e-001	7.577044e-001	1.224869e-001
	7.530480e-001	1.146006e-001	-6.098837e-002	5.652261e-001	-6.295518e-002	-1.636127e-001	8.460851e-002	1.177322e-001
	-6.300222e-002	5.656476e-001	7.588420e-001	1.230781e-001	8.446258e-002	1.177232e-001	-5.129775e-002	-1.381031e-001
2285440000	-5.630706e-002	-1.343243e-001	1.169849e-001	1.206913e-001	7.547843e-001	1.033286e-001	-5.471841e-002	5.664760e-001
	1.175204e-001	1.205884e-001	-6.873516e-002	-1.109705e-001	-5.200415e-002	5.653832e-001	7.595202e-001	1.109762e-001
	7.546537e-001	1.033870e-001	-5.232158e-002	5.660355e-001	-6.617525e-002	-1.628495e-001	8.561726e-002	1.168446e-001
	-5.441906e-002	5.664996e-001	7.606456e-001	1.115642e-001	8.566520e-002	1.169324e-001	-5.409794e-002	-1.367381e-001
2290430000	-5.886811e-002	-1.331416e-001	1.185505e-001	1.194995e-001	7.561924e-001	9.207776e-002	-4.609471e-002	5.671768e-001
	1.189378e-001	1.195334e-001	-7.098335e-002	-1.089493e-001	-4.336786e-002	5.661034e-001	7.611122e-001	9.940348e-002
	7.561132e-001	9.212436e-002	-4.371029e-002	5.667407e-001	-6.928637e-002	-1.619957e-001	8.707655e-002	1.162595e-001
	-4.582132e-002	5.672462e-001	7.622304e-001	1.000271e-001	8.686593e-002	1.162337e-001	-5.685907e-002	-1.353232e-001
2295420000	-6.151644e-002	-1.319000e-001	1.199903e-001	1.184983e-001	7.573558e-001	8.086961e-002	-3.758553e-002	5.677778e-001
	1.204603e-001	1.182019e-001	-7.324334e-002	-1.069989e-001	-3.474867e-002	5.666821e-001	7.624158e-001	8.799981e-002
	7.572498e-001	8.095674e-002	-3.509018e-002	5.674029e-001	-7.234657e-002	-1.609692e-001	8.836548e-002	1.155942e-001
	-3.729929e-002	5.678799e-001	7.635188e-001	8.856405e-002	8.823674e-002	1.155956e-001	-5.947445e-002	-1.336466e-001
2300410000	-6.414693e-002	-1.304053e-001	1.215155e-001	1.175987e-001	7.583567e-001	6.976152e-002	-2.910439e-002	5.683325e-001
	1.219158e-001	1.172819e-001	-7.553641e-002	-1.047597e-001	-2.621071e-002	5.671660e-001	7.635271e-001	7.661905e-002
	7.582409e-001	6.986435e-002	-2.653200e-002	5.678833e-001	-7.545162e-002	-1.597248e-001	8.948495e-002	1.150652e-001
	-2.877702e-002	5.684020e-001	7.646169e-001	7.718097e-002	8.940009e-002	1.150937e-001	-6.202036e-002	-1.320932e-001
2305400000	-6.674662e-002	-1.287433e-001	1.227658e-001	1.166276e-001	7.591190e-001	5.859851e-002	-2.059697e-002	5.687811e-001
	1.232661e-001	1.161647e-001	-7.786457e-002	-1.023026e-001	-1.762182e-002	5.675266e-001	7.644163e-001	6.528454e-002
	7.590422e-001	5.875696e-002	-1.801581e-002	5.682817e-001	-7.867322e-002	-1.583163e-001	9.058283e-002	1.145098e-001
	-2.028819e-002	5.688269e-001	7.655414e-001	6.580941e-002	9.056937e-002	1.146789e-001	-6.457614e-002	-1.301450e-001
2310390000	-6.933118e-002	-1.270802e-001	1.239119e-001	1.157902e-001	7.597615e-001	4.730698e-002	-1.194336e-002	5.691087e-001
	1.245061e-001	1.153322e-001	-8.022737e-002	-9.978093e-002	-8.996201e-003	5.678207e-001	7.650480e-001	5.382010e-002
	7.596438e-001	4.741717e-002	-9.399935e-003	5.685931e-001	-8.185724e-002	-1.566355e-001	9.176629e-002	1.142912e-001
	-1.162891e-002	5.691353e-001	7.661805e-001	5.434918e-002	9.162281e-002	1.144372e-001	-6.730032e-002	-1.281509e-001
2315380000	-7.204025e-002	-1.252684e-001	1.251640e-001	1.151793e-001	7.601970e-001	3.586329e-002	-3.214985e-003	5.693199e-001
	1.257345e-001	1.146539e-001	-8.259793e-002	-9.725930e-002	-2.507529e-004	5.680132e-001	7.654967e-001	4.227483e-002
	7.601020e-001	3.603113e-002	-6.824048e-004	5.687906e-001	-8.499244e-002	-1.548775e-001	9.277065e-002	1.139876e-001
	-2.920584e-003	5.693589e-001	7.666409e-001	4.273394e-002	9.268508e-002	1.141668e-001	-6.991299e-002	-1.261069e-001
2320370000	-7.484073e-002	-1.234191e-001	1.265138e-001	1.142807e-001	7.604390e-001	2.443446e-002	5.540221e-003	5.694314e-001
	1.270023e-001	1.138960e-001	-8.510747e-002	-9.471753e-002	8.478258e-003	5.680834e-001	7.657971e-001	3.075126e-002
	7.603389e-001	2.452459e-002	8.029991e-003	5.688442e-001	-8.829281e-002	-1.532132e-001	9.379355e-002	1.138014e-001
	5.815907e-003	5.693984e-001	7.669089e-001	3.122074e-002	9.371898e-002	1.137871e-001	-7.268168e-002	-1.239142e-001
2325360000	-7.769558e-002	-1.217674e-001	1.278643e-001	1.132421e-001	7.604414e-001	1.300923e-002	1.431947e-002	5.693616e-001
	1.282780e-001	1.130779e-001	-8.773792e-002	-9.213995e-002	1.732281e-002	5.679759e-001	7.658495e-001	1.921853e-002
	7.603137e-001	1.305706e-002	1.676998e-002	5.687957e-001	-9.175449e-002	-1.513516e-001	9.496752e-002	1.133895e-001
	1.459277e-002	5.693750e-001	7.670185e-001	1.971098e-002	9.487465e-002	1.134588e-001	-7.556351e-002	-1.218863e-001
2330350000	-8.077895e-002	-1.202763e-001	1.293669e-001	1.122404e-001	7.603011e-001	1.602686e-003	2.301477e-002	5.692175e-001
	1.297361e-001	1.121896e-001	-9.027841e-002	-8.981527e-002	2.605062e-002	5.677336e-001	7.658089e-001	7.720706e-003
	7.600558e-001	1.668633e-003	2.552306e-002	5.685030e-001	-9.508318e-002	-1.496263e-001	9.608124e-002	1.127956e-001
	2.338613e-002	5.691931e-001	7.669494e-001	8.257389e-003	9.609228e-002	1.128882e-001	-7.834701e-002	-1.196830e-001
2335340000	-8.369721e-002	-1.186995e-001	1.307470e-001	1.113044e-001	7.599144e-001	-9.783511e-003	3.175127e-002	5.689425e-001
	1.312826e-001	1.111346e-001	-9.287875e-002	-8.742351e-002	3.481898e-002	5.673415e-001	7.656609e-001	-3.706695e-003
	7.596590e-001	-9.792535e-003	3.427872e-002	5.681811e-001	-9.854279e-002	-1.478979e-001	9.738560e-002	1.121224e-001
	3.215994e-002	5.688390e-001	7.667392e-001	-3.244678e-003	9.735666e-002	1.123516e-001	-8.137709e-002	-1.175448e-001
2340330000	-8.671411e-002	-1.173287e-001	1.325088e-001	1.103508e-001	7.592530e-001	-2.102689e-002	4.050431e-002	5.684497e-001
	1.328980e-001	1.101077e-001	-9.535107e-002	-8.522367e-002	4.358802e-002	5.668041e-001	7.651500e-001	-1.512034e-002
	7.589850e-001	-2.104128e-002	4.304381e-002	5.676663e-001	-1.019226e-001	-1.463381e-001	9.896258e-002	1.116430e-001
	4.090759e-002	5.684255e-001	7.662239e-001	-1.467216e-002	9.897927e-002	1.117616e-001	-8.429601e-002	-1.155328e-001
2345320000	-8.975266e-002	-1.158513e-001	1.340918e-001	1.093017e-001	7.584654e-001	-3.211757e-002	4.925598e-002	5.678631e-001
	1.344100e-001	1.090311e-001	-9.769627e-002	-8.313202e-002	5.219816e-002	5.661769e-001	7.645521e-001	-2.639911e-002
	7.582964e-001	-3.212523e-002	5.168224e-002	5.671059e-001	-1.051962e-001	-1.449578e-001	1.004672e-001	1.110385e-001
	4.963471e-002	5.677520e-001	7.656013e-001	-2.599526e-002	1.003497e-001	1.110794e-001	-8.725214e-002	-1.135742e-001
2350310000	-9.276816e-002	-1.145737e-001	1.357131e-001	1.082262e-001	7.575865e-001	-4.315187e-002	5.786525e-002	5.670563e-001
	1.359652e-001	1.079748e-001	-9.996133e-002	-8.104601e-002	6.080639e-002	5.654752e-001	7.637842e-001	-3.752543e-002
	7.574057e-001	-4.312148e-002	6.024292e-002	5.663720e-001	-1.085080e-001	-1.435168e-001	1.017944e-001	1.103390e-001
	5.825119e-002	5.669569e-001	7.648666e-001	-3.716295e-002	1.017351e-001	1.105494e-001	-9.023507e-002	-1.116711e-001
2355300000	-9.543802e-002	-1.130021e-001	1.371722e-001	1.073234e-001	7.564933e-001	-5.420482e-002	6.647265e-002	5.660481e-001
	1.375165e-001	1.070235e-001	-1.020544e-001	-7.895794e-002	6.940408e-002	5.645912e-001	7.628390e-001	-4.866223e-002
	7.563406e-001	-5.420476e-002	6.893575e-002	5.655284e-001	-1.115772e-001	-1.419579e-001	1.032841e-001	1.096823e-001
	6.686132e-002	5.659913e-001	7.639246e-001	-4.831379e-002	1.031517e-001	1.099011e-001	-9.320079e-002	-1.097415e-001
2360290000	-9.820460e-002	-1.115216e-001	1.385111e-001	1.064102e-001	7.551812e-001	-6.541750e-002	7.515037e-002	5.649901e-001
	1.391215e-001	1.061224e-001	-1.040084e-001	-7.714374e-002	7.815771e-002	5.635767e-001	7.617260e-001	-5.995026e-002
	7.550259e-001	-6.539598e-002	7.763859e-002	5.645762e-001	-1.147243e-001	-1.403476e-001	1.045485e-001	1.090131e-001
	7.551069e-002	5.648984e-001	7.628531e-001	-5.964714e-002	1.044233e-001	1.094797e-001	-9.612191e-002	-1.078194e-001
2365280000	-1.007452e-001	-1.100126e-001	1.400878e-001	1.054860e-001	7.536775e-001	-7.655370e-002	8.384358e-002	5.638301e-001
	1.406413e-001	1.051989e-001	-1.057495e-001	-7.505327e-002	8.682845e-002	5.624416e-001	7.604656e-001	-7.133082e-002
	7.535322e-001	-7.657352e-002	8.636857e-002	5.634487e-001	-1.175678e-001	-1.386340e-001	1.057256e-001	1.084866e-001
	8.414699e-002	5.637009e-001	7.616006e-001	-7.102186e-002	1.055881e-001	1.088265e-001	-9.903229e-002	-1.057681e-001
2370270000	-1.031926e-001	-1.083257e-001	1.414382e-001	1.043857e-001	7.520533e-001	-8.770216e-002	9.251220e-002	5.625398e-001
	1.420853e-001	1.040370e-001	-1.075136e-001	-7.300375e-002	9.550735e-002	5.612134e-001	7.590785e-001	-8.274171e-002
	7.519395e-001	-8.773190e-002	9.510391e-002	5.622170e-001	-1.204207e-001	-1.369793e-001	1.068218e-001	1.077645e-001
	9.277721e-002	5.623931e-001	7.602185e-001	-8.243807e-002	1.065244e-001	1.080789e-001	-1.017370e-001	-1.037129e-001
2375260000	-1.055867e-001	-1.065913e-001	1.428499e-001	1.031438e-001	7.503592e-001	-9.888772e-002	1.011445e-001	5.611436e-001
	1.435906e-001	1.029204e-001	-1.092045e-001	-7.074977e-002	1.040997e-001	5.598535e-001	7.575039e-001	-9.415649e-002
	7.501822e-001	-9.892666e-002	1.037889e-001	5.608779e-001	-1.231412e-001	-1.351653e-001	1.077318e-001	1.070235e-001
	1.014317e-001	5.609748e-001	7.586596e-001	-9.390183e-002	1.075067e-001	1.072546e-001	-1.044337e-001	-1.017281e-001
2380250000	-1.079827e-001	-1.047429e-001	1.444943e-001	1.017315e-001	7.484625e-001	-1.100631e-001	1.098004e-001	5.595987e-001
	1.450296e-001	1.017960e-001	-1.107491e-001	-6.859376e-002	1.127283e-001	5.583562e-001	7.557761e-001	-1.056530e-001
	7.482812e-001	-1.102078e-001	1.124779e-001	5.593413e-001	-1.258238e-001	-1.334970e-001	1.088049e-001	1.062877e-001
	1.100665e-001	5.594436e-001	7.568705e-001	-1.053229e-001	1.086282e-001	1.064596e-001	-1.069232e-001	-9.958229e-002
2385240000	-1.101545e-001	-1.027207e-001	1.462114e-001	1.004235e-001	7.463291e-001	-1.211818e-001	1.183429e-001	5.579199e-001
	1.466222e-001	1.004200e-001	-1.121474e-001	-6.615553e-002	1.213034e-001	5.567545e-001	7.537758e-001	-1.170702e-001
	7.461875e-001	-1.213540e-001	1.211497e-001	5.577123e-001	-1.283127e-001	-1.315180e-001	1.100005e-001	1.054619e-001
	1.186010e-001	5.577821e-001	7.548947e-001	-1.167704e-001	1.099227e-001	1.055821e-001	-1.093507e-001	-9.743902e-002
2390230000	-1.123397e-001	-1.004580e-001	1.479446e-001	9.912626e-002	7.439978e-001	-1.322249e-001	1.267911e-001	5.560810e-001
	1.482139e-001	9.899417e-002	-1.133693e-001	-6.365172e-002	1.298271e-001	5.549818e-001	7.515965e-001	-1.283754e-001
	7.438800e-001	-1.324049e-001	1.297324e-001	5.560078e-001	-1.305775e-001	-1.295330e-001	1.113630e-001	1.046859e-001
	1.270346e-001	5.559958e-001	7.527489e-001	-1.280759e-001	1.114586e-001	1.047329e-001	-1.115420e-001	-9.541345e-002
2395220000	-1.145535e-001	-9.810862e-002	1.496422e-001	9.779454e-002	7.414841e-001	-1.432394e-001	1.351626e-001	5.541656e-001
	1.502038e-001	9.752655e-002	-1.145823e-001	-6.101385e-002	1.382894e-001	5.531968e-001	7.492390e-001	-1.395932e-001
	7.413217e-001	-1.433582e-001	1.382530e-001	5.542044e-001	-1.326391e-001	-1.274454e-001	1.128465e-001	1.040177e-001
	1.353688e-001	5.540191e-001	7.503156e-001	-1.392784e-001	1.127775e-001	1.042322e-001	-1.135322e-001	-9.320677e-002
2400210000	-1.164879e-001	-9.566492e-002	1.515990e-001	9.649492e-002	7.386798e-001	-1.539869e-001	1.433356e-001	5.521881e-001
	1.519130e-001	9.624064e-002	-1.155946e-001	-5.842492e-002	1.466660e-001	5.512508e-001	7.466315e-001	-1.505591e-001
	7.385683e-001	-1.541124e-001	1.466640e-001	5.522556e-001	-1.345991e-001	-1.253003e-001	1.143934e-001	1.033634e-001
	1.435539e-001	5.521107e-001	7.477428e-001	-1.502774e-001	1.142211e-001	1.035159e-001	-1.155272e-001	-9.101046e-002
2405200000	-1.186094e-001	-9.318611e-002	1.534152e-001	9.525032e-002	7.357136e-001	-1.644745e-001	1.514975e-001	5.502469e-001
	1.537448e-001	9.495497e-002	-1.168384e-001	-5.563699e-002	1.550037e-001	5.491355e-001	7.438939e-001	-1.615013e-001
	7.355737e-001	-1.646646e-001	1.550158e-001	5.501678e-001	-1.365015e-001	-1.231677e-001	1.158401e-001	1.028891e-001
	1.517215e-001	5.500972e-001	7.449504e-001	-1.611937e-001	1.158894e-001	1.029639e-001	-1.173793e-001	-8.864011e-002
2410190000	-1.206940e-001	-9.048944e-002	1.550333e-001	9.401089e-002	7.327637e-001	-1.750710e-001	1.597886e-001	5.481416e-001
	1.555562e-001	9.371770e-002	-1.180314e-001	-5.257818e-002	1.633170e-001	5.470072e-001	7.409015e-001	-1.725588e-001
	7.324853e-001	-1.752515e-001	1.633561e-001	5.480610e-001	-1.384109e-001	-1.208349e-001	1.173807e-001	1.025455e-001
	1.599731e-001	5.480093e-001	7.420949e-001	-1.721983e-001	1.172099e-001	1.025599e-001	-1.191607e-001	-8.627757e-002
2415180000	-1.229486e-001	-8.749541e-002	1.567307e-001	9.258851e-002	7.294940e-001	-1.857447e-001	1.680032e-001	5.460137e-001
	1.572734e-001	9.245801e-002	-1.192687e-001	-4.957903e-002	1.716485e-001	5.447563e-001	7.377366e-001	-1.835521e-001
	7.292768e-001	-1.858716e-001	1.715716e-001	5.458112e-001	-1.405769e-001	-1.184938e-001	1.187955e-001	1.021289e-001
	1.681845e-001	5.458187e-001	7.389098e-001	-1.831919e-001	1.187608e-001	1.022186e-001	-1.210767e-001	-8.371129e-002
2420170000	-1.249750e-001	-8.449207e-002	1.582982e-001	9.125548e-002	7.260719e-001	-1.963230e-001	1.762209e-001	5.438299e-001
	1.589470e-001	9.107668e-002	-1.205981e-001	-4.653822e-002	1.798851e-001	5.424514e-001	7.343259e-001	-1.944917e-001
	7.259245e-001	-1.965253e-001	1.798476e-001	5.435902e-001	-1.429184e-001	-1.161343e-001	1.202912e-001	1.015110e-001
	1.763729e-001	5.436337e-001	7.355343e-001	-1.941470e-001	1.202809e-001	1.015357e-001	-1.229164e-001	-8.112118e-002
2425160000	-1.272164e-001	-8.166613e-002	1.602507e-001	8.961288e-002	7.225187e-001	-2.068942e-001	1.845050e-001	5.416197e-001
	1.606101e-001	8.949824e-002	-1.220164e-001	-4.350804e-002	1.882084e-001	5.401642e-001	7.307149e-001	-2.054200e-001
	7.223382e-001	-2.070688e-001	1.881237e-001	5.412400e-001	-1.453672e-001	-1.135260e-001	1.216472e-001	1.007768e-001
	1.846147e-001	5.413891e-001	7.319221e-001	-2.050310e-001	1.217506e-001	1.009411e-001	-1.248177e-001	-7.855557e-002
2430150000	-1.294807e-001	-7.865177e-002	1.619350e-001	8.793660e-002	7.188351e-001	-2.173150e-001	1.928100e-001	5.392228e-001
	1.623717e-001	8.798045e-002	-1.234935e-001	-4.062082e-002	1.965246e-001	5.378233e-001	7.269158e-001	-2.161739e-001
	7.186295e-001	-2.174956e-001	1.964640e-001	5.388914e-001	-1.477840e-001	-1.110643e-001	1.233118e-001	1.000150e-001
	1.928967e-001	5.390045e-001	7.281945e-001	-2.157227e-001	1.233112e-001	1.000472e-001	-1.267422e-001	-7.597127e-002
2435140000	-1.317513e-001	-7.588546e-002	1.637478e-001	8.621873e-002	7.150076e-001	-2.275456e-001	2.010706e-001	5.367459e-001
	1.642100e-001	8.615534e-002	-1.249851e-001	-3.780891e-002	2.048753e-001	5.352952e-001	7.230087e-001	-2.266809e-001
	7.148082e-001	-2.277507e-001	2.048072e-001	5.363677e-001	-1.505753e-001	-1.085395e-001	1.247293e-001	9.896804e-002
	2.012134e-001	5.364930e-001	7.242963e-001	-2.263036e-001	1.247884e-001	9.904679e-002	-1.289426e-001	-7.346108e-002
2440130000	-1.340937e-001	-7.299148e-002	1.657619e-001	8.437179e-002	7.110936e-001	-2.377766e-001	2.093120e-001	5.340773e-001
	1.660819e-001	8.428223e-002	-1.265485e-001	-3.521004e-002	2.132467e-001	5.326520e-001	7.189860e-001	-2.370993e-001
	7.108918e-001	-2.379273e-001	2.131876e-001	5.336889e-001	-1.531715e-001	-1.059876e-001	1.263378e-001	9.790897e-002
	2.094484e-001	5.338587e-001	7.202209e-001	-2.367495e-001	1.262444e-001	9.813790e-002	-1.311078e-001	-7.107508e-002
2445120000	-1.362297e-001	-7.027519e-002	1.676900e-001	8.260201e-002	7.069468e-001	-2.478016e-001	2.175839e-001	5.312565e-001
	1.678848e-001	8.251901e-002	-1.281876e-001	-3.264182e-002	2.215450e-001	5.298085e-001	7.148019e-001	-2.473423e-001
	7.067517e-001	-2.480098e-001	2.215864e-001	5.308328e-001	-1.558852e-001	-1.034120e-001	1.280911e-001	9.700551e-002
	2.177203e-001	5.311026e-001	7.159775e-001	-2.469915e-001	1.279775e-001	9.706558e-002	-1.333088e-001	-6.881493e-002
2450110000	-1.383551e-001	-6.754101e-002	1.694327e-001	8.054600e-002	7.027312e-001	-2.577093e-001	2.257429e-001	5.282159e-001
	1.697761e-001	8.053645e-002	-1.298645e-001	-3.003502e-002	2.298524e-001	5.268349e-001	7.105013e-001	-2.573712e-001
	7.025955e-001	-2.578478e-001	2.298272e-001	5.278605e-001	-1.582574e-001	-1.009062e-001	1.297626e-001	9.602649e-002
	2.258154e-001	5.281490e-001	7.118005e-001	-2.570889e-001	1.295937e-001	9.625346e-002	-1.355615e-001	-6.657487e-002
2455100000	-1.404532e-001	-6.502079e-002	1.710643e-001	7.882461e-002	6.983384e-001	-2.675390e-001	2.338594e-001	5.251624e-001
	1.714056e-001	7.868834e-002	-1.314019e-001	-2.780079e-002	2.380888e-001	5.236950e-001	7.061497e-001	-2.674046e-001
	6.982028e-001	-2.677467e-001	2.381086e-001	5.247520e-001	-1.608114e-001	-9.829300e-002	1.312348e-001	9.503808e-002
	2.340041e-001	5.250084e-001	7.073273e-001	-2.671337e-001	1.312166e-001	9.540791e-002	-1.377963e-001	-6.434985e-002
2460090000	-1.422809e-001	-6.242860e-002	1.726894e-001	7.705942e-002	6.937572e-001	-2.774369e-001	2.420152e-001	5.218479e-001
	1.731083e-001	7.685606e-002	-1.329147e-001	-2.528179e-002	2.463487e-001	5.204224e-001	7.015165e-001	-2.774454e-001
	6.935917e-001	-2.776299e-001	2.463701e-001	5.214282e-001	-1.631710e-001	-9.584772e-002	1.327972e-001	9.424842e-002
	2.421789e-001	5.217227e-001	7.027187e-001	-2.772546e-001	1.327164e-001	9.465871e-002	-1.400626e-001	-6.199272e-002
2465080000	-1.442140e-001	-5.997992e-002	1.742056e-001	7.528678e-002	6.890511e-001	-2.873358e-001	2.502333e-001	5.184141e-001
	1.746001e-001	7.511137e-002	-1.344441e-001	-2.273576e-002	2.545885e-001	5.169794e-001	6.967195e-001	-2.875398e-001
	6.889316e-001	-2.875331e-001	2.546738e-001	5.179836e-001	-1.653346e-001	-9.324516e-002	1.341641e-001	9.345462e-002
	2.503787e-001	5.183375e-001	6.979378e-001	-2.873754e-001	1.341223e-001	9.387601e-002	-1.421289e-001	-5.969506e-002
2470070000	-1.459495e-001	-5.733447e-002	1.756511e-001	7.325494e-002	6.842229e-001	-2.971972e-001	2.583651e-001	5.148241e-001
	1.761910e-001	7.299687e-002	-1.355672e-001	-2.032916e-002	2.628047e-001	5.134122e-001	6.917749e-001	-2.976443e-001
	6.840771e-001	-2.973720e-001	2.628704e-001	5.144019e-001	-1.675603e-001	-9.076249e-002	1.355515e-001	9.253467e-002
	2.584736e-001	5.147237e-001	6.929808e-001	-2.975330e-001	1.354882e-001	9.296568e-002	-1.442145e-001	-5.738502e-002
2475060000	-1.475577e-001	-5.464930e-002	1.770178e-001	7.105662e-002	6.792935e-001	-3.070432e-001	2.664591e-001	5.110818e-001
	1.777152e-001	7.089240e-002	-1.366831e-001	-1.786089e-002	2.709745e-001	5.097572e-001	6.866586e-001	-3.076718e-001
	6.790668e-001	-3.072102e-001	2.710175e-001	5.106682e-001	-1.697108e-001	-8.824048e-002	1.370094e-001	9.162568e-002
	2.665502e-001	5.109824e-001	6.878811e-001	-3.075556e-001	1.368356e-001	9.182654e-002	-1.460215e-001	-5.501394e-002
2480050000	-1.492277e-001	-5.186820e-002	1.785529e-001	6.882197e-002	6.742145e-001	-3.167836e-001	2.743799e-001	5.072638e-001
	1.790912e-001	6.871877e-002	-1.374943e-001	-1.521909e-002	2.790042e-001	5.058900e-001	6.813552e-001	-3.176158e-001
	6.739423e-001	-3.170067e-001	2.791188e-001	5.068395e-001	-1.716977e-001	-8.568201e-002	1.384179e-001	9.047995e-002
	2.745461e-001	5.071843e-001	6.826239e-001	-3.175117e-001	1.384316e-001	9.053289e-002	-1.479658e-001	-5.276603e-002
2485040000	-1.506642e-001	-4.883070e-002	1.800689e-001	6.637062e-002	6.689763e-001	-3.264614e-001	2.822450e-001	5.033655e-001
	1.804199e-001	6.641927e-002	-1.382594e-001	-1.271852e-002	2.870826e-001	5.019978e-001	6.759778e-001	-3.274452e-001
	6.687060e-001	-3.266581e-001	2.871572e-001	5.028824e-001	-1.736259e-001	-8.320811e-002	1.400137e-001	8.926771e-002
	2.824193e-001	5.032436e-001	6.771773e-001	-3.273094e-001	1.399060e-001	8.938538e-002	-1.494643e-001	-5.039013e-002
2490030000	-1.520102e-001	-4.590874e-002	1.816570e-001	6.403852e-002	6.635169e-001	-3.360012e-001	2.900308e-001	4.993616e-001
	1.820354e-001	6.407801e-002	-1.389373e-001	-1.002737e-002	2.950943e-001	4.979084e-001	6.704030e-001	-3.370398e-001
	6.632169e-001	-3.361505e-001	2.951591e-001	4.988016e-001	-1.755421e-001	-8.076004e-002	1.416490e-001	8.786287e-002
	2.902509e-001	4.992067e-001	6.715825e-001	-3.369248e-001	1.416614e-001	8.804862e-002	-1.509354e-001	-4.813653e-002
2495020000	-1.531313e-001	-4.285490e-002	1.832859e-001	6.177546e-002	6.579914e-001	-3.453546e-001	2.977352e-001	4.952957e-001
	1.834705e-001	6.174570e-002	-1.394212e-001	-7.279091e-003	3.029955e-001	4.937526e-001	6.647781e-001	-3.465018e-001
	6.576862e-001	-3.455061e-001	3.030930e-001	4.946280e-001	-1.771733e-001	-7.807447e-002	1.433709e-001	8.668682e-002
	2.979639e-001	4.951592e-001	6.659034e-001	-3.463513e-001	1.433213e-001	8.668259e-002	-1.522334e-001	-4.579010e-002
2500010000	-1.543505e-001	-3.959992e-002	1.846190e-001	5.959706e-002	6.524470e-001	-3.545028e-001	3.053461e-001	4.911957e-001
	1.847801e-001	5.944515e-002	-1.399208e-001	-4.391152e-003	3.107379e-001	4.895610e-001	6.590077e-001	-3.557909e-001
	6.520827e-001	-3.546782e-001	3.109290e-001	4.904048e-001	-1.787392e-001	-7.506464e-002	1.450065e-001	8.554750e-002
	3.055645e-001	4.910253e-001	6.601504e-001	-3.556846e-001	1.447810e-001	8.546470e-002	-1.534168e-001	-4.337208e-002
2505000000	-1.553922e-001	-3.616264e-002	1.859261e-001	5.766000e-002	6.465516e-001	-3.635837e-001	3.129013e-001	4.869413e-001
	1.861054e-001	5.747608e-002	-1.403928e-001	-1.405776e-003	3.185249e-001	4.851383e-001	6.532108e-001	-3.649860e-001
	6.462413e-001	-3.637700e-001	3.187118e-001	4.860437e-001	-1.801347e-001	-7.217283e-002	1.467977e-001	8.442693e-002
	3.131068e-001	4.868042e-001	6.543365e-001	-3.649388e-001	1.466986e-001	8.449679e-002	-1.544271e-001	-4.072160e-002
2509990000	-1.565199e-001	-3.270638e-002	1.872231e-001	5.570813e-002	6.404976e-001	-3.726225e-001	3.204421e-001	4.826746e-001
	1.875252e-001	5.542708e-002	-1.408034e-001	1.817512e-003	3.262198e-001	4.806102e-001	6.470938e-001	-3.742078e-001
	6.401793e-001	-3.727528e-001	3.263679e-001	4.815402e-001	-1.815911e-001	-6.899312e-002	1.484556e-001	8.336817e-002
	3.205914e-001	4.825947e-001	6.483189e-001	-3.741823e-001	1.484338e-001	8.359327e-002	-1.554057e-001	-3.804439e-002
2514980000	-1.575615e-001	-2.893681e-002	1.884055e-001	5.365837e-002	6.344852e-001	-3.816074e-001	3.279990e-001	4.783629e-001
	1.887007e-001	5.335893e-002	-1.414648e-001	5.163440e-003	3.338146e-001	4.760341e-001	6.408709e-001	-3.833848e-001
	6.340841e-001	-3.818036e-001	3.339836e-001	4.769502e-001	-1.829241e-001	-6.541959e-002	1.499910e-001	8.234367e-002
	3.281175e-001	4.782957e-001	6.420631e-001	-3.833797e-001	1.498217e-001	8.250778e-002	-1.562075e-001	-3.509269e-002
2519970000	-1.585709e-001	-2.504812e-002	1.894714e-001	5.154048e-002	6.281594e-001	-3.905717e-001	3.356312e-001	4.739272e-001
	1.899155e-001	5.122379e-002	-1.422217e-001	8.316847e-003	3.414394e-001	4.713226e-001	6.344292e-001	-3.925225e-001
	6.277957e-001	-3.907734e-001	3.416140e-001	4.722804e-001	-1.843428e-001	-6.193285e-002	1.515445e-001	8.136611e-002
	3.357015e-001	4.738154e-001	6.356277e-001	-3.925169e-001	1.514042e-001	8.144249e-002	-1.569508e-001	-3.214815e-002
2524960000	-1.597339e-001	-2.125294e-002	1.907042e-001	4.917665e-002	6.216745e-001	-3.993691e-001	3.431816e-001	4.692915e-001
	1.911956e-001	4.908117e-002	-1.429688e-001	1.195932e-002	3.489796e-001	4.665099e-001	6.279297e-001	-4.014245e-001
	6.213103e-001	-3.995224e-001	3.490731e-001	4.674265e-001	-1.858119e-001	-5.843701e-002	1.531148e-001	8.011038e-002
	3.432523e-001	4.691813e-001	6.292322e-001	-4.014491e-001	1.529642e-001	8.026816e-002	-1.578159e-001	-2.928727e-002
2529950000	-1.608550e-001	-1.735652e-002	1.921100e-001	4.676531e-002	6.150896e-001	-4.080481e-001	3.506386e-001	4.645830e-001
	1.922747e-001	4.670289e-002	-1.439048e-001	1.531879e-002	3.563622e-001	4.615946e-001	6.213671e-001	-4.102600e-001
	6.147676e-001	-4.082440e-001	3.565141e-001	4.624078e-001	-1.872986e-001	-5.486795e-002	1.546443e-001	7.876377e-002
	3.506929e-001	4.644718e-001	6.225372e-001	-4.102236e-001	1.545536e-001	7.893710e-002	-1.586588e-001	-2.618161e-002
2534940000	-1.621509e-001	-1.375353e-002	1.936447e-001	4.425348e-002	6.084008e-001	-4.164950e-001	3.579842e-001	4.596429e-001
	1.936020e-001	4.442440e-002	-1.447571e-001	1.879748e-002	3.636754e-001	4.564657e-001	6.146819e-001	-4.188540e-001
	6.079665e-001	-4.166864e-001	3.638073e-001	4.572535e-001	-1.887013e-001	-5.114247e-002	1.564805e-001	7.735381e-002
	3.581165e-001	4.595086e-001	6.158716e-001	-4.189452e-001	1.564372e-001	7.750498e-002	-1.597462e-001	-2.326334e-002
2539930000	-1.632264e-001	-1.023048e-002	1.951730e-001	4.193488e-002	6.015870e-001	-4.247007e-001	3.652015e-001	4.545821e-001
	1.952079e-001	4.191751e-002	-1.457783e-001	2.229714e-002	3.708302e-001	4.512580e-001	6.078703e-001	-4.274252e-001
	6.010876e-001	-4.249555e-001	3.710390e-001	4.519945e-001	-1.901929e-001	-4.772173e-002	1.584979e-001	7.580740e-002
	3.653345e-001	4.544758e-001	6.090229e-001	-4.275087e-001	1.584310e-001	7.588982e-002	-1.606744e-001	-2.010681e-002
2544920000	-1.644518e-001	-6.684119e-003	1.967183e-001	3.935135e-002	5.947192e-001	-4.327747e-001	3.722423e-001	4.494772e-001
	1.965936e-001	3.944741e-002	-1.466821e-001	2.581689e-002	3.778343e-001	4.460102e-001	6.009880e-001	-4.357801e-001
	5.942067e-001	-4.330096e-001	3.780324e-001	4.467147e-001	-1.915945e-001	-4.426932e-002	1.604728e-001	7.416323e-002
	3.724494e-001	4.493377e-001	6.020402e-001	-4.359260e-001	1.604216e-001	7.441208e-002	-1.615819e-001	-1.696506e-002
2549910000	-1.655485e-001	-3.393365e-003	1.979833e-001	3.687007e-002	5.877483e-001	-4.405996e-001	3.791265e-001	4.442938e-001
	1.979483e-001	3.676945e-002	-1.473446e-001	2.907419e-002	3.847101e-001	4.407316e-001	5.939047e-001	-4.438522e-001
	5.872911e-001	-4.408532e-001	3.849483e-001	4.414322e-001	-1.930730e-001	-4.097307e-002	1.625362e-001	7.241331e-002
	3.793603e-001	4.441553e-001	5.949037e-001	-4.440874e-001	1.625639e-001	7.258251e-002	-1.623981e-001	-1.404355e-002
2554900000	-1.665606e-001	-1.647697e-004	1.991719e-001	3.453461e-002	5.807278e-001	-4.484036e-001	3.859835e-001	4.390063e-001
	1.992590e-001	3.438041e-002	-1.480839e-001	3.223396e-002	3.914814e-001	4.353758e-001	5.866401e-001	-4.517889e-001
	5.801630e-001	-4.486137e-001	3.917876e-001	4.361837e-001	-1.946789e-001	-3.755878e-002	1.645047e-001	7.078897e-002
	3.862121e-001	4.388846e-001	5.876790e-001	-4.521226e-001	1.642993e-001	7.080578e-002	-1.632671e-001	-1.106714e-002
2559890000	-1.676729e-001	3.062182e-003	2.003518e-001	3.216345e-002	5.734482e-001	-4.561363e-001	3.927215e-001	4.336470e-001
	2.004196e-001	3.169606e-002	-1.486645e-001	3.529513e-002	3.983638e-001	4.299495e-001	5.792836e-001	-4.596261e-001
	5.729366e-001	-4.563003e-001	3.986969e-001	4.306767e-001	-1.961860e-001	-3.427008e-002	1.662859e-001	6.881766e-002
	3.929844e-001	4.334719e-001	5.801792e-001	-4.600553e-001	1.661574e-001	6.916371e-002	-1.641175e-001	-8.061139e-003
2564880000	-1.686125e-001	6.304540e-003	2.012305e-001	2.966016e-002	5.659880e-001	-4.638872e-001	3.994695e-001	4.282459e-001
	2.014797e-001	2.930272e-002	-1.492193e-001	3.822859e-002	4.052790e-001	4.244990e-001	5.717256e-001	-4.674166e-001
	5.654966e-001	-4.639906e-001	4.056118e-001	4.251550e-001	-1.976202e-001	-3.109874e-002	1.678376e-001	6.712442e-002
	3.998092e-001	4.279953e-001	5.726352e-001	-4.678684e-001	1.676268e-001	6.733115e-002	-1.647095e-001	-5.184933e-003
2569870000	-1.694075e-001	9.306501e-003	2.019584e-001	2.691863e-002	5.585097e-001	-4.715038e-001	4.062383e-001	4.227967e-001
	2.023014e-001	2.660586e-002	-1.497281e-001	4.105650e-002	4.122216e-001	4.188276e-001	5.641149e-001	-4.751119e-001
	5.580584e-001	-4.716542e-001	4.124265e-001	4.195184e-001	-1.991175e-001	-2.787700e-002	1.691147e-001	6.513923e-002
	4.065965e-001	4.225008e-001	5.650526e-001	-4.755880e-001	1.689854e-001	6.547211e-002	-1.655647e-001	-2.377317e-003
2574860000	-1.703118e-001	1.236321e-002	2.026683e-001	2.414058e-002	5.509488e-001	-4.789437e-001	4.130237e-001	4.172313e-001
	2.030153e-001	2.393728e-002	-1.498984e-001	4.387514e-002	4.189541e-001	4.130070e-001	5.564105e-001	-4.827794e-001
	5.504223e-001	-4.791704e-001	4.192489e-001	4.136805e-001	-2.005962e-001	-2.479993e-002	1.703724e-001	6.328792e-002
	4.134426e-001	4.168654e-001	5.573455e-001	-4.832629e-001	1.702244e-001	6.328147e-002	-1.662702e-001	4.850518e-004
2579850000	-1.709639e-001	1.543841e-002	2.032676e-001	2.118411e-002	5.432739e-001	-4.863548e-001	4.197324e-001	4.115174e-001
	2.035549e-001	2.114951e-002	-1.500129e-001	4.671942e-002	4.256766e-001	4.070812e-001	5.486022e-001	-4.903447e-001
	5.428222e-001	-4.866311e-001	4.259164e-001	4.077812e-001	-2.019712e-001	-2.168508e-002	1.716042e-001	6.117882e-002
	4.201883e-001	4.111547e-001	5.495207e-001	-4.907206e-001	1.713546e-001	6.128512e-002	-1.670980e-001	3.156676e-003
2584840000	-1.716437e-001	1.835220e-002	2.042157e-001	1.816201e-002	5.355897e-001	-4.935459e-001	4.264049e-001	4.057021e-001
	2.043361e-001	1.830302e-002	-1.498812e-001	4.942422e-002	4.322408e-001	4.010301e-001	5.407228e-001	-4.976924e-001
	5.350621e-001	-4.938169e-001	4.325896e-001	4.016861e-001	-2.030959e-001	-1.863943e-002	1.729656e-001	5.913620e-002
	4.268742e-001	4.052304e-001	5.416324e-001	-4.980385e-001	1.727219e-001	5.896349e-002	-1.676549e-001	5.783362e-003
2589830000	-1.721945e-001	2.170664e-002	2.050768e-001	1.540258e-002	5.277986e-001	-5.006710e-001	4.329446e-001	3.996754e-001
	2.051284e-001	1.526706e-002	-1.495386e-001	5.220830e-002	4.387556e-001	3.949353e-001	5.327876e-001	-5.048501e-001
	5.272974e-001	-5.008681e-001	4.391402e-001	3.955329e-001	-2.042474e-001	-1.561142e-002	1.744128e-001	5.699752e-002
	4.333960e-001	3.991692e-001	5.335994e-001	-5.051936e-001	1.742718e-001	5.695177e-002	-1.681196e-001	8.652197e-003
2594820000	-1.724672e-001	2.505317e-002	2.058492e-001	1.246273e-002	5.199159e-001	-5.076424e-001	4.394237e-001	3.936403e-001
	2.058996e-001	1.239185e-002	-1.491341e-001	5.497318e-002	4.451658e-001	3.887438e-001	5.248368e-001	-5.117787e-001
	5.194443e-001	-5.078255e-001	4.455672e-001	3.893522e-001	-2.050501e-001	-1.256443e-002	1.757978e-001	5.485155e-002
	4.398567e-001	3.930943e-001	5.256347e-001	-5.121459e-001	1.757832e-001	5.485748e-002	-1.686165e-001	1.127201e-002
2599810000	-1.726959e-001	2.841183e-002	2.066862e-001	9.788561e-003	5.119870e-001	-5.143314e-001	4.457341e-001	3.874596e-001
	2.067762e-001	9.562831e-003	-1.485879e-001	5.780104e-002	4.514372e-001	3.825338e-001	5.168612e-001	-5.185203e-001
	5.115137e-001	-5.144826e-001	4.519808e-001	3.831764e-001	-2.056349e-001	-9.417068e-003	1.773425e-001	5.275887e-002
	4.462172e-001	3.869316e-001	5.175877e-001	-5.189492e-001	1.773417e-001	5.286047e-002	-1.689641e-001	1.415741e-002
2604800000	-1.727491e-001	3.195737e-002	2.074437e-001	7.058907e-003	5.039918e-001	-5.209953e-001	4.519912e-001	3.812857e-001
	2.073963e-001	6.830437e-003	-1.479029e-001	6.076914e-002	4.576894e-001	3.762941e-001	5.088153e-001	-5.252533e-001
	5.034753e-001	-5.210785e-001	4.582373e-001	3.768443e-001	-2.059891e-001	-6.329894e-003	1.788221e-001	5.088680e-002
	4.524441e-001	3.807328e-001	5.094880e-001	-5.256180e-001	1.786540e-001	5.090826e-002	-1.688433e-001	1.706931e-002
2609790000	-1.727998e-001	3.550968e-002	2.081889e-001	4.569063e-003	4.957277e-001	-5.274343e-001	4.582086e-001	3.749146e-001
	2.081281e-001	4.207849e-003	-1.470934e-001	6.385734e-002	4.638450e-001	3.698401e-001	5.005796e-001	-5.317907e-001
	4.952201e-001	-5.275831e-001	4.644740e-001	3.704745e-001	-2.063322e-001	-2.924713e-003	1.801670e-001	4.896500e-002
	4.586576e-001	3.743762e-001	5.011587e-001	-5.322958e-001	1.801672e-001	4.911510e-002	-1.691194e-001	2.006721e-002
2614780000	-1.725822e-001	3.929414e-002	2.086830e-001	2.013512e-003	4.872868e-001	-5.338814e-001	4.644508e-001	3.684540e-001
	2.087631e-001	1.590382e-003	-1.463254e-001	6.689336e-002	4.700384e-001	3.633053e-001	4.921167e-001	-5.383020e-001
	4.868706e-001	-5.339964e-001	4.706259e-001	3.639954e-001	-2.064877e-001	2.561596e-004	1.816909e-001	4.726976e-002
	4.648322e-001	3.679533e-001	4.927582e-001	-5.389122e-001	1.815103e-001	4.741049e-002	-1.690618e-001	2.315950e-002
2619770000	-1.726297e-001	4.305489e-002	2.091753e-001	-7.839583e-004	4.789228e-001	-5.401458e-001	4.705918e-001	3.619652e-001
	2.094060e-001	-9.917010e-004	-1.456324e-001	7.024920e-002	4.760717e-001	3.566755e-001	4.835288e-001	-5.447753e-001
	4.783299e-001	-5.401849e-001	4.766615e-001	3.573795e-001	-2.065105e-001	3.849633e-003	1.829138e-001	4.550988e-002
	4.710298e-001	3.613813e-001	4.843189e-001	-5.453165e-001	1.828397e-001	4.552201e-002	-1.690513e-001	2.642391e-002
2624760000	-1.726258e-001	4.684311e-002	2.097280e-001	-3.538116e-003	4.703290e-001	-5.462219e-001	4.766499e-001	3.553081e-001
	2.100459e-001	-3.848618e-003	-1.451412e-001	7.357012e-002	4.821015e-001	3.500058e-001	4.748900e-001	-5.510064e-001
	4.697612e-001	-5.462499e-001	4.825665e-001	3.506419e-001	-2.065202e-001	7.296977e-003	1.842326e-001	4.360962e-002
	4.770229e-001	3.547855e-001	4.756860e-001	-5.515527e-001	1.841738e-001	4.358192e-002	-1.691096e-001	2.968285e-002
2629750000	-1.727729e-001	5.063990e-002	2.104195e-001	-6.568638e-003	4.618158e-001	-5.520773e-001	4.825959e-001	3.485397e-001
	2.107303e-001	-6.842927e-003	-1.444755e-001	7.684083e-002	4.879155e-001	3.431941e-001	4.662111e-001	-5.570244e-001
	4.611792e-001	-5.519649e-001	4.883913e-001	3.438310e-001	-2.065956e-001	1.091431e-002	1.856139e-001	4.148574e-002
	4.829630e-001	3.479107e-001	4.670314e-001	-5.576081e-001	1.855325e-001	4.152332e-002	-1.692912e-001	3.290284e-002
2634740000	-1.729537e-001	5.460392e-002	2.113334e-001	-9.705552e-003	4.532932e-001	-5.575551e-001	4.883043e-001	3.416363e-001
	2.113888e-001	-9.990868e-003	-1.441486e-001	8.012547e-002	4.935897e-001	3.361971e-001	4.576627e-001	-5.628480e-001
	4.526454e-001	-5.575791e-001	4.940645e-001	3.368113e-001	-2.066919e-001	1.431864e-002	1.870692e-001	3.908768e-002
	4.887315e-001	3.410127e-001	4.583135e-001	-5.633674e-001	1.872574e-001	3.904811e-002	-1.695349e-001	3.642732e-002
2639730000	-1.732283e-001	5.838968e-002	2.122954e-001	-1.290659e-002	4.447954e-001	-5.629497e-001	4.938974e-001	3.346534e-001
	2.121255e-001	-1.305143e-002	-1.436602e-001	8.324419e-002	4.991426e-001	3.292157e-001	4.490394e-001	-5.684701e-001
	4.441149e-001	-5.629848e-001	4.996436e-001	3.298786e-001	-2.067928e-001	1.770628e-002	1.886481e-001	3.665105e-002
	4.943916e-001	3.339648e-001	4.496111e-001	-5.690062e-001	1.887484e-001	3.648377e-002	-1.697846e-001	3.986851e-002
2644720000	-1.732645e-001	6.216356e-002	2.130830e-001	-1.606913e-002	4.363648e-001	-5.681454e-001	4.992339e-001	3.276325e-001
	2.128864e-001	-1.632072e-002	-1.434142e-001	8.654428e-002	5.045200e-001	3.221106e-001	4.404896e-001	-5.738651e-001
	4.356111e-001	-5.681675e-001	5.050687e-001	3.227989e-001	-2.069359e-001	2.111199e-002	1.902702e-001	3.406445e-002
	4.997909e-001	3.268999e-001	4.409878e-001	-5.744610e-001	1.904397e-001	3.404272e-002	-1.701143e-001	4.324934e-002
2649710000	-1.734468e-001	6.590736e-002	2.136233e-001	-1.915175e-002	4.279268e-001	-5.732025e-001	5.045046e-001	3.206020e-001
	2.134871e-001	-1.960226e-002	-1.431608e-001	8.954803e-002	5.097937e-001	3.150251e-001	4.318509e-001	-5.791525e-001
	4.271602e-001	-5.732428e-001	5.103441e-001	3.157465e-001	-2.072936e-001	2.450819e-002	1.918077e-001	3.157189e-002
	5.050239e-001	3.198451e-001	4.322487e-001	-5.797491e-001	1.919167e-001	3.164884e-002	-1.704592e-001	4.647207e-002
2654700000	-1.732785e-001	6.952187e-002	2.141208e-001	-2.232340e-002	4.194620e-001	-5.782010e-001	5.096026e-001	3.135417e-001
	2.139994e-001	-2.290842e-002	-1.428867e-001	9.249132e-002	5.149781e-001	3.079218e-001	4.231932e-001	-5.843166e-001
	4.186960e-001	-5.782194e-001	5.155169e-001	3.086068e-001	-2.075563e-001	2.785789e-002	1.931902e-001	2.900529e-002
	5.101033e-001	3.127371e-001	4.234983e-001	-5.849163e-001	1.933229e-001	2.910918e-002	-1.707823e-001	4.968847e-002
2659690000	-1.732321e-001	7.314361e-002	2.143374e-001	-2.539226e-002	4.108027e-001	-5.831320e-001	5.147090e-001	3.063191e-001
	2.143523e-001	-2.598312e-002	-1.426407e-001	9.546938e-002	5.200906e-001	3.006649e-001	4.141926e-001	-5.893226e-001
	4.099543e-001	-5.831698e-001	5.207255e-001	3.013559e-001	-2.078763e-001	3.134056e-002	1.946933e-001	2.673490e-002
	5.151615e-001	3.055201e-001	4.145268e-001	-5.900639e-001	1.947602e-001	2.656624e-002	-1.712037e-001	5.276287e-002
2664680000	-1.730721e-001	7.655950e-002	2.143939e-001	-2.849942e-002	4.020067e-001	-5.880642e-001	5.197384e-001	2.990648e-001
	2.143931e-001	-2.924433e-002	-1.423266e-001	9.833651e-002	5.252564e-001	2.933124e-001	4.051411e-001	-5.942883e-001
	4.012484e-001	-5.880322e-001	5.257873e-001	2.939813e-001	-2.080806e-001	3.479048e-002	1.957797e-001	2.412026e-002
	5.202260e-001	2.982190e-001	4.054491e-001	-5.950177e-001	1.958903e-001	2.427958e-002	-1.715668e-001	5.581386e-002
2669670000	-1.728048e-001	8.013007e-002	2.140463e-001	-3.165751e-002	3.930660e-001	-5.929875e-001	5.247481e-001	2.916421e-001
	2.143845e-001	-3.231497e-002	-1.418786e-001	1.009695e-001	5.303442e-001	2.858434e-001	3.959519e-001	-5.991244e-001
	3.923149e-001	-5.928800e-001	5.308035e-001	2.865244e-001	-2.083400e-001	3.831759e-002	1.969191e-001	2.182736e-002
	5.251372e-001	2.907830e-001	3.962995e-001	-6.000249e-001	1.967915e-001	2.189274e-002	-1.720602e-001	5.879973e-002
2674660000	-1.722345e-001	8.347036e-002	2.139979e-001	-3.493383e-002	3.840294e-001	-5.978033e-001	5.296009e-001	2.842056e-001
	2.142361e-001	-3.545896e-002	-1.414673e-001	1.035904e-001	5.352352e-001	2.782753e-001	3.867259e-001	-6.039055e-001
	3.833450e-001	-5.976573e-001	5.357079e-001	2.789237e-001	-2.085763e-001	4.179309e-002	1.977118e-001	1.919773e-002
	5.299189e-001	2.832766e-001	3.871535e-001	-6.047400e-001	1.977300e-001	1.943965e-002	-1.725624e-001	6.166945e-002
2679650000	-1.715682e-001	8.672265e-002	2.138527e-001	-3.840051e-002	3.751313e-001	-6.024208e-001	5.344039e-001	2.766923e-001
	2.140774e-001	-3.853908e-002	-1.408170e-001	1.058995e-001	5.399951e-001	2.706095e-001	3.774071e-001	-6.085604e-001
	3.742874e-001	-6.023792e-001	5.404364e-001	2.712225e-001	-2.087606e-001	4.516794e-002	1.986363e-001	1.667157e-002
	5.346868e-001	2.757673e-001	3.779524e-001	-6.093767e-001	1.986338e-001	1.655631e-002	-1.728807e-001	6.439963e-002
2684640000	-1.707358e-001	8.991955e-002	2.136768e-001	-4.169594e-002	3.660721e-001	-6.068718e-001	5.390051e-001	2.690485e-001
	2.139914e-001	-4.202712e-002	-1.400806e-001	1.081655e-001	5.446229e-001	2.628551e-001	3.681888e-001	-6.130030e-001
	3.652479e-001	-6.068217e-001	5.450772e-001	2.635067e-001	-2.087229e-001	4.850977e-002	1.996526e-001	1.372313e-002
	5.392426e-001	2.681197e-001	3.687004e-001	-6.138384e-001	1.997002e-001	1.360996e-002	-1.732400e-001	6.729250e-002
2689630000	-1.697072e-001	9.311583e-002	2.137658e-001	-4.519929e-002	3.569340e-001	-6.111777e-001	5.435194e-001	2.613905e-001
	2.140092e-001	-4.545068e-002	-1.392130e-001	1.106177e-001	5.491488e-001	2.551539e-001	3.589610e-001	-6.172965e-001
	3.561756e-001	-6.110415e-001	5.495927e-001	2.556719e-001	-2.085457e-001	5.157483e-002	2.006086e-001	1.071940e-002
	5.436850e-001	2.604081e-001	3.594472e-001	-6.180658e-001	2.007173e-001	1.079254e-002	-1.733670e-001	6.988144e-002
2694620000	-1.685549e-001	9.621758e-002	2.138297e-001	-4.847495e-002	3.478457e-001	-6.152591e-001	5.478836e-001	2.536799e-001
	2.138886e-001	-4.894970e-002	-1.382911e-001	1.130002e-001	5.535347e-001	2.473331e-001	3.497826e-001	-6.213493e-001
	3.471082e-001	-6.151197e-001	5.540530e-001	2.478148e-001	-2.083282e-001	5.473937e-002	2.018311e-001	7.766574e-003
	5.480466e-001	2.527997e-001	3.501844e-001	-6.221241e-001	2.017957e-001	7.795453e-003	-1.732142e-001	7.260393e-002
2699610000	-1.674065e-001	9.943795e-002	2.137473e-001	-5.172895e-002	3.387946e-001	-6.191575e-001	5.520816e-001	2.460582e-001
	2.139341e-001	-5.222189e-002	-1.371189e-001	1.154219e-001	5.578251e-001	2.395876e-001	3.406288e-001	-6.252811e-001
	3.379595e-001	-6.189869e-001	5.583967e-001	2.400726e-001	-2.078266e-001	5.782513e-002	2.028968e-001	4.748560e-003
	5.523237e-001	2.450180e-001	3.410067e-001	-6.261042e-001	2.027771e-001	4.942171e-003	-1.729722e-001	7.534563e-002
2704600000	-1.661260e-001	1.026313e-001	2.136406e-001	-5.518164e-002	3.296602e-001	-6.228328e-001	5.563128e-001	2.383072e-001
	2.135214e-001	-5.563084e-002	-1.357340e-001	1.180509e-001	5.620165e-001	2.317516e-001	3.313075e-001	-6.291103e-001
	3.289396e-001	-6.226673e-001	5.625835e-001	2.321903e-001	-2.072130e-001	6.081399e-002	2.039247e-001	2.022221e-003
	5.564044e-001	2.373226e-001	3.317686e-001	-6.299423e-001	2.038621e-001	2.091249e-003	-1.725261e-001	7.800618e-002
2709590000	-1.646579e-001	1.058504e-001	2.133592e-001	-5.830996e-002	3.204096e-001	-6.263140e-001	5.603947e-001	2.305131e-001
	2.133743e-001	-5.883220e-002	-1.343837e-001	1.206997e-001	5.661540e-001	2.237929e-001	3.218381e-001	-6.328211e-001
	3.197041e-001	-6.262161e-001	5.666926e-001	2.242881e-001	-2.064160e-001	6.384381e-002	2.049129e-001	-7.893711e-004
	5.605167e-001	2.295746e-001	3.222567e-001	-6.336979e-001	2.049075e-001	-6.416187e-004	-1.717895e-001	8.080652e-002
2714580000	-1.634138e-001	1.091541e-001	2.131013e-001	-6.144310e-002	3.111196e-001	-6.296713e-001	5.644744e-001	2.225468e-001
	2.130518e-001	-6.207142e-002	-1.328687e-001	1.235100e-001	5.702037e-001	2.157090e-001	3.122769e-001	-6.363153e-001
	3.104259e-001	-6.296548e-001	5.708268e-001	2.162286e-001	-2.055220e-001	6.699515e-002	2.060484e-001	-3.566928e-003
	5.646129e-001	2.216460e-001	3.127217e-001	-6.371677e-001	2.059386e-001	-3.469849e-003	-1.709199e-001	8.352619e-002
2719570000	-1.620791e-001	1.128020e-001	2.125834e-001	-6.478100e-002	3.017772e-001	-6.329923e-001	5.685200e-001	2.147027e-001
	2.126429e-001	-6.531491e-002	-1.313138e-001	1.262840e-001	5.741751e-001	2.075929e-001	3.027398e-001	-6.397287e-001
	3.011452e-001	-6.328780e-001	5.747086e-001	2.081908e-001	-2.045994e-001	7.020738e-002	2.066820e-001	-6.303899e-003
	5.685714e-001	2.136986e-001	3.031854e-001	-6.406261e-001	2.067847e-001	-6.277589e-003	-1.700925e-001	8.644630e-002
2724560000	-1.604515e-001	1.162463e-001	2.121216e-001	-6.832407e-002	2.925082e-001	-6.361598e-001	5.724709e-001	2.066973e-001
	2.120951e-001	-6.881218e-002	-1.298352e-001	1.293674e-001	5.780467e-001	1.994488e-001	2.931816e-001	-6.429963e-001
	2.918481e-001	-6.360315e-001	5.784915e-001	1.999726e-001	-2.035049e-001	7.346903e-002	2.075457e-001	-9.286462e-003
	5.724859e-001	2.057472e-001	2.936748e-001	-6.437445e-001	2.073798e-001	-9.374794e-003	-1.690560e-001	8.929713e-002
2729550000	-1.590874e-001	1.198234e-001	2.114517e-001	-7.172867e-002	2.833121e-001	-6.390535e-001	5.762552e-001	1.986270e-001
	2.114445e-001	-7.232609e-002	-1.283381e-001	1.320533e-001	5.817210e-001	1.911647e-001	2.837395e-001	-6.460642e-001
	2.827229e-001	-6.389739e-001	5.822086e-001	1.917664e-001	-2.025400e-001	7.680276e-002	2.080415e-001	-1.255439e-002
	5.761938e-001	1.976201e-001	2.841151e-001	-6.468243e-001	2.082107e-001	-1.263802e-002	-1.682582e-001	9.216509e-002
2734540000	-1.576383e-001	1.232972e-001	2.110573e-001	-7.541236e-002	2.742046e-001	-6.418387e-001	5.798929e-001	1.904879e-001
	2.108359e-001	-7.574721e-002	-1.270003e-001	1.350398e-001	5.852368e-001	1.829256e-001	2.742569e-001	-6.489515e-001
	2.735324e-001	-6.417893e-001	5.857391e-001	1.834774e-001	-2.015625e-001	8.015762e-002	2.087414e-001	-1.583599e-002
	5.798652e-001	1.894929e-001	2.746718e-001	-6.496465e-001	2.088225e-001	-1.599147e-002	-1.673771e-001	9.516323e-002
2739530000	-1.563018e-001	1.267861e-001	2.105037e-001	-7.886301e-002	2.651547e-001	-6.445426e-001	5.833914e-001	1.823310e-001
	2.101339e-001	-7.944145e-002	-1.257465e-001	1.380504e-001	5.886595e-001	1.746167e-001	2.648798e-001	-6.517600e-001
	2.645302e-001	-6.444500e-001	5.891845e-001	1.751295e-001	-2.004413e-001	8.353505e-002	2.091517e-001	-1.918694e-002
	5.833278e-001	1.812624e-001	2.652093e-001	-6.523513e-001	2.094280e-001	-1.941761e-002	-1.665823e-001	9.810870e-002
2744520000	-1.548220e-001	1.300472e-001	2.098667e-001	-8.234411e-002	2.561546e-001	-6.470393e-001	5.866575e-001	1.741850e-001
	2.095604e-001	-8.287548e-002	-1.246200e-001	1.409088e-001	5.919336e-001	1.662922e-001	2.555700e-001	-6.542085e-001
	2.554201e-001	-6.469665e-001	5.924881e-001	1.667889e-001	-1.994629e-001	8.704595e-002	2.098925e-001	-2.273516e-002
	5.866940e-001	1.731204e-001	2.558061e-001	-6.548567e-001	2.101098e-001	-2.284684e-002	-1.657568e-001	1.010773e-001
2749510000	-1.536157e-001	1.335904e-001	2.093135e-001	-8.573220e-002	2.471870e-001	-6.495541e-001	5.898664e-001	1.659840e-001
	2.086355e-001	-8.635730e-002	-1.235758e-001	1.438655e-001	5.950541e-001	1.579728e-001	2.462902e-001	-6.565010e-001
	2.465611e-001	-6.494894e-001	5.955954e-001	1.584393e-001	-1.984413e-001	9.049682e-002	2.104342e-001	-2.603342e-002
	5.898039e-001	1.649368e-001	2.464821e-001	-6.572074e-001	2.103800e-001	-2.605910e-002	-1.650646e-001	1.039235e-001
2754500000	-1.521367e-001	1.367626e-001	2.082460e-001	-8.896047e-002	2.381469e-001	-6.518972e-001	5.928931e-001	1.578394e-001
	2.078384e-001	-8.971882e-002	-1.227126e-001	1.465102e-001	5.980873e-001	1.495801e-001	2.370088e-001	-6.587683e-001
	2.374982e-001	-6.518492e-001	5.986901e-001	1.500798e-001	-1.973285e-001	9.404859e-002	2.107781e-001	-2.925001e-002
	5.928640e-001	1.567811e-001	2.371253e-001	-6.594788e-001	2.108404e-001	-2.918559e-002	-1.642924e-001	1.068249e-001
2759490000	-1.507920e-001	1.400661e-001	2.070671e-001	-9.187699e-002	2.290006e-001	-6.542717e-001	5.958911e-001	1.495192e-001
	2.067223e-001	-9.286102e-002	-1.217752e-001	1.493754e-001	6.009465e-001	1.411030e-001	2.275706e-001	-6.608449e-001
	2.283256e-001	-6.541826e-001	6.016055e-001	1.415984e-001	-1.960698e-001	9.776105e-002	2.109979e-001	-3.236513e-002
	5.957690e-001	1.484991e-001	2.275870e-001	-6.616691e-001	2.108879e-001	-3.235549e-002	-1.637114e-001	1.096299e-001
2764480000	-1.492006e-001	1.433232e-001	2.059851e-001	-9.489066e-002	2.195920e-001	-6.564766e-001	5.987932e-001	1.411247e-001
	2.057297e-001	-9.578834e-002	-1.208937e-001	1.520173e-001	6.037865e-001	1.324579e-001	2.180132e-001	-6.628270e-001
	2.188987e-001	-6.563734e-001	6.044393e-001	1.329738e-001	-1.948960e-001	1.014345e-001	2.111726e-001	-3.534558e-002
	5.986216e-001	1.400813e-001	2.180119e-001	-6.636375e-001	2.110597e-001	-3.521894e-002	-1.631380e-001	1.124829e-001
2769470000	-1.475218e-001	1.464171e-001	2.045851e-001	-9.800946e-002	2.102022e-001	-6.586556e-001	6.016660e-001	1.325925e-001
	2.046177e-001	-9.897087e-002	-1.199709e-001	1.545912e-001	6.064785e-001	1.238139e-001	2.083986e-001	-6.646667e-001
	2.094487e-001	-6.584444e-001	6.071003e-001	1.243354e-001	-1.935493e-001	1.048999e-001	2.111371e-001	-3.839476e-002
	6.014047e-001	1.315691e-001	2.084200e-001	-6.655590e-001	2.109716e-001	-3.834791e-002	-1.627414e-001	1.151943e-001
2774460000	-1.458210e-001	1.493889e-001	2.032366e-001	-1.012701e-001	2.007801e-001	-6.606929e-001	6.043687e-001	1.239552e-001
	2.033266e-001	-1.019402e-001	-1.191060e-001	1.569010e-001	6.090364e-001	1.150493e-001	1.987490e-001	-6.664619e-001
	1.999466e-001	-6.604583e-001	6.096692e-001	1.155889e-001	-1.924329e-001	1.085044e-001	2.110284e-001	-4.140064e-002
	6.040344e-001	1.229828e-001	1.988161e-001	-6.673970e-001	2.107500e-001	-4.165667e-002	-1.622227e-001	1.178682e-001
2779450000	-1.438816e-001	1.522692e-001	2.020313e-001	-1.045302e-001	1.911998e-001	-6.626020e-001	6.069128e-001	1.153223e-001
	2.020911e-001	-1.050732e-001	-1.180037e-001	1.592860e-001	6.114587e-001	1.062710e-001	1.892061e-001	-6.681876e-001
	1.903757e-001	-6.622949e-001	6.120800e-001	1.067686e-001	-1.909179e-001	1.118263e-001	2.107841e-001	-4.467311e-002
	6.065515e-001	1.143058e-001	1.891858e-001	-6.690241e-001	2.106336e-001	-4.474412e-002	-1.615652e-001	1.204874e-001
2784440000	-1.419635e-001	1.549194e-001	2.008335e-001	-1.078872e-001	1.817746e-001	-6.642953e-001	6.093653e-001	1.064906e-001
	2.008006e-001	-1.082728e-001	-1.167686e-001	1.617212e-001	6.136722e-001	9.741671e-002	1.796913e-001	-6.697264e-001
	1.808833e-001	-6.640099e-001	6.143199e-001	9.788313e-002	-1.895655e-001	1.151854e-001	2.109059e-001	-4.798980e-002
	6.089506e-001	1.055968e-001	1.796551e-001	-6.705569e-001	2.106107e-001	-4.829917e-002	-1.611233e-001	1.230365e-001
2789430000	-1.398991e-001	1.575753e-001	1.995485e-001	-1.113912e-001	1.722553e-001	-6.658347e-001	6.116005e-001	9.771341e-002
	1.996194e-001	-1.117516e-001	-1.153823e-001	1.639467e-001	6.158009e-001	8.860048e-002	1.701643e-001	-6.711825e-001
	1.713841e-001	-6.653770e-001	6.164327e-001	8.901872e-002	-1.881654e-001	1.182851e-001	2.107379e-001	-5.143222e-002
	6.111571e-001	9.681924e-002	1.701816e-001	-6.719814e-001	2.105536e-001	-5.166894e-002	-1.602886e-001	1.256591e-001
2794420000	-1.376193e-001	1.602881e-001	1.983678e-001	-1.146817e-001	1.629224e-001	-6.671104e-001	6.136126e-001	8.888023e-002
	1.983299e-001	-1.149475e-001	-1.137613e-001	1.665365e-001	6.177465e-001	7.972023e-002	1.606473e-001	-6.723521e-001
	1.619867e-001	-6.667095e-001	6.183620e-001	8.002535e-002	-1.867714e-001	1.214292e-001	2.106921e-001	-5.488963e-002
	6.131169e-001	8.808880e-002	1.607839e-001	-6.731079e-001	2.103702e-001	-5.506256e-002	-1.593815e-001	1.281378e-001
2799410000	-1.352873e-001	1.629486e-001	1.971972e-001	-1.179939e-001	1.536850e-001	-6.682254e-001	6.155306e-001	8.014636e-002
	1.971657e-001	-1.182084e-001	-1.119022e-001	1.687975e-001	6.194607e-001	7.090179e-002	1.512257e-001	-6.734445e-001
	1.527579e-001	-6.677065e-001	6.202361e-001	7.124862e-002	-1.851437e-001	1.245157e-001	2.106667e-001	-5.817954e-002
	6.150287e-001	7.932818e-002	1.512936e-001	-6.741575e-001	2.103687e-001	-5.849641e-002	-1.581457e-001	1.305527e-001
2804400000	-1.328594e-001	1.655126e-001	1.957541e-001	-1.211747e-001	1.444195e-001	-6.692073e-001	6.172640e-001	7.149239e-002
	1.957371e-001	-1.215955e-001	-1.099795e-001	1.711980e-001	6.211760e-001	6.214691e-002	1.418219e-001	-6.743769e-001
	1.435220e-001	-6.686790e-001	6.219265e-001	6.247900e-002	-1.835672e-001	1.274933e-001	2.104328e-001	-6.156374e-002
	6.166914e-001	7.068732e-002	1.418945e-001	-6.751003e-001	2.102840e-001	-6.181398e-002	-1.567623e-001	1.327763e-001
2809390000	-1.304707e-001	1.681649e-001	1.942755e-001	-1.243441e-001	1.350192e-001	-6.699957e-001	6.188985e-001	6.273435e-002
	1.942874e-001	-1.247433e-001	-1.077701e-001	1.735576e-001	6.227697e-001	5.320346e-002	1.323264e-001	-6.750494e-001
	1.341682e-001	-6.694568e-001	6.234756e-001	5.354574e-002	-1.818126e-001	1.305041e-001	2.102992e-001	-6.502778e-002
	6.182855e-001	6.195713e-002	1.324225e-001	-6.758650e-001	2.102221e-001	-6.498612e-002	-1.552389e-001	1.350121e-001
2814380000	-1.279082e-001	1.708036e-001	1.926254e-001	-1.273342e-001	1.256187e-001	-6.707123e-001	6.204024e-001	5.394274e-002
	1.926883e-001	-1.279544e-001	-1.055785e-001	1.759440e-001	6.241528e-001	4.426781e-002	1.227847e-001	-6.756608e-001
	1.248775e-001	-6.702019e-001	6.249691e-001	4.473493e-002	-1.799379e-001	1.334583e-001	2.100770e-001	-6.827882e-002
	6.197837e-001	5.316464e-002	1.228466e-001	-6.764843e-001	2.100129e-001	-6.821295e-002	-1.535809e-001	1.372853e-001
2819370000	-1.254356e-001	1.734599e-001	1.910051e-001	-1.306548e-001	1.162437e-001	-6.712853e-001	6.219059e-001	4.517075e-002
	1.913090e-001	-1.309737e-001	-1.033105e-001	1.783177e-001	6.255117e-001	3.535253e-002	1.132316e-001	-6.761003e-001
	1.154111e-001	-6.706948e-001	6.262443e-001	3.569673e-002	-1.779371e-001	1.363534e-001	2.098211e-001	-7.162727e-002
	6.213117e-001	4.436262e-002	1.133847e-001	-6.769970e-001	2.096897e-001	-7.164469e-002	-1.519162e-001	1.394600e-001
2824360000	-1.228351e-001	1.760801e-001	1.892528e-001	-1.339417e-001	1.068141e-001	-6.717501e-001	6.231818e-001	3.638511e-002
	1.895086e-001	-1.342098e-001	-1.009987e-001	1.806471e-001	6.267547e-001	2.646812e-002	1.037818e-001	-6.764944e-001
	1.061018e-001	-6.711293e-001	6.274360e-001	2.675073e-002	-1.760010e-001	1.391442e-001	2.094178e-001	-7.505840e-002
	6.226394e-001	3.553637e-002	1.039148e-001	-6.773718e-001	2.091871e-001	-7.503698e-002	-1.501348e-001	1.418741e-001
2829350000	-1.204060e-001	1.787967e-001	1.874663e-001	-1.371346e-001	9.756198e-002	-6.719987e-001	6.245247e-001	2.757455e-002
	1.878251e-001	-1.374197e-001	-9.866294e-002	1.830965e-001	6.277970e-001	1.750363e-002	9.436130e-002	-6.767033e-001
	9.682931e-002	-6.713162e-001	6.285566e-001	1.787008e-002	-1.740059e-001	1.421417e-001	2.089140e-001	-7.863375e-002
	6.239385e-001	2.669083e-002	9.447640e-002	-6.776475e-001	2.086754e-001	-7.863363e-002	-1.483547e-001	1.441527e-001
2834340000	-1.178987e-001	1.815390e-001	1.856661e-001	-1.405921e-001	8.841664e-002	-6.720876e-001	6.256533e-001	1.874677e-002
	1.859497e-001	-1.407888e-001	-9.658518e-002	1.855201e-001	6.287025e-001	8.569202e-003	8.498389e-002	-6.767844e-001
	8.775118e-002	-6.714545e-001	6.294335e-001	8.857886e-003	-1.719418e-001	1.449094e-001	2.082188e-001	-8.223159e-002
	6.250222e-001	1.782275e-002	8.516218e-002	-6.776084e-001	2.083477e-001	-8.239680e-002	-1.467150e-001	1.464788e-001
2839330000	-1.154890e-001	1.842324e-001	1.838198e-001	-1.439646e-001	7.939047e-002	-6.721703e-001	6.265452e-001	9.966604e-003
	1.841026e-001	-1.442523e-001	-9.427985e-002	1.881388e-001	6.295019e-001	-2.402654e-004	7.596760e-002	-6.766554e-001
	7.877778e-002	-6.713900e-001	6.302355e-001	-6.613478e-005	-1.698421e-001	1.477880e-001	2.076824e-001	-8.627122e-002
	6.259843e-001	8.987491e-003	7.594326e-002	-6.775514e-001	2.075634e-001	-8.611698e-002	-1.449261e-001	1.489796e-001
2844320000	-1.130827e-001	1.867681e-001	1.817988e-001	-1.472037e-001	7.050061e-002	-6.720726e-001	6.274267e-001	1.344414e-003
	1.820297e-001	-1.474587e-001	-9.227057e-002	1.903960e-001	6.302803e-001	-9.054405e-003	6.688350e-002	-6.765001e-001
	6.985785e-002	-6.713014e-001	6.309498e-001	-8.919617e-003	-1.678006e-001	1.504708e-001	2.068659e-001	-8.995585e-002
	6.267741e-001	2.514979e-004	6.686491e-002	-6.773284e-001	2.068722e-001	-8.999643e-002	-1.432105e-001	1.513972e-001
2849310000	-1.106948e-001	1.891731e-001	1.797516e-001	-1.501202e-001	6.171605e-002	-6.718033e-001	6.281279e-001	-7.254055e-003
	1.799247e-001	-1.505595e-001	-9.031168e-002	1.929545e-001	6.307740e-001	-1.787940e-002	5.812433e-002	-6.762241e-001
	6.110766e-002	-6.710767e-001	6.314908e-001	-1.779029e-002	-1.656876e-001	1.534672e-001	2.060201e-001	-9.371986e-002
	6.274964e-001	-8.368310e-003	5.790775e-002	-6.770125e-001	2.060590e-001	-9.357088e-002	-1.415966e-001	1.539956e-001
2854300000	-1.085546e-001	1.914786e-001	1.775336e-001	-1.530171e-001	5.296760e-002	-6.714181e-001	6.287459e-001	-1.590040e-002
	1.777065e-001	-1.535714e-001	-8.851597e-002	1.953212e-001	6.311371e-001	-2.670495e-002	4.931675e-002	-6.758283e-001
	5.238092e-002	-6.707146e-001	6.318830e-001	-2.655957e-002	-1.635424e-001	1.562997e-001	2.051115e-001	-9.722421e-002
	6.281656e-001	-1.697558e-002	4.903093e-002	-6.766334e-001	2.052940e-001	-9.693364e-002	-1.402075e-001	1.565089e-001
2859290000	-1.064023e-001	1.936453e-001	1.751169e-001	-1.558698e-001	4.411975e-002	-6.709984e-001	6.293284e-001	-2.471283e-002
	1.754235e-001	-1.563275e-001	-8.674071e-002	1.976393e-001	6.314332e-001	-3.560184e-002	4.039730e-002	-6.752947e-001
	4.360283e-002	-6.702681e-001	6.320747e-001	-3.543205e-002	-1.613991e-001	1.590180e-001	2.042649e-001	-1.006103e-001
	6.286936e-001	-2.572521e-002	4.019141e-002	-6.761545e-001	2.043204e-001	-1.003335e-001	-1.387548e-001	1.590982e-001
2864280000	-1.042742e-001	1.958781e-001	1.726131e-001	-1.583109e-001	3.516122e-002	-6.705474e-001	6.297742e-001	-3.356971e-002
	1.730579e-001	-1.588821e-001	-8.501608e-002	1.998105e-001	6.315630e-001	-4.453049e-002	3.139694e-002	-6.747173e-001
	3.470183e-002	-6.698182e-001	6.322051e-001	-4.435612e-002	-1.593170e-001	1.617639e-001	2.032351e-001	-1.038587e-001
	6.290969e-001	-3.451300e-002	3.111752e-002	-6.755999e-001	2.031035e-001	-1.034574e-001	-1.372815e-001	1.617544e-001
2869270000	-1.022333e-001	1.979591e-001	1.701452e-001	-1.608611e-001	2.628483e-002	-6.698410e-001	6.301417e-001	-4.249948e-002
	1.706348e-001	-1.614024e-001	-8.343047e-002	2.020154e-001	6.314602e-001	-5.358327e-002	2.225515e-002	-6.741100e-001
	2.576545e-002	-6.691593e-001	6.321281e-001	-5.332344e-002	-1.572225e-001	1.645295e-001	2.019883e-001	-1.069492e-001
	6.294089e-001	-4.343201e-002	2.204633e-002	-6.749292e-001	2.019518e-001	-1.068219e-001	-1.357330e-001	1.643585e-001
2874260000	-1.001955e-001	1.998665e-001	1.675949e-001	-1.636478e-001	1.732858e-002	-6.692098e-001	6.302970e-001	-5.163287e-002
	1.680958e-001	-1.642060e-001	-8.157339e-002	2.039109e-001	6.312712e-001	-6.257310e-002	1.314540e-002	-6.734046e-001
	1.690796e-002	-6.684645e-001	6.319186e-001	-6.225360e-002	-1.550426e-001	1.670568e-001	2.006763e-001	-1.101855e-001
	6.295153e-001	-5.236550e-002	1.300892e-002	-6.742137e-001	2.005398e-001	-1.101765e-001	-1.343590e-001	1.669252e-001
2879250000	-9.806723e-002	2.019052e-001	1.650366e-001	-1.664617e-001	8.399007e-003	-6.684813e-001	6.303525e-001	-6.067432e-002
	1.656644e-001	-1.667853e-001	-7.976592e-002	2.056372e-001	6.309502e-001	-7.151885e-002	3.994541e-003	-6.725907e-001
	7.969340e-003	-6.677585e-001	6.315456e-001	-7.122049e-002	-1.529033e-001	1.696715e-001	1.992709e-001	-1.134928e-001
	6.295489e-001	-6.136183e-002	3.974457e-003	-6.733220e-001	1.990949e-001	-1.135521e-001	-1.326684e-001	1.693391e-001
2884240000	-9.589886e-002	2.038096e-001	1.624687e-001	-1.691618e-001	-4.969921e-004	-6.676018e-001	6.302163e-001	-6.975260e-002
	1.630909e-001	-1.693904e-001	-7.781026e-002	2.072776e-001	6.304980e-001	-8.048482e-002	-5.038336e-003	-6.716515e-001
	-8.787565e-004	-6.669096e-001	6.310655e-001	-8.015635e-002	-1.507186e-001	1.722024e-001	1.977252e-001	-1.168608e-001
	6.294106e-001	-7.039956e-002	-4.957623e-003	-6.723562e-001	1.976755e-001	-1.169538e-001	-1.309406e-001	1.717098e-001
2889230000	-9.348935e-002	2.056887e-001	1.599584e-001	-1.718635e-001	-9.247828e-003	-6.666576e-001	6.299696e-001	-7.885538e-002
	1.607074e-001	-1.719802e-001	-7.570204e-002	2.087537e-001	6.299311e-001	-8.934306e-002	-1.397188e-002	-6.705911e-001
	-9.631120e-003	-6.660119e-001	6.305090e-001	-8.898299e-002	-1.484221e-001	1.744909e-001	1.963547e-001	-1.202113e-001
	6.291920e-001	-7.938693e-002	-1.385530e-002	-6.712763e-001	1.962290e-001	-1.204137e-001	-1.290980e-001	1.740456e-001
2894220000	-9.095835e-002	2.075913e-001	1.576093e-001	-1.744197e-001	-1.800650e-002	-6.655897e-001	6.296072e-001	-8.792670e-002
	1.582536e-001	-1.745101e-001	-7.339537e-002	2.101079e-001	6.292435e-001	-9.812294e-002	-2.294158e-002	-6.694289e-001
	-1.838839e-002	-6.649761e-001	6.298645e-001	-9.783441e-002	-1.461230e-001	1.768328e-001	1.948689e-001	-1.233302e-001
	6.287834e-001	-8.835101e-002	-2.270906e-002	-6.700537e-001	1.948555e-001	-1.237586e-001	-1.273588e-001	1.761939e-001
2899210000	-8.825035e-002	2.095818e-001	1.552182e-001	-1.769808e-001	-2.667550e-002	-6.644328e-001	6.290462e-001	-9.691471e-002
	1.557252e-001	-1.770254e-001	-7.105392e-002	2.115111e-001	6.285035e-001	-1.068376e-001	-3.165072e-002	-6.680851e-001
	-2.698087e-002	-6.638023e-001	6.290623e-001	-1.065865e-001	-1.438017e-001	1.790318e-001	1.934249e-001	-1.267619e-001
	6.282080e-001	-9.725190e-002	-3.146634e-002	-6.686838e-001	1.933505e-001	-1.269660e-001	-1.251501e-001	1.781404e-001
2904200000	-8.546131e-002	2.114786e-001	1.527157e-001	-1.793840e-001	-3.523021e-002	-6.630685e-001	6.282777e-001	-1.058363e-001
	1.532369e-001	-1.794256e-001	-6.853861e-002	2.127498e-001	6.276561e-001	-1.154027e-001	-4.027343e-002	-6.665742e-001
	-3.552962e-002	-6.624437e-001	6.282378e-001	-1.151331e-001	-1.414413e-001	1.810268e-001	1.918977e-001	-1.299518e-001
	6.274698e-001	-1.061553e-001	-4.012338e-002	-6.672144e-001	1.918095e-001	-1.300706e-001	-1.230127e-001	1.802389e-001
2909190000	-8.257048e-002	2.131576e-001	1.502606e-001	-1.817772e-001	-4.375415e-002	-6.616359e-001	6.274564e-001	-1.148654e-001
	1.508283e-001	-1.818593e-001	-6.588533e-002	2.139790e-001	6.267765e-001	-1.240193e-001	-4.905899e-002	-6.650136e-001
	-4.411221e-002	-6.609622e-001	6.273799e-001	-1.238287e-001	-1.391136e-001	1.829200e-001	1.903075e-001	-1.330225e-001
	6.266538e-001	-1.151842e-001	-4.892091e-002	-6.656191e-001	1.901092e-001	-1.332979e-001	-1.207894e-001	1.819857e-001
2914180000	-7.960287e-002	2.150501e-001	1.477909e-001	-1.840537e-001	-5.246630e-002	-6.600658e-001	6.264368e-001	-1.239218e-001
	1.482889e-001	-1.843154e-001	-6.325492e-002	2.152215e-001	6.258127e-001	-1.327461e-001	-5.780684e-002	-6.632941e-001
	-5.267730e-002	-6.593598e-001	6.263799e-001	-1.325889e-001	-1.366224e-001	1.848831e-001	1.888859e-001	-1.362009e-001
	6.256589e-001	-1.241821e-001	-5.768511e-002	-6.639178e-001	1.888621e-001	-1.362570e-001	-1.182400e-001	1.838834e-001
2919170000	-7.642561e-002	2.170704e-001	1.451496e-001	-1.863118e-001	-6.100130e-002	-6.584479e-001	6.251967e-001	-1.330318e-001
	1.457036e-001	-1.866367e-001	-6.051796e-002	2.164581e-001	6.247546e-001	-1.415320e-001	-6.650105e-002	-6.614105e-001
	-6.120540e-002	-6.577536e-001	6.253037e-001	-1.413730e-001	-1.341936e-001	1.869304e-001	1.872905e-001	-1.393704e-001
	6.244594e-001	-1.331688e-001	-6.641709e-002	-6.621593e-001	1.872234e-001	-1.393487e-001	-1.158975e-001	1.859409e-001
2924160000	-7.346443e-002	2.189347e-001	1.426099e-001	-1.888025e-001	-6.965476e-002	-6.567825e-001	6.238698e-001	-1.420686e-001
	1.432206e-001	-1.890829e-001	-5.773870e-002	2.177707e-001	6.235955e-001	-1.503134e-001	-7.520872e-002	-6.595935e-001
	-6.973179e-002	-6.559556e-001	6.240008e-001	-1.501975e-001	-1.317372e-001	1.888711e-001	1.857148e-001	-1.425109e-001
	6.231841e-001	-1.422820e-001	-7.505609e-002	-6.602853e-001	1.855691e-001	-1.424052e-001	-1.132025e-001	1.879352e-001
2929150000	-7.037382e-002	2.209440e-001	1.400154e-001	-1.911108e-001	-7.817924e-002	-6.550160e-001	6.223756e-001	-1.511339e-001
	1.405902e-001	-1.912197e-001	-5.507277e-002	2.191635e-001	6.222816e-001	-1.591540e-001	-8.377328e-002	-6.575650e-001
	-7.830518e-002	-6.542322e-001	6.226655e-001	-1.590456e-001	-1.291836e-001	1.908316e-001	1.840970e-001	-1.457386e-001
	6.217226e-001	-1.512321e-001	-8.368902e-002	-6.583067e-001	1.838605e-001	-1.457906e-001	-1.106545e-001	1.900549e-001
2934140000	-6.719318e-002	2.228460e-001	1.375175e-001	-1.935618e-001	-8.659350e-002	-6.531328e-001	6.207883e-001	-1.600314e-001
	1.378829e-001	-1.935605e-001	-5.232553e-002	2.204900e-001	6.207736e-001	-1.679502e-001	-9.232986e-002	-6.555632e-001
	-8.670088e-002	-6.523806e-001	6.212146e-001	-1.678539e-001	-1.266801e-001	1.928635e-001	1.823566e-001	-1.490605e-001
	6.200963e-001	-1.601657e-001	-9.229252e-002	-6.562159e-001	1.821645e-001	-1.491580e-001	-1.079099e-001	1.922241e-001
2939130000	-6.408132e-002	2.248434e-001	1.348524e-001	-1.959727e-001	-9.493241e-002	-6.512671e-001	6.188972e-001	-1.687776e-001
	1.351366e-001	-1.957992e-001	-4.962762e-002	2.220068e-001	6.190926e-001	-1.766808e-001	-1.007404e-001	-6.534515e-001
	-9.508460e-002	-6.504468e-001	6.195370e-001	-1.765859e-001	-1.240550e-001	1.947963e-001	1.805069e-001	-1.524776e-001
	6.182859e-001	-1.689509e-001	-1.007399e-001	-6.541260e-001	1.803396e-001	-1.525785e-001	-1.050944e-001	1.944592e-001
2944120000	-6.087212e-002	2.264943e-001	1.322800e-001	-1.984826e-001	-1.032426e-001	-6.490466e-001	6.169085e-001	-1.772891e-001
	1.324194e-001	-1.983441e-001	-4.699188e-002	2.233627e-001	6.172645e-001	-1.853304e-001	-1.090496e-001	-6.512220e-001
	-1.033649e-001	-6.483621e-001	6.177269e-001	-1.851689e-001	-1.215428e-001	1.966361e-001	1.785376e-001	-1.560400e-001
	6.163027e-001	-1.775265e-001	-1.090637e-001	-6.518329e-001	1.786449e-001	-1.561099e-001	-1.023815e-001	1.964961e-001
2949110000	-5.782131e-002	2.280466e-001	1.295134e-001	-2.008195e-001	-1.112695e-001	-6.468593e-001	6.148789e-001	-1.856336e-001
	1.295075e-001	-2.007804e-001	-4.446192e-002	2.246253e-001	6.153559e-001	-1.937360e-001	-1.171420e-001	-6.488948e-001
	-1.114067e-001	-6.460977e-001	6.158468e-001	-1.935510e-001	-1.190151e-001	1.985197e-001	1.765036e-001	-1.595429e-001
	6.142682e-001	-1.858891e-001	-1.172777e-001	-6.495078e-001	1.765779e-001	-1.594716e-001	-9.965008e-002	1.986389e-001
2954100000	-5.481498e-002	2.295079e-001	1.265173e-001	-2.029388e-001	-1.192636e-001	-6.445491e-001	6.128301e-001	-1.939136e-001
	1.266173e-001	-2.029731e-001	-4.233998e-002	2.259482e-001	6.134723e-001	-2.020951e-001	-1.252050e-001	-6.464621e-001
	-1.193542e-001	-6.438033e-001	6.139422e-001	-2.019091e-001	-1.165474e-001	2.003193e-001	1.743870e-001	-1.628471e-001
	6.122206e-001	-1.941460e-001	-1.253191e-001	-6.470981e-001	1.742295e-001	-1.626669e-001	-9.724224e-002	2.007230e-001
2959090000	-5.206265e-002	2.310603e-001	1.232861e-001	-2.050472e-001	-1.272823e-001	-6.421023e-001	6.107357e-001	-2.022192e-001
	1.235864e-001	-2.052003e-001	-4.019715e-002	2.270244e-001	6.113249e-001	-2.105953e-001	-1.333130e-001	-6.439813e-001
	-1.272821e-001	-6.413960e-001	6.118399e-001	-2.103264e-001	-1.141537e-001	2.021344e-001	1.720001e-001	-1.659945e-001
	6.100430e-001	-2.024885e-001	-1.334266e-001	-6.446721e-001	1.718414e-001	-1.657575e-001	-9.474137e-002	2.030660e-001
2964080000	-4.943434e-002	2.324503e-001	1.200856e-001	-2.069285e-001	-1.352883e-001	-6.396302e-001	6.084511e-001	-2.106414e-001
	1.202388e-001	-2.071927e-001	-3.823367e-002	2.282507e-001	6.090594e-001	-2.191686e-001	-1.414864e-001	-6.413901e-001
	-1.352082e-001	-6.389178e-001	6.096156e-001	-2.188716e-001	-1.116214e-001	2.040715e-001	1.696934e-001	-1.691216e-001
	6.076843e-001	-2.108929e-001	-1.415259e-001	-6.420504e-001	1.694394e-001	-1.688811e-001	-9.228466e-002	2.052691e-001
2969070000	-4.678105e-002	2.339744e-001	1.166360e-001	-2.087532e-001	-1.433215e-001	-6.370128e-001	6.060256e-001	-2.190993e-001
	1.172230e-001	-2.090247e-001	-3.643568e-002	2.293626e-001	6.065759e-001	-2.278285e-001	-1.497154e-001	-6.386605e-001
	-1.432196e-001	-6.363127e-001	6.071666e-001	-2.274305e-001	-1.088562e-001	2.058775e-001	1.671317e-001	-1.721379e-001
	6.052526e-001	-2.193744e-001	-1.497241e-001	-6.393777e-001	1.668644e-001	-1.720340e-001	-8.979115e-002	2.073204e-001
2974060000	-4.402274e-002	2.352814e-001	1.134042e-001	-2.107263e-001	-1.514221e-001	-6.343123e-001	6.034152e-001	-2.275904e-001
	1.140396e-001	-2.108780e-001	-3.449383e-002	2.303488e-001	6.038872e-001	-2.364387e-001	-1.578969e-001	-6.358087e-001
	-1.512360e-001	-6.336437e-001	6.045321e-001	-2.360560e-001	-1.061401e-001	2.076804e-001	1.644732e-001	-1.752292e-001
	6.026573e-001	-2.278573e-001	-1.578720e-001	-6.364989e-001	1.642390e-001	-1.751086e-001	-8.744440e-002	2.095365e-001
2979050000	-4.130493e-002	2.365690e-001	1.102176e-001	-2.126755e-001	-1.594181e-001	-6.315660e-001	6.006492e-001	-2.361362e-001
	1.106626e-001	-2.126249e-001	-3.243477e-002	2.311263e-001	6.010983e-001	-2.449454e-001	-1.660357e-001	-6.328880e-001
	-1.592156e-001	-6.309656e-001	6.017527e-001	-2.446217e-001	-1.034706e-001	2.092796e-001	1.617381e-001	-1.783872e-001
	5.998651e-001	-2.363163e-001	-1.659906e-001	-6.335142e-001	1.614541e-001	-1.780578e-001	-8.518687e-002	2.114847e-001
2984040000	-3.846789e-002	2.376436e-001	1.070492e-001	-2.145328e-001	-1.673866e-001	-6.287151e-001	5.977532e-001	-2.445448e-001
	1.074191e-001	-2.143933e-001	-3.044791e-002	2.317402e-001	5.982194e-001	-2.535099e-001	-1.741866e-001	-6.298447e-001
	-1.672124e-001	-6.281036e-001	5.988680e-001	-2.531586e-001	-1.007141e-001	2.108103e-001	1.591141e-001	-1.812580e-001
	5.970184e-001	-2.447304e-001	-1.741099e-001	-6.304594e-001	1.588646e-001	-1.811133e-001	-8.270164e-002	2.134170e-001
2989030000	-3.553201e-002	2.385393e-001	1.038962e-001	-2.163948e-001	-1.753071e-001	-6.257871e-001	5.947654e-001	-2.528980e-001
	1.043097e-001	-2.162690e-001	-2.828380e-002	2.322563e-001	5.952250e-001	-2.618828e-001	-1.821818e-001	-6.267236e-001
	-1.751181e-001	-6.251801e-001	5.958391e-001	-2.615684e-001	-9.779028e-002	2.121567e-001	1.563710e-001	-1.841988e-001
	5.940590e-001	-2.530651e-001	-1.820261e-001	-6.272933e-001	1.562751e-001	-1.840756e-001	-8.036537e-002	2.151659e-001
2994020000	-3.234043e-002	2.394335e-001	1.008617e-001	-2.180559e-001	-1.830636e-001	-6.227792e-001	5.916860e-001	-2.611874e-001
	1.013732e-001	-2.180019e-001	-2.621957e-002	2.327362e-001	5.921484e-001	-2.701838e-001	-1.900456e-001	-6.235091e-001
	-1.828172e-001	-6.222443e-001	5.927987e-001	-2.699124e-001	-9.502544e-002	2.134788e-001	1.537677e-001	-1.872740e-001
	5.910185e-001	-2.613328e-001	-1.898841e-001	-6.240256e-001	1.536029e-001	-1.870738e-001	-7.786733e-002	2.167958e-001
2999010000	-2.929309e-002	2.401665e-001	9.775984e-002	-2.197637e-001	-1.906946e-001	-6.196534e-001	5.885079e-001	-2.693392e-001
	9.814380e-002	-2.196463e-001	-2.394329e-002	2.330779e-001	5.890087e-001	-2.784468e-001	-1.978669e-001	-6.201359e-001
	-1.905102e-001	-6.192273e-001	5.896868e-001	-2.781239e-001	-9.211476e-002	2.147803e-001	1.510955e-001	-1.900665e-001
	5.878803e-001	-2.694281e-001	-1.976654e-001	-6.207230e-001	1.509072e-001	-1.899007e-001	-7.548998e-002	2.183449e-001
3004000000	-2.607850e-002	2.408975e-001	9.457813e-002	-2.215109e-001	-1.982440e-001	-6.165758e-001	5.852135e-001	-2.773361e-001
	9.506999e-002	-2.212787e-001	-2.172262e-002	2.335033e-001	5.857128e-001	-2.864719e-001	-2.054473e-001	-6.167468e-001
	-1.980787e-001	-6.160820e-001	5.863712e-001	-2.862619e-001	-8.914543e-002	2.159449e-001	1.481859e-001	-1.928988e-001
	5.846746e-001	-2.774282e-001	-2.052316e-001	-6.172258e-001	1.480251e-001	-1.927045e-001	-7.304481e-002	2.198321e-001
3008990000	-2.282716e-002	2.415666e-001	9.140100e-002	-2.228954e-001	-2.058072e-001	-6.132504e-001	5.818361e-001	-2.853975e-001
	9.179895e-002	-2.229261e-001	-1.917513e-002	2.340148e-001	5.823590e-001	-2.946957e-001	-2.130847e-001	-6.131639e-001
	-2.055970e-001	-6.128499e-001	5.830310e-001	-2.943334e-001	-8.611405e-002	2.169771e-001	1.453386e-001	-1.955434e-001
	5.812608e-001	-2.854491e-001	-2.129268e-001	-6.137578e-001	1.453588e-001	-1.954560e-001	-7.049247e-002	2.212750e-001
3013980000	-1.950095e-002	2.423635e-001	8.815050e-002	-2.246365e-001	-2.133624e-001	-6.099142e-001	5.782494e-001	-2.933874e-001
	8.861639e-002	-2.243673e-001	-1.671213e-002	2.342627e-001	5.787815e-001	-3.027964e-001	-2.207512e-001	-6.095031e-001
	-2.132228e-001	-6.094673e-001	5.795049e-001	-3.025233e-001	-8.309234e-002	2.182159e-001	1.425683e-001	-1.983154e-001
	5.777410e-001	-2.934900e-001	-2.205649e-001	-6.100734e-001	1.424365e-001	-1.981726e-001	-6.771100e-002	2.227641e-001
3018970000	-1.601512e-002	2.428393e-001	8.483333e-002	-2.262830e-001	-2.209347e-001	-6.064689e-001	5.746036e-001	-3.013922e-001
	8.537383e-002	-2.261507e-001	-1.408461e-002	2.347742e-001	5.750829e-001	-3.109147e-001	-2.284349e-001	-6.057370e-001
	-2.207786e-001	-6.060226e-001	5.757584e-001	-3.106496e-001	-8.015767e-002	2.190843e-001	1.395540e-001	-2.009084e-001
	5.741179e-001	-3.014140e-001	-2.281175e-001	-6.063952e-001	1.393248e-001	-2.010077e-001	-6.506212e-002	2.240316e-001
3023960000	-1.265747e-002	2.435872e-001	8.148041e-002	-2.278549e-001	-2.285141e-001	-6.030374e-001	5.708330e-001	-3.093161e-001
	8.198193e-002	-2.277654e-001	-1.140896e-002	2.352378e-001	5.713095e-001	-3.189368e-001	-2.359740e-001	-6.019857e-001
	-2.282910e-001	-6.025761e-001	5.719815e-001	-3.186770e-001	-7.696441e-002	2.201394e-001	1.365090e-001	-2.035384e-001
	5.703968e-001	-3.092983e-001	-2.356984e-001	-6.026200e-001	1.363388e-001	-2.035122e-001	-6.208674e-002	2.255592e-001
3028950000	-9.370178e-003	2.444495e-001	7.813014e-002	-2.295234e-001	-2.360463e-001	-5.995192e-001	5.669882e-001	-3.171863e-001
	7.848652e-002	-2.291782e-001	-8.726769e-003	2.358372e-001	5.674434e-001	-3.268760e-001	-2.434094e-001	-5.981474e-001
	-2.357027e-001	-5.990808e-001	5.680394e-001	-3.266874e-001	-7.400476e-002	2.210234e-001	1.333819e-001	-2.063058e-001
	5.665366e-001	-3.171501e-001	-2.431418e-001	-5.987414e-001	1.331605e-001	-2.060844e-001	-5.922537e-002	2.269629e-001
3033940000	-5.987597e-003	2.450790e-001	7.464856e-002	-2.309509e-001	-2.434662e-001	-5.959733e-001	5.630562e-001	-3.249067e-001
	7.512488e-002	-2.306670e-001	-6.201900e-003	2.363534e-001	5.634131e-001	-3.347032e-001	-2.507736e-001	-5.943046e-001
	-2.431692e-001	-5.954885e-001	5.640293e-001	-3.345419e-001	-7.096146e-002	2.219561e-001	1.300650e-001	-2.089436e-001
	5.626938e-001	-3.249009e-001	-2.505766e-001	-5.949681e-001	1.299394e-001	-2.086621e-001	-5.633879e-002	2.283982e-001
3038930000	-2.739443e-003	2.457677e-001	7.108288e-002	-2.324922e-001	-2.507610e-001	-5.923885e-001	5.591366e-001	-3.325285e-001
	7.178993e-002	-2.323957e-001	-3.701413e-003	2.368270e-001	5.593715e-001	-3.423738e-001	-2.580554e-001	-5.904618e-001
	-2.504449e-001	-5.918121e-001	5.599928e-001	-3.421976e-001	-6.808734e-002	2.227889e-001	1.268231e-001	-2.113894e-001
	5.587028e-001	-3.326497e-001	-2.578379e-001	-5.911367e-001	1.266395e-001	-2.112613e-001	-5.348471e-002	2.298608e-001
3043920000	3.947319e-004	2.466470e-001	6.762676e-002	-2.338934e-001	-2.579110e-001	-5.886995e-001	5.550009e-001	-3.400393e-001
	6.824235e-002	-2.335732e-001	-1.355890e-003	2.375199e-001	5.552761e-001	-3.499533e-001	-2.652257e-001	-5.866180e-001
	-2.576899e-001	-5.881085e-001	5.559350e-001	-3.498512e-001	-6.523890e-002	2.236832e-001	1.233991e-001	-2.138612e-001
	5.546054e-001	-3.401089e-001	-2.650426e-001	-5.872189e-001	1.233029e-001	-2.138592e-001	-5.069582e-002	2.314718e-001
3048910000	3.317335e-003	2.473067e-001	6.413483e-002	-2.352608e-001	-2.649698e-001	-5.850159e-001	5.509220e-001	-3.474794e-001
	6.473661e-002	-2.347905e-001	9.779968e-004	2.382136e-001	5.511075e-001	-3.574434e-001	-2.722405e-001	-5.824888e-001
	-2.647722e-001	-5.843893e-001	5.517956e-001	-3.573245e-001	-6.254653e-002	2.245232e-001	1.202777e-001	-2.163900e-001
	5.505301e-001	-3.474647e-001	-2.721139e-001	-5.832651e-001	1.199276e-001	-2.161764e-001	-4.798363e-002	2.328425e-001
3053900000	6.400384e-003	2.479023e-001	6.046669e-002	-2.363859e-001	-2.719827e-001	-5.812763e-001	5.467355e-001	-3.546305e-001
	6.092259e-002	-2.361856e-001	3.115111e-003	2.389488e-001	5.469015e-001	-3.648287e-001	-2.791677e-001	-5.785721e-001
	-2.717067e-001	-5.807255e-001	5.475795e-001	-3.646603e-001	-5.977732e-002	2.254568e-001	1.165681e-001	-2.186480e-001
	5.462858e-001	-3.546724e-001	-2.790642e-001	-5.791944e-001	1.164437e-001	-2.182208e-001	-4.530601e-002	2.343857e-001
3058890000	9.404521e-003	2.486650e-001	5.683250e-002	-2.374476e-001	-2.789285e-001	-5.773531e-001	5.424600e-001	-3.619003e-001
	5.745752e-002	-2.373831e-001	5.271946e-003	2.396635e-001	5.424816e-001	-3.721484e-001	-2.860594e-001	-5.743472e-001
	-2.786453e-001	-5.767876e-001	5.431515e-001	-3.720711e-001	-5.711024e-002	2.263237e-001	1.130647e-001	-2.207458e-001
	5.419331e-001	-3.619740e-001	-2.860216e-001	-5.750578e-001	1.128623e-001	-2.204186e-001	-4.270571e-002	2.359110e-001
3063880000	1.226855e-002	2.492321e-001	5.327206e-002	-2.385270e-001	-2.859545e-001	-5.732741e-001	5.379430e-001	-3.690888e-001
	5.368714e-002	-2.383156e-001	7.252527e-003	2.402323e-001	5.379194e-001	-3.795717e-001	-2.929773e-001	-5.700004e-001
	-2.856741e-001	-5.727471e-001	5.385797e-001	-3.794486e-001	-5.431373e-002	2.271507e-001	1.095180e-001	-2.228895e-001
	5.374087e-001	-3.691649e-001	-2.929930e-001	-5.706689e-001	1.092059e-001	-2.224365e-001	-4.013503e-002	2.372776e-001
3068870000	1.505053e-002	2.497270e-001	4.956241e-002	-2.395998e-001	-2.929174e-001	-5.691317e-001	5.334246e-001	-3.763412e-001
	5.011045e-002	-2.392516e-001	9.222148e-003	2.407744e-001	5.332250e-001	-3.868857e-001	-2.998335e-001	-5.655027e-001
	-2.926811e-001	-5.685694e-001	5.338886e-001	-3.867804e-001	-5.148509e-002	2.278534e-001	1.059437e-001	-2.248547e-001
	5.328113e-001	-3.764235e-001	-2.998902e-001	-5.661604e-001	1.056156e-001	-2.245739e-001	-3.777609e-002	2.386872e-001
3073860000	1.787493e-002	2.498883e-001	4.596727e-002	-2.404643e-001	-2.999067e-001	-5.648175e-001	5.287676e-001	-3.835095e-001
	4.638299e-002	-2.403027e-001	1.107894e-002	2.412134e-001	5.283747e-001	-3.941889e-001	-3.067415e-001	-5.609982e-001
	-2.996456e-001	-5.643238e-001	5.290589e-001	-3.940573e-001	-4.872346e-002	2.286139e-001	1.023227e-001	-2.268883e-001
	5.280779e-001	-3.836107e-001	-3.068309e-001	-5.615948e-001	1.019329e-001	-2.265823e-001	-3.527907e-002	2.399834e-001
3078850000	2.076503e-002	2.500732e-001	4.238930e-002	-2.413714e-001	-3.068629e-001	-5.604225e-001	5.239606e-001	-3.906580e-001
	4.285539e-002	-2.411509e-001	1.300090e-002	2.415465e-001	5.234380e-001	-4.014628e-001	-3.135960e-001	-5.562375e-001
	-3.066255e-001	-5.599249e-001	5.240852e-001	-4.013528e-001	-4.585335e-002	2.293706e-001	9.873149e-002	-2.287279e-001
	5.232727e-001	-3.908045e-001	-3.136888e-001	-5.569389e-001	9.823173e-002	-2.284321e-001	-3.306945e-002	2.412030e-001
3083840000	2.347784e-002	2.500785e-001	3.893717e-002	-2.423097e-001	-3.137741e-001	-5.559841e-001	5.191286e-001	-3.977742e-001
	3.935775e-002	-2.420375e-001	1.485549e-002	2.418397e-001	5.184053e-001	-4.086344e-001	-3.203894e-001	-5.515117e-001
	-3.135524e-001	-5.553704e-001	5.190472e-001	-4.085955e-001	-4.297187e-002	2.297903e-001	9.515426e-002	-2.306575e-001
	5.183925e-001	-3.979392e-001	-3.204464e-001	-5.521382e-001	9.463824e-002	-2.303091e-001	-3.086049e-002	2.421990e-001
3088830000	2.635863e-002	2.498818e-001	3.531113e-002	-2.430254e-001	-3.205689e-001	-5.513648e-001	5.141022e-001	-4.047653e-001
	3.555243e-002	-2.428698e-001	1.674046e-002	2.418476e-001	5.132630e-001	-4.158216e-001	-3.270121e-001	-5.466587e-001
	-3.203391e-001	-5.508382e-001	5.139833e-001	-4.157394e-001	-4.002557e-002	2.303491e-001	9.151670e-002	-2.325034e-001
	5.133970e-001	-4.049165e-001	-3.271414e-001	-5.473498e-001	9.108435e-002	-2.322423e-001	-2.852340e-002	2.432741e-001
3093820000	2.931592e-002	2.495371e-001	3.174974e-002	-2.437613e-001	-3.271836e-001	-5.468263e-001	5.090138e-001	-4.115850e-001
	3.190776e-002	-2.435217e-001	1.872664e-002	2.419170e-001	5.080212e-001	-4.227690e-001	-3.334703e-001	-5.418312e-001
	-3.269818e-001	-5.463141e-001	5.087083e-001	-4.227205e-001	-3.718657e-002	2.306894e-001	8.764433e-002	-2.343224e-001
	5.082677e-001	-4.117462e-001	-3.336194e-001	-5.424215e-001	8.712549e-002	-2.340151e-001	-2.619399e-002	2.440541e-001
3098810000	3.225501e-002	2.490333e-001	2.802663e-002	-2.444074e-001	-3.336605e-001	-5.422833e-001	5.039675e-001	-4.182017e-001
	2.829857e-002	-2.441932e-001	2.074885e-002	2.417414e-001	5.027324e-001	-4.295252e-001	-3.397946e-001	-5.369717e-001
	-3.334685e-001	-5.417319e-001	5.034432e-001	-4.295652e-001	-3.406379e-002	2.310008e-001	8.383513e-002	-2.358056e-001
	5.032163e-001	-4.183414e-001	-3.399061e-001	-5.376165e-001	8.341198e-002	-2.356066e-001	-2.398231e-002	2.446657e-001
3103800000	3.515179e-002	2.485078e-001	2.440532e-002	-2.449310e-001	-3.401152e-001	-5.375940e-001	4.988623e-001	-4.246859e-001
	2.450990e-002	-2.448348e-001	2.299763e-002	2.416058e-001	4.974207e-001	-4.361966e-001	-3.460017e-001	-5.321438e-001
	-3.398340e-001	-5.371503e-001	4.980924e-001	-4.361687e-001	-3.130197e-002	2.309547e-001	7.999116e-002	-2.373933e-001
	4.980637e-001	-4.247449e-001	-3.460949e-001	-5.327728e-001	7.958132e-002	-2.371961e-001	-2.165164e-002	2.451702e-001
3108790000	3.802686e-002	2.478904e-001	2.069079e-002	-2.456889e-001	-3.465014e-001	-5.328522e-001	4.936663e-001	-4.312109e-001
	2.075441e-002	-2.453437e-001	2.539740e-002	2.411163e-001	4.918898e-001	-4.427639e-001	-3.522126e-001	-5.271606e-001
	-3.462545e-001	-5.324134e-001	4.926179e-001	-4.427540e-001	-2.827850e-002	2.310623e-001	7.614787e-002	-2.389825e-001
	4.929164e-001	-4.312854e-001	-3.522749e-001	-5.278464e-001	7.572141e-002	-2.388432e-001	-1.933017e-002	2.456655e-001
3113780000	4.095105e-002	2.472529e-001	1.696494e-002	-2.462483e-001	-3.528537e-001	-5.280003e-001	4.882672e-001	-4.378091e-001
	1.711804e-002	-2.460202e-001	2.787198e-002	2.408062e-001	4.862662e-001	-4.493903e-001	-3.583693e-001	-5.220298e-001
	-3.526371e-001	-5.275054e-001	4.870252e-001	-4.493335e-001	-2.544052e-002	2.310125e-001	7.251234e-002	-2.404739e-001
	4.875747e-001	-4.378805e-001	-3.584361e-001	-5.227980e-001	7.179569e-002	-2.403714e-001	-1.683878e-002	2.462179e-001
3118770000	4.403193e-002	2.466931e-001	1.322269e-002	-2.468982e-001	-3.593139e-001	-5.230198e-001	4.827378e-001	-4.443299e-001
	1.325131e-002	-2.464754e-001	3.022062e-002	2.405442e-001	4.806319e-001	-4.558914e-001	-3.645353e-001	-5.170003e-001
	-3.589824e-001	-5.226452e-001	4.812961e-001	-4.559611e-001	-2.236988e-002	2.310451e-001	6.846783e-002	-2.419899e-001
	4.821033e-001	-4.443360e-001	-3.644805e-001	-5.176297e-001	6.810570e-002	-2.418074e-001	-1.437025e-002	2.467488e-001
3123760000	4.687471e-002	2.461410e-001	9.526461e-003	-2.474362e-001	-3.655930e-001	-5.178941e-001	4.770895e-001	-4.507899e-001
	9.638237e-003	-2.470513e-001	3.284631e-002	2.403452e-001	4.747689e-001	-4.624042e-001	-3.705756e-001	-5.118330e-001
	-3.653545e-001	-5.174566e-001	4.755137e-001	-4.624560e-001	-1.946957e-002	2.311569e-001	6.456542e-002	-2.435772e-001
	4.765663e-001	-4.509611e-001	-3.705679e-001	-5.125149e-001	6.432003e-002	-2.433803e-001	-1.148857e-002	2.473802e-001
3128750000	4.978143e-002	2.455996e-001	5.691712e-003	-2.477788e-001	-3.718283e-001	-5.127994e-001	4.715031e-001	-4.572543e-001
	5.880221e-003	-2.475946e-001	3.533196e-002	2.401044e-001	4.689894e-001	-4.687822e-001	-3.766896e-001	-5.065852e-001
	-3.715598e-001	-5.123382e-001	4.697509e-001	-4.687996e-001	-1.677133e-002	2.312147e-001	6.074703e-002	-2.448998e-001
	4.709589e-001	-4.573515e-001	-3.766193e-001	-5.073185e-001	6.029162e-002	-2.447681e-001	-8.798562e-003	2.477955e-001
3133740000	5.263482e-002	2.453793e-001	1.850625e-003	-2.481397e-001	-3.779659e-001	-5.076186e-001	4.657197e-001	-4.636121e-001
	2.148664e-003	-2.479085e-001	3.777921e-002	2.399293e-001	4.631624e-001	-4.751341e-001	-3.825933e-001	-5.013463e-001
	-3.777027e-001	-5.071272e-001	4.639822e-001	-4.751080e-001	-1.389946e-002	2.312974e-001	5.690849e-002	-2.464055e-001
	4.652641e-001	-4.636236e-001	-3.826410e-001	-5.020607e-001	5.647698e-002	-2.462857e-001	-5.816131e-003	2.484467e-001
3138730000	5.544516e-002	2.449445e-001	-2.029850e-003	-2.486548e-001	-3.839348e-001	-5.024499e-001	4.599539e-001	-4.698393e-001
	-1.784224e-003	-2.483134e-001	4.046356e-002	2.398200e-001	4.572587e-001	-4.813021e-001	-3.884299e-001	-4.961034e-001
	-3.836698e-001	-5.020217e-001	4.579596e-001	-4.812775e-001	-1.110771e-002	2.314808e-001	5.301603e-002	-2.476292e-001
	4.594724e-001	-4.698092e-001	-3.884127e-001	-4.969074e-001	5.252305e-002	-2.474669e-001	-2.970076e-003	2.489674e-001
3143720000	5.825277e-002	2.445712e-001	-5.837943e-003	-2.488249e-001	-3.898803e-001	-4.973401e-001	4.541733e-001	-4.757911e-001
	-5.855529e-003	-2.486102e-001	4.297045e-002	2.399323e-001	4.514003e-001	-4.873637e-001	-3.941748e-001	-4.909364e-001
	-3.895805e-001	-4.969808e-001	4.521079e-001	-4.872873e-001	-8.384290e-003	2.317232e-001	4.887748e-002	-2.485415e-001
	4.536883e-001	-4.757926e-001	-3.941345e-001	-4.916809e-001	4.856116e-002	-2.484670e-001	-7.316602e-005	2.496565e-001
3148710000	6.102215e-002	2.443581e-001	-9.752961e-003	-2.489907e-001	-3.956275e-001	-4.923475e-001	4.484467e-001	-4.816282e-001
	-9.677465e-003	-2.487885e-001	4.519685e-002	2.399306e-001	4.454532e-001	-4.931915e-001	-3.998353e-001	-4.858337e-001
	-3.953250e-001	-4.919017e-001	4.462371e-001	-4.931853e-001	-5.744701e-003	2.319865e-001	4.472440e-002	-2.495011e-001
	4.478303e-001	-4.816678e-001	-3.997451e-001	-4.864964e-001	4.446552e-002	-2.494672e-001	2.786661e-003	2.501802e-001
3153700000	6.355631e-002	2.440055e-001	-1.377815e-002	-2.489623e-001	-4.013206e-001	-4.872591e-001	4.426114e-001	-4.873323e-001
	-1.378230e-002	-2.486552e-001	4.739942e-002	2.400074e-001	4.394425e-001	-4.988593e-001	-4.053410e-001	-4.806130e-001
	-4.010211e-001	-4.868086e-001	4.402673e-001	-4.988958e-001	-3.259398e-003	2.323860e-001	4.045675e-002	-2.503486e-001
	4.419767e-001	-4.873050e-001	-4.052314e-001	-4.813130e-001	4.016927e-002	-2.501388e-001	5.338927e-003	2.509342e-001
3158690000	6.620653e-002	2.436349e-001	-1.778134e-002	-2.488986e-001	-4.070024e-001	-4.820675e-001	4.366451e-001	-4.929519e-001
	-1.753220e-002	-2.487123e-001	4.944395e-002	2.401639e-001	4.333708e-001	-5.045849e-001	-4.107149e-001	-4.753254e-001
	-4.066707e-001	-4.815801e-001	4.342178e-001	-5.045541e-001	-8.826926e-004	2.324660e-001	3.629697e-002	-2.512126e-001
	4.360165e-001	-4.930368e-001	-4.107724e-001	-4.759572e-001	3.600021e-002	-2.509778e-001	8.060584e-003	2.516513e-001
3163680000	6.852485e-002	2.431105e-001	-2.170393e-002	-2.489391e-001	-4.126565e-001	-4.767321e-001	4.306156e-001	-4.986526e-001
	-2.181333e-002	-2.486950e-001	5.143506e-002	2.403202e-001	4.271255e-001	-5.102006e-001	-4.162438e-001	-4.698106e-001
	-4.123057e-001	-4.763553e-001	4.279486e-001	-5.102738e-001	1.488369e-003	2.327518e-001	3.218400e-002	-2.518417e-001
	4.298853e-001	-4.986216e-001	-4.162385e-001	-4.704027e-001	3.171266e-002	-2.515792e-001	1.047027e-002	2.523224e-001
3168670000	7.085273e-002	2.426886e-001	-2.580650e-002	-2.487660e-001	-4.182902e-001	-4.712854e-001	4.244181e-001	-5.041987e-001
	-2.560682e-002	-2.484098e-001	5.326349e-002	2.402753e-001	4.207065e-001	-5.158568e-001	-4.216620e-001	-4.642319e-001
	-4.180408e-001	-4.708476e-001	4.215215e-001	-5.158819e-001	3.954613e-003	2.328553e-001	2.778095e-002	-2.525748e-001
	4.237329e-001	-5.042196e-001	-4.216919e-001	-4.648340e-001	2.753466e-002	-2.523214e-001	1.283022e-002	2.528894e-001
3173660000	7.311339e-002	2.420879e-001	-2.961633e-002	-2.483951e-001	-4.238641e-001	-4.657892e-001	4.181079e-001	-5.097668e-001
	-2.956140e-002	-2.483436e-001	5.505482e-002	2.404103e-001	4.142154e-001	-5.214035e-001	-4.269920e-001	-4.585402e-001
	-4.236050e-001	-4.653822e-001	4.150886e-001	-5.213961e-001	6.284504e-003	2.329395e-001	2.365123e-002	-2.530298e-001
	4.173917e-001	-5.096975e-001	-4.271291e-001	-4.591701e-001	2.322044e-002	-2.528677e-001	1.521694e-002	2.537509e-001
3178650000	7.553054e-002	2.416350e-001	-3.349619e-002	-2.480706e-001	-4.294761e-001	-4.602197e-001	4.117488e-001	-5.152166e-001
	-3.351777e-002	-2.479313e-001	5.666639e-002	2.402924e-001	4.076480e-001	-5.268718e-001	-4.323688e-001	-4.528239e-001
	-4.291750e-001	-4.598241e-001	4.085436e-001	-5.268789e-001	8.502069e-003	2.329004e-001	1.940060e-002	-2.533444e-001
	4.110232e-001	-5.151280e-001	-4.325232e-001	-4.534197e-001	1.900641e-002	-2.532338e-001	1.747394e-002	2.544074e-001
3183640000	7.755640e-002	2.406821e-001	-3.737286e-002	-2.476838e-001	-4.350940e-001	-4.546164e-001	4.053852e-001	-5.205392e-001
	-3.735675e-002	-2.475173e-001	5.833561e-002	2.399969e-001	4.010672e-001	-5.322436e-001	-4.376668e-001	-4.470313e-001
	-4.347961e-001	-4.541714e-001	4.019777e-001	-5.322506e-001	1.064303e-002	2.327468e-001	1.524454e-002	-2.535804e-001
	4.046200e-001	-5.204583e-001	-4.378494e-001	-4.476089e-001	1.491712e-002	-2.535218e-001	1.957647e-002	2.548269e-001
3188630000	7.954682e-002	2.396859e-001	-4.119743e-002	-2.471542e-001	-4.405497e-001	-4.489752e-001	3.989749e-001	-5.258475e-001
	-4.135869e-002	-2.470883e-001	5.993995e-002	2.397692e-001	3.944720e-001	-5.375009e-001	-4.428553e-001	-4.412314e-001
	-4.401990e-001	-4.485899e-001	3.953542e-001	-5.374941e-001	1.275120e-002	2.327110e-001	1.129793e-002	-2.538769e-001
	3.981895e-001	-5.257041e-001	-4.430518e-001	-4.418160e-001	1.078324e-002	-2.536648e-001	2.178530e-002	2.551783e-001
3193620000	8.163879e-002	2.386923e-001	-4.520265e-002	-2.465760e-001	-4.459967e-001	-4.432718e-001	3.925243e-001	-5.310470e-001
	-4.515209e-002	-2.464475e-001	6.145390e-002	2.392905e-001	3.878642e-001	-5.426623e-001	-4.479449e-001	-4.354285e-001
	-4.457213e-001	-4.428920e-001	3.887275e-001	-5.426437e-001	1.494692e-002	2.325174e-001	7.275286e-003	-2.540544e-001
	3.918154e-001	-5.308612e-001	-4.482136e-001	-4.361245e-001	6.719203e-003	-2.538545e-001	2.379241e-002	2.554798e-001
3198610000	8.371935e-002	2.376110e-001	-4.911463e-002	-2.458462e-001	-4.512966e-001	-4.375779e-001	3.860893e-001	-5.359623e-001
	-4.902350e-002	-2.456896e-001	6.308401e-002	2.387582e-001	3.812662e-001	-5.476252e-001	-4.529648e-001	-4.297128e-001
	-4.509792e-001	-4.372454e-001	3.820971e-001	-5.476147e-001	1.713356e-002	2.322741e-001	2.971573e-003	-2.541134e-001
	3.853869e-001	-5.357942e-001	-4.532108e-001	-4.303935e-001	2.594727e-003	-2.538582e-001	2.569166e-002	2.554242e-001
3203600000	8.570744e-002	2.363058e-001	-5.297139e-002	-2.450881e-001	-4.564436e-001	-4.318906e-001	3.796981e-001	-5.407941e-001
	-5.292632e-002	-2.450173e-001	6.476538e-002	2.380152e-001	3.746333e-001	-5.525193e-001	-4.578712e-001	-4.240160e-001
	-4.561839e-001	-4.315465e-001	3.755128e-001	-5.524727e-001	1.936498e-002	2.317986e-001	-1.272011e-003	-2.540539e-001
	3.789707e-001	-5.406265e-001	-4.581749e-001	-4.246326e-001	-1.662587e-003	-2.539169e-001	2.769001e-002	2.553216e-001
3208590000	8.782917e-002	2.350168e-001	-5.689047e-002	-2.443534e-001	-4.615728e-001	-4.260386e-001	3.730754e-001	-5.455882e-001
	-5.676591e-002	-2.445336e-001	6.664063e-002	2.373289e-001	3.677791e-001	-5.573285e-001	-4.627716e-001	-4.181502e-001
	-4.612225e-001	-4.256871e-001	3.686356e-001	-5.572971e-001	2.149145e-002	2.311963e-001	-5.566816e-003	-2.541872e-001
	3.722652e-001	-5.455160e-001	-4.630585e-001	-4.187768e-001	-6.025182e-003	-2.540802e-001	2.965965e-002	2.549467e-001
3213580000	9.005917e-002	2.337748e-001	-6.067435e-002	-2.437161e-001	-4.666399e-001	-4.200883e-001	3.662265e-001	-5.503235e-001
	-6.064892e-002	-2.437701e-001	6.855165e-002	2.364724e-001	3.607324e-001	-5.620854e-001	-4.675618e-001	-4.122062e-001
	-4.663019e-001	-4.197374e-001	3.616092e-001	-5.621157e-001	2.384536e-002	2.307607e-001	-9.934139e-003	-2.541955e-001
	3.655524e-001	-5.502505e-001	-4.678706e-001	-4.127493e-001	-1.031866e-002	-2.540295e-001	3.171852e-002	2.546785e-001
3218570000	9.223973e-002	2.325529e-001	-6.451120e-002	-2.429650e-001	-4.716425e-001	-4.140504e-001	3.594039e-001	-5.550737e-001
	-6.447788e-002	-2.429208e-001	7.058806e-002	2.357554e-001	3.536480e-001	-5.667642e-001	-4.724158e-001	-4.061101e-001
	-4.714400e-001	-4.137023e-001	3.544685e-001	-5.668116e-001	2.622240e-002	2.300859e-001	-1.415676e-002	-2.541932e-001
	3.587248e-001	-5.549883e-001	-4.726622e-001	-4.066329e-001	-1.461572e-002	-2.541119e-001	3.387793e-002	2.543595e-001
3223560000	9.438449e-002	2.314186e-001	-6.824491e-002	-2.422539e-001	-4.766485e-001	-4.078762e-001	3.523733e-001	-5.598724e-001
	-6.842605e-002	-2.421794e-001	7.281358e-002	2.348942e-001	3.465165e-001	-5.713880e-001	-4.771747e-001	-3.999030e-001
	-4.763522e-001	-4.075174e-001	3.473708e-001	-5.714745e-001	2.886322e-002	2.294741e-001	-1.832245e-002	-2.541985e-001
	3.516909e-001	-5.597193e-001	-4.774014e-001	-4.004275e-001	-1.871462e-002	-2.540258e-001	3.619024e-002	2.539143e-001
3228550000	9.672172e-002	2.302235e-001	-7.203990e-002	-2.414998e-001	-4.814603e-001	-4.016436e-001	3.453741e-001	-5.644523e-001
	-7.207811e-002	-2.414302e-001	7.510258e-002	2.341749e-001	3.392439e-001	-5.758555e-001	-4.818593e-001	-3.936903e-001
	-4.812601e-001	-4.012794e-001	3.401407e-001	-5.760476e-001	3.125246e-002	2.289915e-001	-2.255107e-002	-2.540515e-001
	3.446549e-001	-5.643409e-001	-4.820688e-001	-3.942549e-001	-2.294874e-002	-2.540628e-001	3.860609e-002	2.533613e-001
3233540000	9.921230e-002	2.292213e-001	-7.574724e-002	-2.406192e-001	-4.863115e-001	-3.954243e-001	3.382792e-001	-5.689666e-001
	-7.579004e-002	-2.404871e-001	7.755668e-002	2.334135e-001	3.320622e-001	-5.802584e-001	-4.864259e-001	-3.875218e-001
	-4.860444e-001	-3.950441e-001	3.329867e-001	-5.804788e-001	3.390731e-002	2.284154e-001	-2.668511e-002	-2.538130e-001
	3.376127e-001	-5.687923e-001	-4.866459e-001	-3.880573e-001	-2.708882e-002	-2.536826e-001	4.119728e-002	2.529108e-001
3238530000	1.016652e-001	2.281745e-001	-7.950550e-002	-2.395709e-001	-4.910184e-001	-3.891644e-001	3.312356e-001	-5.733729e-001
	-7.958747e-002	-2.395051e-001	7.977517e-002	2.326138e-001	3.248834e-001	-5.845333e-001	-4.910157e-001	-3.813813e-001
	-4.907461e-001	-3.888550e-001	3.258247e-001	-5.847976e-001	3.645387e-002	2.279279e-001	-3.083810e-002	-2.534341e-001
	3.305545e-001	-5.731267e-001	-4.912603e-001	-3.818950e-001	-3.125449e-002	-2.532273e-001	4.373540e-002	2.524876e-001
3243520000	1.040275e-001	2.269998e-001	-8.324182e-002	-2.385517e-001	-4.956170e-001	-3.830409e-001	3.241931e-001	-5.775505e-001
	-8.338719e-002	-2.384832e-001	8.203335e-002	2.321126e-001	3.176704e-001	-5.886469e-001	-4.954845e-001	-3.753181e-001
	-4.953145e-001	-3.826542e-001	3.186114e-001	-5.890041e-001	3.902100e-002	2.273630e-001	-3.508901e-002	-2.529691e-001
	3.234942e-001	-5.773018e-001	-4.957091e-001	-3.757580e-001	-3.537363e-002	-2.528274e-001	4.631169e-002	2.519542e-001
3248510000	1.062021e-001	2.259766e-001	-8.709964e-002	-2.373862e-001	-5.000202e-001	-3.769263e-001	3.171560e-001	-5.815098e-001
	-8.726872e-002	-2.373197e-001	8.407476e-002	2.315095e-001	3.105213e-001	-5.925446e-001	-4.998352e-001	-3.693295e-001
	-4.997928e-001	-3.765373e-001	3.114599e-001	-5.929516e-001	4.147387e-002	2.270687e-001	-3.950146e-002	-2.522047e-001
	3.164598e-001	-5.813005e-001	-5.000449e-001	-3.697245e-001	-3.965879e-002	-2.521171e-001	4.882648e-002	2.517353e-001
3253500000	1.083607e-001	2.250580e-001	-9.106478e-002	-2.360884e-001	-5.043727e-001	-3.708247e-001	3.101119e-001	-5.853882e-001
	-9.118651e-002	-2.359909e-001	8.616631e-002	2.310565e-001	3.033549e-001	-5.963407e-001	-5.041204e-001	-3.632999e-001
	-5.041394e-001	-3.704371e-001	3.043285e-001	-5.967707e-001	4.367987e-002	2.267284e-001	-4.365236e-002	-2.514762e-001
	3.094573e-001	-5.851273e-001	-5.043878e-001	-3.637151e-001	-4.391763e-002	-2.513205e-001	5.143941e-002	2.516209e-001
3258490000	1.105169e-001	2.242443e-001	-9.513741e-002	-2.348332e-001	-5.086342e-001	-3.646538e-001	3.029662e-001	-5.891757e-001
	-9.527050e-002	-2.347279e-001	8.815289e-002	2.305833e-001	2.960747e-001	-6.000256e-001	-5.083639e-001	-3.571772e-001
	-5.084063e-001	-3.642910e-001	2.969664e-001	-6.005143e-001	4.591300e-002	2.262929e-001	-4.786491e-002	-2.508326e-001
	3.021893e-001	-5.887370e-001	-5.086049e-001	-3.575806e-001	-4.821689e-002	-2.506337e-001	5.403301e-002	2.512812e-001
3263480000	1.124793e-001	2.231903e-001	-9.896035e-002	-2.335121e-001	-5.129264e-001	-3.583445e-001	2.958036e-001	-5.928437e-001
	-9.909553e-002	-2.335360e-001	9.013556e-002	2.302402e-001	2.887199e-001	-6.036335e-001	-5.126051e-001	-3.508579e-001
	-5.126093e-001	-3.579859e-001	2.895814e-001	-6.041262e-001	4.799219e-002	2.259989e-001	-5.200184e-002	-2.498490e-001
	2.949610e-001	-5.925396e-001	-5.128222e-001	-3.513400e-001	-5.234098e-002	-2.496643e-001	5.646354e-002	2.512402e-001
3268470000	1.142762e-001	2.222769e-001	-1.027646e-001	-2.321024e-001	-5.171722e-001	-3.520079e-001	2.884013e-001	-5.965199e-001
	-1.029884e-001	-2.321063e-001	9.194182e-002	2.299045e-001	2.812784e-001	-6.072583e-001	-5.167523e-001	-3.444984e-001
	-5.168729e-001	-3.516223e-001	2.821343e-001	-6.077476e-001	4.990385e-002	2.256090e-001	-5.625676e-002	-2.491683e-001
	2.876736e-001	-5.960969e-001	-5.170451e-001	-3.449711e-001	-5.661913e-002	-2.487750e-001	5.875796e-002	2.512073e-001
3273460000	1.158944e-001	2.214183e-001	-1.065283e-001	-2.305205e-001	-5.213950e-001	-3.455723e-001	2.810129e-001	-6.000074e-001
	-1.067930e-001	-2.305293e-001	9.367137e-002	2.295243e-001	2.737477e-001	-6.107353e-001	-5.208144e-001	-3.381017e-001
	-5.211507e-001	-3.451958e-001	2.746230e-001	-6.112350e-001	5.176168e-002	2.252196e-001	-6.031874e-002	-2.483645e-001
	2.804170e-001	-5.996074e-001	-5.212357e-001	-3.384557e-001	-6.065783e-002	-2.479153e-001	6.127347e-002	2.511193e-001
3278450000	1.174078e-001	2.204241e-001	-1.101589e-001	-2.289207e-001	-5.254947e-001	-3.390601e-001	2.736911e-001	-6.034654e-001
	-1.105162e-001	-2.289963e-001	9.535961e-002	2.291119e-001	2.661641e-001	-6.141613e-001	-5.249484e-001	-3.315512e-001
	-5.252669e-001	-3.386256e-001	2.671157e-001	-6.146714e-001	5.351498e-002	2.248689e-001	-6.434518e-002	-2.473120e-001
	2.730624e-001	-6.030920e-001	-5.254033e-001	-3.319205e-001	-6.464254e-002	-2.470412e-001	6.335002e-002	2.511273e-001
3283440000	1.189345e-001	2.192906e-001	-1.140107e-001	-2.271011e-001	-5.297362e-001	-3.326247e-001	2.663027e-001	-6.068011e-001
	-1.142111e-001	-2.274005e-001	9.684183e-002	2.286724e-001	2.586358e-001	-6.174956e-001	-5.290024e-001	-3.249581e-001
	-5.294714e-001	-3.321626e-001	2.595355e-001	-6.179105e-001	5.507418e-002	2.242940e-001	-6.823922e-002	-2.462949e-001
	2.656985e-001	-6.064723e-001	-5.294209e-001	-3.253884e-001	-6.856388e-002	-2.458466e-001	6.540755e-002	2.511424e-001
3288430000	1.204287e-001	2.180975e-001	-1.177017e-001	-2.252626e-001	-5.339293e-001	-3.260797e-001	2.589822e-001	-6.101200e-001
	-1.177918e-001	-2.255902e-001	9.817535e-002	2.280149e-001	2.510173e-001	-6.206832e-001	-5.329525e-001	-3.182892e-001
	-5.336290e-001	-3.256651e-001	2.519711e-001	-6.211188e-001	5.641097e-002	2.238186e-001	-7.206778e-002	-2.450925e-001
	2.583568e-001	-6.096983e-001	-5.334696e-001	-3.187099e-001	-7.247873e-002	-2.446500e-001	6.725494e-002	2.510703e-001
3293420000	1.215638e-001	2.168388e-001	-1.216248e-001	-2.233882e-001	-5.380172e-001	-3.195680e-001	2.516846e-001	-6.132471e-001
	-1.217132e-001	-2.237787e-001	9.953028e-002	2.272804e-001	2.435257e-001	-6.236999e-001	-5.368309e-001	-3.117263e-001
	-5.376962e-001	-3.191546e-001	2.444129e-001	-6.241073e-001	5.775342e-002	2.232197e-001	-7.598035e-002	-2.437897e-001
	2.510363e-001	-6.128442e-001	-5.372845e-001	-3.121828e-001	-7.658247e-002	-2.433461e-001	6.911257e-002	2.509481e-001
3298410000	1.229401e-001	2.155302e-001	-1.254383e-001	-2.213565e-001	-5.419942e-001	-3.130604e-001	2.444526e-001	-6.162326e-001
	-1.252682e-001	-2.217626e-001	1.008985e-001	2.263746e-001	2.360409e-001	-6.266865e-001	-5.405621e-001	-3.051142e-001
	-5.417132e-001	-3.126353e-001	2.369056e-001	-6.269667e-001	5.906881e-002	2.225604e-001	-8.001938e-002	-2.421962e-001
	2.437558e-001	-6.158710e-001	-5.410354e-001	-3.056773e-001	-8.046036e-002	-2.420327e-001	7.085223e-002	2.508036e-001
3303400000	1.241881e-001	2.142554e-001	-1.290997e-001	-2.192887e-001	-5.459772e-001	-3.064785e-001	2.371531e-001	-6.190725e-001
	-1.289532e-001	-2.196245e-001	1.022649e-001	2.254246e-001	2.285038e-001	-6.293980e-001	-5.441946e-001	-2.985746e-001
	-5.456424e-001	-3.060508e-001	2.293730e-001	-6.297013e-001	6.024880e-002	2.218840e-001	-8.410534e-002	-2.408452e-001
	2.365025e-001	-6.187386e-001	-5.446173e-001	-2.990563e-001	-8.460555e-002	-2.405919e-001	7.242150e-002	2.502017e-001
3308390000	1.254380e-001	2.130429e-001	-1.327084e-001	-2.171665e-001	-5.498923e-001	-2.997120e-001	2.296716e-001	-6.218540e-001
	-1.327897e-001	-2.176348e-001	1.036426e-001	2.242418e-001	2.209162e-001	-6.320647e-001	-5.478016e-001	-2.919578e-001
	-5.494311e-001	-2.993004e-001	2.217432e-001	-6.323964e-001	6.156348e-002	2.210787e-001	-8.820615e-002	-2.393897e-001
	2.289574e-001	-6.215341e-001	-5.482121e-001	-2.923413e-001	-8.865980e-002	-2.391803e-001	7.400399e-002	2.496093e-001
3313380000	1.270363e-001	2.116456e-001	-1.364484e-001	-2.151699e-001	-5.536663e-001	-2.928640e-001	2.220718e-001	-6.246859e-001
	-1.362074e-001	-2.153386e-001	1.051204e-001	2.229647e-001	2.131307e-001	-6.346647e-001	-5.514239e-001	-2.850881e-001
	-5.533473e-001	-2.924215e-001	2.139723e-001	-6.350010e-001	6.307790e-002	2.203348e-001	-9.209028e-002	-2.379689e-001
	2.214479e-001	-6.243016e-001	-5.517959e-001	-2.855621e-001	-9.259579e-002	-2.376767e-001	7.564124e-002	2.488227e-001
3318370000	1.285276e-001	2.102705e-001	-1.400525e-001	-2.130586e-001	-5.573448e-001	-2.857854e-001	2.143642e-001	-6.271982e-001
	-1.398456e-001	-2.131672e-001	1.066925e-001	2.218067e-001	2.053021e-001	-6.372590e-001	-5.549717e-001	-2.781126e-001
	-5.570219e-001	-2.854190e-001	2.061209e-001	-6.375507e-001	6.457988e-002	2.195777e-001	-9.622421e-002	-2.363144e-001
	2.136662e-001	-6.268600e-001	-5.552857e-001	-2.785602e-001	-9.640902e-002	-2.362238e-001	7.723523e-002	2.480017e-001
3323360000	1.300672e-001	2.087812e-001	-1.434551e-001	-2.107626e-001	-5.610471e-001	-2.787285e-001	2.066237e-001	-6.297821e-001
	-1.432025e-001	-2.109387e-001	1.084917e-001	2.206467e-001	1.974752e-001	-6.396862e-001	-5.583877e-001	-2.709631e-001
	-5.607065e-001	-2.782976e-001	1.983467e-001	-6.399714e-001	6.621041e-002	2.187232e-001	-1.000812e-001	-2.348609e-001
	2.059962e-001	-6.294330e-001	-5.587561e-001	-2.714495e-001	-1.004090e-001	-2.345231e-001	7.902754e-002	2.470990e-001
3328350000	1.315515e-001	2.073428e-001	-1.469200e-001	-2.084349e-001	-5.646645e-001	-2.715693e-001	1.988911e-001	-6.322442e-001
	-1.466707e-001	-2.086999e-001	1.102730e-001	2.194739e-001	1.896034e-001	-6.420603e-001	-5.617246e-001	-2.638646e-001
	-5.642295e-001	-2.711323e-001	1.905104e-001	-6.423255e-001	6.783176e-002	2.178441e-001	-1.039251e-001	-2.332042e-001
	1.982195e-001	-6.319356e-001	-5.620912e-001	-2.643172e-001	-1.041989e-001	-2.328640e-001	8.093817e-002	2.462084e-001
3333340000	1.330239e-001	2.060419e-001	-1.502095e-001	-2.060552e-001	-5.681702e-001	-2.644150e-001	1.912137e-001	-6.346783e-001
	-1.499022e-001	-2.062557e-001	1.123281e-001	2.184674e-001	1.816651e-001	-6.442902e-001	-5.649869e-001	-2.567672e-001
	-5.678001e-001	-2.639060e-001	1.826234e-001	-6.445648e-001	6.967905e-002	2.170534e-001	-1.076417e-001	-2.314892e-001
	1.905753e-001	-6.343834e-001	-5.654066e-001	-2.572652e-001	-1.080769e-001	-2.312941e-001	8.303491e-002	2.453541e-001
3338330000	1.345604e-001	2.048708e-001	-1.534405e-001	-2.036708e-001	-5.716134e-001	-2.572647e-001	1.835239e-001	-6.369548e-001
	-1.532004e-001	-2.037943e-001	1.141512e-001	2.173782e-001	1.738421e-001	-6.464037e-001	-5.682351e-001	-2.497452e-001
	-5.712068e-001	-2.567834e-001	1.747973e-001	-6.467107e-001	7.148348e-002	2.163069e-001	-1.115252e-001	-2.296073e-001
	1.828227e-001	-6.366323e-001	-5.686704e-001	-2.501892e-001	-1.120303e-001	-2.293391e-001	8.508451e-002	2.443615e-001
3343320000	1.359989e-001	2.037527e-001	-1.568286e-001	-2.011890e-001	-5.749644e-001	-2.500282e-001	1.757955e-001	-6.391036e-001
	-1.565410e-001	-2.013479e-001	1.159632e-001	2.164170e-001	1.659748e-001	-6.484696e-001	-5.714546e-001	-2.426548e-001
	-5.745138e-001	-2.496263e-001	1.668800e-001	-6.486864e-001	7.328956e-002	2.158297e-001	-1.154665e-001	-2.276775e-001
	1.750785e-001	-6.387422e-001	-5.719007e-001	-2.431663e-001	-1.155926e-001	-2.273542e-001	8.716863e-002	2.434611e-001
3348310000	1.374332e-001	2.028262e-001	-1.603061e-001	-1.985385e-001	-5.781708e-001	-2.428621e-001	1.681546e-001	-6.409141e-001
	-1.597852e-001	-1.985471e-001	1.175228e-001	2.156563e-001	1.580411e-001	-6.500960e-001	-5.745390e-001	-2.355511e-001
	-5.777327e-001	-2.423909e-001	1.589832e-001	-6.503125e-001	7.498096e-002	2.153729e-001	-1.193341e-001	-2.254549e-001
	1.674695e-001	-6.406054e-001	-5.749859e-001	-2.360668e-001	-1.197717e-001	-2.252125e-001	8.927011e-002	2.428069e-001
3353300000	1.388864e-001	2.020380e-001	-1.633118e-001	-1.956219e-001	-5.809978e-001	-2.356057e-001	1.608090e-001	-6.425593e-001
	-1.629764e-001	-1.956380e-001	1.193815e-001	2.153093e-001	1.505481e-001	-6.514028e-001	-5.772754e-001	-2.283898e-001
	-5.805816e-001	-2.351452e-001	1.514287e-001	-6.516578e-001	7.691086e-002	2.152876e-001	-1.230411e-001	-2.231485e-001
	1.600064e-001	-6.421938e-001	-5.777450e-001	-2.289188e-001	-1.234692e-001	-2.227029e-001	9.163802e-002	2.422765e-001
3358290000	1.405487e-001	2.009445e-001	-1.663244e-001	-1.930036e-001	-5.836367e-001	-2.285534e-001	1.534283e-001	-6.443574e-001
	-1.659103e-001	-1.931508e-001	1.214820e-001	2.145905e-001	1.429918e-001	-6.530152e-001	-5.798556e-001	-2.214483e-001
	-5.831507e-001	-2.280810e-001	1.439632e-001	-6.532030e-001	7.897986e-002	2.147029e-001	-1.266634e-001	-2.208579e-001
	1.525337e-001	-6.440119e-001	-5.803396e-001	-2.219896e-001	-1.272189e-001	-2.207916e-001	9.413814e-002	2.415064e-001
3363280000	1.420961e-001	1.998458e-001	-1.692745e-001	-1.906658e-001	-5.863274e-001	-2.214441e-001	1.457077e-001	-6.460833e-001
	-1.688467e-001	-1.908050e-001	1.232102e-001	2.137754e-001	1.352639e-001	-6.547238e-001	-5.824930e-001	-2.144611e-001
	-5.858934e-001	-2.209868e-001	1.361616e-001	-6.548776e-001	8.091086e-002	2.143251e-001	-1.305430e-001	-2.187860e-001
	1.448429e-001	-6.458228e-001	-5.829824e-001	-2.150186e-001	-1.307517e-001	-2.186935e-001	9.627559e-002	2.407670e-001
3368270000	1.434301e-001	1.988016e-001	-1.724742e-001	-1.882753e-001	-5.889763e-001	-2.142440e-001	1.379001e-001	-6.477292e-001
	-1.719183e-001	-1.883949e-001	1.246018e-001	2.129114e-001	1.272523e-001	-6.561730e-001	-5.851326e-001	-2.074368e-001
	-5.886290e-001	-2.137877e-001	1.281864e-001	-6.563981e-001	8.268963e-002	2.137330e-001	-1.343109e-001	-2.167569e-001
	1.370548e-001	-6.475108e-001	-5.856582e-001	-2.079510e-001	-1.345973e-001	-2.166959e-001	9.857562e-002	2.399646e-001
3373260000	1.447382e-001	1.978544e-001	-1.754592e-001	-1.856599e-001	-5.916606e-001	-2.069770e-001	1.299807e-001	-6.493500e-001
	-1.749301e-001	-1.857389e-001	1.258420e-001	2.123487e-001	1.192559e-001	-6.575557e-001	-5.877088e-001	-2.002478e-001
	-5.912690e-001	-2.065784e-001	1.202192e-001	-6.578324e-001	8.426498e-002	2.133524e-001	-1.379519e-001	-2.145821e-001
	1.292271e-001	-6.490603e-001	-5.883381e-001	-2.007093e-001	-1.382439e-001	-2.143839e-001	1.008572e-001	2.394098e-001
3378250000	1.458491e-001	1.967968e-001	-1.784457e-001	-1.830176e-001	-5.943132e-001	-1.996008e-001	1.220867e-001	-6.508017e-001
	-1.779664e-001	-1.832663e-001	1.270325e-001	2.117169e-001	1.112134e-001	-6.588452e-001	-5.903578e-001	-1.930187e-001
	-5.938841e-001	-1.992340e-001	1.121894e-001	-6.591313e-001	8.584970e-002	2.130485e-001	-1.415692e-001	-2.123058e-001
	1.212954e-001	-6.505824e-001	-5.909341e-001	-1.934648e-001	-1.418140e-001	-2.120990e-001	1.028798e-001	2.386848e-001
3383240000	1.470087e-001	1.956888e-001	-1.813473e-001	-1.802834e-001	-5.968966e-001	-1.922649e-001	1.142789e-001	-6.522024e-001
	-1.808940e-001	-1.805287e-001	1.280139e-001	2.111523e-001	1.032501e-001	-6.600410e-001	-5.928911e-001	-1.856311e-001
	-5.964856e-001	-1.919023e-001	1.042130e-001	-6.603329e-001	8.730503e-002	2.127075e-001	-1.449118e-001	-2.098781e-001
	1.134901e-001	-6.519041e-001	-5.935103e-001	-1.860736e-001	-1.452452e-001	-2.095822e-001	1.049228e-001	2.381965e-001
3388230000	1.479969e-001	1.945589e-001	-1.842316e-001	-1.774046e-001	-5.995442e-001	-1.848626e-001	1.063336e-001	-6.535106e-001
	-1.838143e-001	-1.778131e-001	1.289163e-001	2.105305e-001	9.531821e-002	-6.612082e-001	-5.954096e-001	-1.783240e-001
	-5.990700e-001	-1.845851e-001	9.629885e-002	-6.614135e-001	8.863154e-002	2.123435e-001	-1.482660e-001	-2.074247e-001
	1.056035e-001	-6.532928e-001	-5.961174e-001	-1.787422e-001	-1.485369e-001	-2.070325e-001	1.067389e-001	2.376456e-001
3393220000	1.488472e-001	1.934263e-001	-1.872422e-001	-1.745206e-001	-6.020717e-001	-1.774405e-001	9.846182e-002	-6.546454e-001
	-1.868159e-001	-1.747623e-001	1.298070e-001	2.100065e-001	8.735059e-002	-6.622150e-001	-5.977875e-001	-1.709214e-001
	-6.016921e-001	-1.772130e-001	8.832765e-002	-6.624461e-001	8.984473e-002	2.119009e-001	-1.516683e-001	-2.046333e-001
	9.779506e-002	-6.543238e-001	-5.984680e-001	-1.713821e-001	-1.519074e-001	-2.044816e-001	1.082687e-001	2.373116e-001
3398210000	1.495622e-001	1.923127e-001	-1.903219e-001	-1.713899e-001	-6.045235e-001	-1.700558e-001	9.068433e-002	-6.554999e-001
	-1.898192e-001	-1.716321e-001	1.304621e-001	2.092707e-001	7.955252e-002	-6.630133e-001	-6.001500e-001	-1.636178e-001
	-6.041560e-001	-1.697996e-001	8.042194e-002	-6.632618e-001	9.087582e-002	2.113128e-001	-1.549868e-001	-2.018264e-001
	9.006535e-002	-6.552438e-001	-6.007846e-001	-1.640872e-001	-1.553609e-001	-2.016898e-001	1.098316e-001	2.367913e-001
3403200000	1.504363e-001	1.912077e-001	-1.932673e-001	-1.681923e-001	-6.068741e-001	-1.626277e-001	8.290568e-002	-6.562989e-001
	-1.927351e-001	-1.684789e-001	1.312376e-001	2.084952e-001	7.172425e-002	-6.637044e-001	-6.023480e-001	-1.563273e-001
	-6.064646e-001	-1.624566e-001	7.265453e-002	-6.639195e-001	9.185928e-002	2.108319e-001	-1.584668e-001	-1.990743e-001
	8.239030e-002	-6.560190e-001	-6.030036e-001	-1.567103e-001	-1.586448e-001	-1.987966e-001	1.110788e-001	2.362782e-001
3408190000	1.514836e-001	1.898474e-001	-1.961614e-001	-1.651131e-001	-6.090917e-001	-1.551209e-001	7.509577e-002	-6.569621e-001
	-1.956210e-001	-1.653573e-001	1.319274e-001	2.075205e-001	6.374738e-002	-6.642765e-001	-6.044817e-001	-1.488573e-001
	-6.086691e-001	-1.550130e-001	6.461999e-002	-6.646010e-001	9.279987e-002	2.102457e-001	-1.616461e-001	-1.960930e-001
	7.458136e-002	-6.567195e-001	-6.050467e-001	-1.492337e-001	-1.619105e-001	-1.959069e-001	1.123737e-001	2.357732e-001
3413180000	1.522295e-001	1.884884e-001	-1.990471e-001	-1.618527e-001	-6.112131e-001	-1.474911e-001	6.714607e-002	-6.575468e-001
	-1.984236e-001	-1.620546e-001	1.326564e-001	2.065866e-001	5.571570e-002	-6.646662e-001	-6.065155e-001	-1.412899e-001
	-6.107682e-001	-1.473551e-001	5.656730e-002	-6.650394e-001	9.381503e-002	2.094731e-001	-1.649472e-001	-1.933799e-001
	6.674239e-002	-6.573185e-001	-6.070830e-001	-1.416367e-001	-1.651634e-001	-1.930436e-001	1.135815e-001	2.350834e-001
3418170000	1.529462e-001	1.869895e-001	-2.017392e-001	-1.585522e-001	-6.133171e-001	-1.397949e-001	5.916949e-002	-6.581051e-001
	-2.012105e-001	-1.587746e-001	1.337534e-001	2.056161e-001	4.766721e-002	-6.650304e-001	-6.084413e-001	-1.334995e-001
	-6.128445e-001	-1.396986e-001	4.849121e-002	-6.653673e-001	9.493713e-002	2.083351e-001	-1.678961e-001	-1.905229e-001
	5.879900e-002	-6.578042e-001	-6.089942e-001	-1.339268e-001	-1.682531e-001	-1.902614e-001	1.149778e-001	2.342622e-001
3423160000	1.539934e-001	1.854189e-001	-2.042363e-001	-1.552429e-001	-6.153155e-001	-1.320538e-001	5.114382e-002	-6.585263e-001
	-2.036978e-001	-1.554927e-001	1.348578e-001	2.046940e-001	3.957765e-002	-6.652790e-001	-6.103272e-001	-1.256585e-001
	-6.148597e-001	-1.319260e-001	4.038563e-002	-6.656799e-001	9.611660e-002	2.073436e-001	-1.709984e-001	-1.875722e-001
	5.086867e-002	-6.582613e-001	-6.107911e-001	-1.261121e-001	-1.713252e-001	-1.873858e-001	1.162665e-001	2.333782e-001
3428150000	1.548848e-001	1.840004e-001	-2.067228e-001	-1.518761e-001	-6.172748e-001	-1.242745e-001	4.314936e-002	-6.588723e-001
	-2.061741e-001	-1.521145e-001	1.361029e-001	2.036253e-001	3.156543e-002	-6.654111e-001	-6.120591e-001	-1.177790e-001
	-6.167728e-001	-1.241330e-001	3.244066e-002	-6.657801e-001	9.752454e-002	2.062179e-001	-1.739298e-001	-1.846680e-001
	4.292491e-002	-6.585475e-001	-6.125008e-001	-1.182811e-001	-1.742556e-001	-1.844237e-001	1.176037e-001	2.324262e-001
3433140000	1.557594e-001	1.824988e-001	-2.091271e-001	-1.484625e-001	-6.191576e-001	-1.164495e-001	3.527724e-002	-6.590812e-001
	-2.087422e-001	-1.485783e-001	1.374847e-001	2.027301e-001	2.368441e-002	-6.654758e-001	-6.137384e-001	-1.098835e-001
	-6.186832e-001	-1.164209e-001	2.452830e-002	-6.659090e-001	9.882030e-002	2.051072e-001	-1.767907e-001	-1.813814e-001
	3.508574e-002	-6.586968e-001	-6.142099e-001	-1.103963e-001	-1.769997e-001	-1.812703e-001	1.190147e-001	2.315770e-001
3438130000	1.566625e-001	1.809163e-001	-2.115975e-001	-1.449672e-001	-6.210245e-001	-1.086287e-001	2.745657e-002	-6.592572e-001
	-2.109108e-001	-1.450941e-001	1.387640e-001	2.018681e-001	1.585803e-002	-6.654144e-001	-6.152865e-001	-1.019871e-001
	-6.205348e-001	-1.085462e-001	1.662451e-002	-6.658905e-001	1.002646e-001	2.040159e-001	-1.793886e-001	-1.782750e-001
	2.736500e-002	-6.588086e-001	-6.157843e-001	-1.025922e-001	-1.797633e-001	-1.779750e-001	1.205484e-001	2.306794e-001
3443120000	1.576168e-001	1.795731e-001	-2.138598e-001	-1.413679e-001	-6.226818e-001	-1.008426e-001	1.971495e-002	-6.592150e-001
	-2.131061e-001	-1.415318e-001	1.402752e-001	2.009575e-001	8.098613e-003	-6.652752e-001	-6.167104e-001	-9.427279e-002
	-6.222644e-001	-1.007645e-001	8.819991e-003	-6.656852e-001	1.018498e-001	2.029635e-001	-1.822587e-001	-1.750958e-001
	1.972253e-002	-6.587995e-001	-6.172743e-001	-9.489548e-002	-1.824170e-001	-1.748156e-001	1.221613e-001	2.297477e-001
3448110000	1.585097e-001	1.782949e-001	-2.162010e-001	-1.377064e-001	-6.242559e-001	-9.310863e-002	1.219409e-002	-6.590976e-001
	-2.152576e-001	-1.378085e-001	1.417468e-001	2.004135e-001	4.167670e-004	-6.650817e-001	-6.180699e-001	-8.663206e-002
	-6.238746e-001	-9.309722e-002	1.086150e-003	-6.653619e-001	1.033023e-001	2.020680e-001	-1.848144e-001	-1.715818e-001
	1.213626e-002	-6.585811e-001	-6.186102e-001	-8.722688e-002	-1.848968e-001	-1.714893e-001	1.238926e-001	2.290460e-001
3453100000	1.593332e-001	1.771465e-001	-2.183351e-001	-1.341820e-001	-6.258320e-001	-8.549125e-002	4.684419e-003	-6.588804e-001
	-2.176947e-001	-1.341981e-001	1.432822e-001	1.996817e-001	-7.165965e-003	-6.645191e-001	-6.193503e-001	-7.899875e-002
	-6.254051e-001	-8.551536e-002	-6.576499e-003	-6.650148e-001	1.046403e-001	2.011348e-001	-1.875231e-001	-1.682842e-001
	4.530453e-003	-6.582263e-001	-6.198577e-001	-7.966384e-002	-1.878790e-001	-1.679896e-001	1.254170e-001	2.282202e-001
3458090000	1.603200e-001	1.760131e-001	-2.206992e-001	-1.305711e-001	-6.272502e-001	-7.778711e-002	-2.915536e-003	-6.584651e-001
	-2.196827e-001	-1.306390e-001	1.446018e-001	1.991636e-001	-1.496047e-002	-6.638838e-001	-6.205878e-001	-7.142888e-002
	-6.267155e-001	-7.772524e-002	-1.438855e-002	-6.644183e-001	1.061632e-001	2.002702e-001	-1.904561e-001	-1.648185e-001
	-3.060457e-003	-6.579605e-001	-6.210391e-001	-7.204423e-002	-1.908729e-001	-1.647110e-001	1.271599e-001	2.274546e-001
3463080000	1.611132e-001	1.749207e-001	-2.228740e-001	-1.271119e-001	-6.285203e-001	-6.992546e-002	-1.066896e-002	-6.579752e-001
	-2.221363e-001	-1.271580e-001	1.461189e-001	1.985895e-001	-2.279592e-002	-6.632401e-001	-6.216599e-001	-6.368625e-002
	-6.280413e-001	-6.992293e-002	-2.228999e-002	-6.638056e-001	1.075616e-001	1.995654e-001	-1.932475e-001	-1.615247e-001
	-1.092321e-002	-6.574460e-001	-6.221268e-001	-6.428059e-002	-1.935956e-001	-1.613309e-001	1.286352e-001	2.268475e-001
3468070000	1.619038e-001	1.739124e-001	-2.250498e-001	-1.235001e-001	-6.296998e-001	-6.191940e-002	-1.857186e-002	-6.574393e-001
	-2.243030e-001	-1.234639e-001	1.473842e-001	1.981363e-001	-3.076533e-002	-6.623706e-001	-6.225914e-001	-5.583803e-002
	-6.292772e-001	-6.187199e-002	-3.021299e-002	-6.629828e-001	1.089049e-001	1.990323e-001	-1.960253e-001	-1.584202e-001
	-1.868909e-002	-6.568361e-001	-6.231773e-001	-5.633937e-002	-1.965352e-001	-1.581251e-001	1.304761e-001	2.262164e-001
3473060000	1.625737e-001	1.729679e-001	-2.269643e-001	-1.198771e-001	-6.307167e-001	-5.372922e-002	-2.630206e-002	-6.566698e-001
	-2.262548e-001	-1.198814e-001	1.487415e-001	1.978627e-001	-3.851004e-002	-6.614575e-001	-6.235694e-001	-4.782783e-002
	-6.302676e-001	-5.376676e-002	-3.806158e-002	-6.620178e-001	1.105572e-001	1.985666e-001	-1.985615e-001	-1.548231e-001
	-2.650983e-002	-6.561192e-001	-6.240978e-001	-4.829996e-002	-1.988697e-001	-1.546563e-001	1.321973e-001	2.257599e-001
3478050000	1.636072e-001	1.720445e-001	-2.287961e-001	-1.162540e-001	-6.316245e-001	-4.563973e-002	-3.393672e-002	-6.558576e-001
	-2.280348e-001	-1.162287e-001	1.501434e-001	1.973806e-001	-4.617384e-002	-6.603815e-001	-6.242582e-001	-3.973926e-002
	-6.311186e-001	-4.564878e-002	-4.577371e-002	-6.609795e-001	1.122002e-001	1.980877e-001	-2.008695e-001	-1.514895e-001
	-3.414795e-002	-6.552974e-001	-6.248143e-001	-4.024652e-002	-2.012390e-001	-1.510887e-001	1.338917e-001	2.253843e-001
3483040000	1.643462e-001	1.710808e-001	-2.305384e-001	-1.124900e-001	-6.324498e-001	-3.758644e-002	-4.155441e-002	-6.550014e-001
	-2.298773e-001	-1.125278e-001	1.512733e-001	1.970544e-001	-5.380057e-002	-6.593240e-001	-6.248791e-001	-3.184100e-002
	-6.319840e-001	-3.763050e-002	-5.337596e-002	-6.599098e-001	1.138064e-001	1.975971e-001	-2.032426e-001	-1.479821e-001
	-4.173736e-002	-6.544425e-001	-6.254185e-001	-3.222818e-002	-2.033606e-001	-1.475373e-001	1.357913e-001	2.248652e-001
3488030000	1.651961e-001	1.701462e-001	-2.321986e-001	-1.086417e-001	-6.331813e-001	-2.957373e-002	-4.906763e-002	-6.541039e-001
	-2.315477e-001	-1.086537e-001	1.524574e-001	1.965749e-001	-6.135175e-002	-6.581508e-001	-6.254351e-001	-2.392084e-002
	-6.326776e-001	-2.955201e-002	-6.090595e-002	-6.587498e-001	1.152159e-001	1.972113e-001	-2.053312e-001	-1.443004e-001
	-4.925133e-002	-6.535711e-001	-6.259734e-001	-2.424200e-002	-2.057238e-001	-1.439651e-001	1.375359e-001	2.246895e-001
3493020000	1.659799e-001	1.690573e-001	-2.338596e-001	-1.047680e-001	-6.338088e-001	-2.166683e-002	-5.650546e-002	-6.531203e-001
	-2.332000e-001	-1.047918e-001	1.534583e-001	1.960793e-001	-6.870569e-002	-6.569024e-001	-6.259119e-001	-1.602774e-002
	-6.333818e-001	-2.159579e-002	-6.836334e-002	-6.574845e-001	1.166354e-001	1.969703e-001	-2.072995e-001	-1.405621e-001
	-5.667774e-002	-6.525111e-001	-6.264471e-001	-1.638629e-002	-2.076936e-001	-1.400345e-001	1.391553e-001	2.243604e-001
3498010000	1.668005e-001	1.679926e-001	-2.356810e-001	-1.009386e-001	-6.343949e-001	-1.381200e-002	-6.381371e-002	-6.519481e-001
	-2.347886e-001	-1.010299e-001	1.541072e-001	1.954370e-001	-7.605080e-002	-6.555544e-001	-6.262464e-001	-8.262969e-003
	-6.338928e-001	-1.377872e-002	-7.577297e-002	-6.561830e-001	1.177622e-001	1.965503e-001	-2.093852e-001	-1.368101e-001
	-6.404771e-002	-6.514414e-001	-6.267995e-001	-8.606970e-003	-2.098791e-001	-1.363056e-001	1.407243e-001	2.240654e-001
3503000000	1.675768e-001	1.668093e-001	-2.372758e-001	-9.696009e-002	-6.347772e-001	-6.050100e-003	-7.103322e-002	-6.507005e-001
	-2.363889e-001	-9.708394e-002	1.547883e-001	1.948166e-001	-8.336570e-002	-6.541867e-001	-6.265768e-001	-6.597468e-004
	-6.343874e-001	-6.013171e-003	-8.304577e-002	-6.547723e-001	1.188324e-001	1.960724e-001	-2.114729e-001	-1.329654e-001
	-7.125516e-002	-6.502064e-001	-6.270881e-001	-9.504952e-004	-2.119679e-001	-1.325985e-001	1.421261e-001	2.236358e-001
3507990000	1.682529e-001	1.657885e-001	-2.390042e-001	-9.326526e-002	-6.351451e-001	1.761325e-003	-7.835919e-002	-6.493828e-001
	-2.380856e-001	-9.326040e-002	1.554995e-001	1.939335e-001	-9.073031e-002	-6.526623e-001	-6.268117e-001	7.126062e-003
	-6.347012e-001	1.790074e-003	-9.051559e-002	-6.532699e-001	1.198018e-001	1.954924e-001	-2.134568e-001	-1.291826e-001
	-7.872149e-002	-6.488667e-001	-6.272578e-001	6.725928e-003	-2.139778e-001	-1.288686e-001	1.433466e-001	2.231324e-001
3512980000	1.688592e-001	1.642966e-001	-2.404376e-001	-8.930587e-002	-6.354835e-001	9.725557e-003	-8.586378e-002	-6.478337e-001
	-2.396699e-001	-8.945832e-002	1.561833e-001	1.929844e-001	-9.817560e-002	-6.511218e-001	-6.269372e-001	1.492766e-002
	-6.350395e-001	9.724268e-003	-9.794249e-002	-6.517511e-001	1.205046e-001	1.947593e-001	-2.156156e-001	-1.255438e-001
	-8.615360e-002	-6.474586e-001	-6.274435e-001	1.465011e-002	-2.160627e-001	-1.251256e-001	1.446606e-001	2.225036e-001
3517970000	1.696703e-001	1.629992e-001	-2.419589e-001	-8.545411e-002	-6.357154e-001	1.773128e-002	-9.330392e-002	-6.463034e-001
	-2.409580e-001	-8.537056e-002	1.568531e-001	1.919237e-001	-1.057165e-001	-6.494643e-001	-6.270104e-001	2.283674e-002
	-6.352696e-001	1.777932e-002	-1.054698e-001	-6.501036e-001	1.213067e-001	1.938027e-001	-2.175931e-001	-1.218634e-001
	-9.353575e-002	-6.458951e-001	-6.275658e-001	2.255289e-002	-2.180245e-001	-1.214799e-001	1.457913e-001	2.217394e-001
3522960000	1.703551e-001	1.614968e-001	-2.433401e-001	-8.140553e-002	-6.358606e-001	2.582938e-002	-1.007901e-001	-6.446907e-001
	-2.423217e-001	-8.145367e-002	1.576425e-001	1.908270e-001	-1.132138e-001	-6.477118e-001	-6.269942e-001	3.079993e-002
	-6.354605e-001	2.583245e-002	-1.129385e-001	-6.483993e-001	1.219910e-001	1.928918e-001	-2.195649e-001	-1.181457e-001
	-1.009886e-001	-6.444202e-001	-6.276154e-001	3.053811e-002	-2.198675e-001	-1.177794e-001	1.469516e-001	2.209792e-001
3527950000	1.712139e-001	1.600277e-001	-2.443583e-001	-7.752746e-002	-6.360137e-001	3.393945e-002	-1.081926e-001	-6.430820e-001
	-2.435439e-001	-7.743657e-002	1.585991e-001	1.897314e-001	-1.207026e-001	-6.459828e-001	-6.269449e-001	3.884746e-002
	-6.355835e-001	3.389930e-002	-1.203126e-001	-6.466880e-001	1.228152e-001	1.917770e-001	-2.212264e-001	-1.145263e-001
	-1.083710e-001	-6.427827e-001	-6.275949e-001	3.862648e-002	-2.215580e-001	-1.141696e-001	1.483452e-001	2.201503e-001
3532940000	1.719229e-001	1.584116e-001	-2.454596e-001	-7.339806e-002	-6.360569e-001	4.208849e-002	-1.155021e-001	-6.413438e-001
	-2.445275e-001	-7.348497e-002	1.596363e-001	1.887496e-001	-1.279649e-001	-6.441195e-001	-6.268716e-001	4.683238e-002
	-6.356582e-001	4.204045e-002	-1.276258e-001	-6.448260e-001	1.237351e-001	1.907167e-001	-2.229334e-001	-1.106505e-001
	-1.156596e-001	-6.411814e-001	-6.275326e-001	4.660375e-002	-2.231169e-001	-1.102718e-001	1.496425e-001	2.191512e-001
3537930000	1.725816e-001	1.569104e-001	-2.464951e-001	-6.927651e-002	-6.360945e-001	5.018038e-002	-1.227929e-001	-6.396231e-001
	-2.458227e-001	-6.950532e-002	1.607401e-001	1.877100e-001	-1.353074e-001	-6.421427e-001	-6.267715e-001	5.484951e-002
	-6.356890e-001	5.010310e-002	-1.349180e-001	-6.428974e-001	1.246898e-001	1.897271e-001	-2.246267e-001	-1.068630e-001
	-1.230292e-001	-6.394315e-001	-6.274533e-001	5.461733e-002	-2.246842e-001	-1.063276e-001	1.508906e-001	2.183071e-001
3542920000	1.734273e-001	1.555206e-001	-2.476429e-001	-6.487561e-002	-6.361231e-001	5.827606e-002	-1.299665e-001	-6.377067e-001
	-2.467402e-001	-6.503636e-002	1.618358e-001	1.869862e-001	-1.425527e-001	-6.399525e-001	-6.265954e-001	6.289586e-002
	-6.357346e-001	5.818501e-002	-1.421179e-001	-6.406761e-001	1.255378e-001	1.887748e-001	-2.261440e-001	-1.028137e-001
	-1.300921e-001	-6.375154e-001	-6.273547e-001	6.257926e-002	-2.264730e-001	-1.022893e-001	1.521998e-001	2.175051e-001
3547910000	1.738890e-001	1.541836e-001	-2.486738e-001	-6.073966e-002	-6.359876e-001	6.633863e-002	-1.369839e-001	-6.357676e-001
	-2.477911e-001	-6.084028e-002	1.629888e-001	1.863052e-001	-1.496339e-001	-6.376859e-001	-6.262668e-001	7.086031e-002
	-6.356204e-001	6.627546e-002	-1.492585e-001	-6.384070e-001	1.265988e-001	1.879296e-001	-2.275769e-001	-9.869116e-002
	-1.372674e-001	-6.355290e-001	-6.270174e-001	7.059150e-002	-2.279650e-001	-9.821193e-002	1.536252e-001	2.167342e-001
3552900000	1.744697e-001	1.528781e-001	-2.496945e-001	-5.651248e-002	-6.357842e-001	7.433539e-002	-1.439421e-001	-6.336730e-001
	-2.487046e-001	-5.655465e-002	1.642759e-001	1.857113e-001	-1.565540e-001	-6.353983e-001	-6.258342e-001	7.876991e-002
	-6.354410e-001	7.424091e-002	-1.562704e-001	-6.360493e-001	1.277899e-001	1.870355e-001	-2.290203e-001	-9.450039e-002
	-1.442477e-001	-6.334108e-001	-6.265582e-001	7.841958e-002	-2.292003e-001	-9.412621e-002	1.550918e-001	2.160776e-001
3557890000	1.749043e-001	1.517235e-001	-2.505881e-001	-5.229576e-002	-6.354242e-001	8.244676e-002	-1.510621e-001	-6.313858e-001
	-2.496291e-001	-5.231236e-002	1.656207e-001	1.851765e-001	-1.635827e-001	-6.328738e-001	-6.251718e-001	8.673272e-002
	-6.351016e-001	8.238022e-002	-1.633083e-001	-6.336095e-001	1.288334e-001	1.863079e-001	-2.305066e-001	-9.050735e-002
	-1.513532e-001	-6.311984e-001	-6.258713e-001	8.644313e-002	-2.308172e-001	-9.009328e-002	1.566134e-001	2.154355e-001
3562880000	1.753791e-001	1.506293e-001	-2.513705e-001	-4.811240e-002	-6.349370e-001	9.066169e-002	-1.581732e-001	-6.290185e-001
	-2.506106e-001	-4.804577e-002	1.669889e-001	1.845405e-001	-1.706510e-001	-6.303050e-001	-6.243521e-001	9.472990e-002
	-6.345587e-001	9.063992e-002	-1.704274e-001	-6.310348e-001	1.302045e-001	1.854583e-001	-2.319393e-001	-8.648270e-002
	-1.585011e-001	-6.287071e-001	-6.250713e-001	9.447218e-002	-2.322180e-001	-8.603748e-002	1.582272e-001	2.148232e-001
3567870000	1.759601e-001	1.493062e-001	-2.521260e-001	-4.408538e-002	-6.342164e-001	9.893053e-002	-1.652311e-001	-6.266607e-001
	-2.512178e-001	-4.396065e-002	1.684454e-001	1.840173e-001	-1.777481e-001	-6.276833e-001	-6.234406e-001	1.028350e-001
	-6.338601e-001	9.893162e-002	-1.775283e-001	-6.284170e-001	1.315633e-001	1.846989e-001	-2.329979e-001	-8.228259e-002
	-1.656231e-001	-6.263758e-001	-6.240568e-001	1.025502e-001	-2.333996e-001	-8.209593e-002	1.598616e-001	2.141821e-001
3572860000	1.762647e-001	1.480961e-001	-2.526788e-001	-4.000309e-002	-6.334530e-001	1.073376e-001	-1.723440e-001	-6.242732e-001
	-2.519827e-001	-3.998343e-002	1.697399e-001	1.834549e-001	-1.847137e-001	-6.248940e-001	-6.223341e-001	1.109431e-001
	-6.330641e-001	1.073266e-001	-1.844860e-001	-6.257289e-001	1.329075e-001	1.838901e-001	-2.340385e-001	-7.843588e-002
	-1.727890e-001	-6.238404e-001	-6.229367e-001	1.106476e-001	-2.343379e-001	-7.804289e-002	1.614966e-001	2.135618e-001
3577850000	1.767796e-001	1.470843e-001	-2.530948e-001	-3.585706e-002	-6.325557e-001	1.157063e-001	-1.794543e-001	-6.216550e-001
	-2.524901e-001	-3.566943e-002	1.711505e-001	1.829743e-001	-1.916695e-001	-6.221804e-001	-6.211656e-001	1.189561e-001
	-6.320805e-001	1.156985e-001	-1.914664e-001	-6.230420e-001	1.344275e-001	1.831204e-001	-2.350633e-001	-7.443138e-002
	-1.797648e-001	-6.212416e-001	-6.217332e-001	1.187089e-001	-2.352511e-001	-7.403253e-002	1.633411e-001	2.128984e-001
3582840000	1.773809e-001	1.458521e-001	-2.535339e-001	-3.164810e-002	-6.316058e-001	1.240460e-001	-1.864755e-001	-6.191404e-001
	-2.528438e-001	-3.159512e-002	1.724417e-001	1.826021e-001	-1.986634e-001	-6.193995e-001	-6.198943e-001	1.270350e-001
	-6.311407e-001	1.240163e-001	-1.983464e-001	-6.201294e-001	1.358767e-001	1.823899e-001	-2.357399e-001	-7.052809e-002
	-1.867638e-001	-6.186006e-001	-6.204487e-001	1.267756e-001	-2.359886e-001	-7.010118e-002	1.651554e-001	2.123948e-001
3587830000	1.778434e-001	1.448788e-001	-2.538033e-001	-2.729785e-002	-6.305412e-001	1.324023e-001	-1.933519e-001	-6.164686e-001
	-2.531741e-001	-2.739137e-002	1.734888e-001	1.821375e-001	-2.054406e-001	-6.164355e-001	-6.185393e-001	1.350591e-001
	-6.300428e-001	1.324169e-001	-2.051447e-001	-6.172240e-001	1.372779e-001	1.818982e-001	-2.362921e-001	-6.635251e-002
	-1.936750e-001	-6.158881e-001	-6.191498e-001	1.348492e-001	-2.367468e-001	-6.588362e-002	1.669406e-001	2.119733e-001
3592820000	1.783732e-001	1.439560e-001	-2.542481e-001	-2.291448e-002	-6.293671e-001	1.406606e-001	-2.001007e-001	-6.136149e-001
	-2.536168e-001	-2.290334e-002	1.745463e-001	1.818846e-001	-2.121877e-001	-6.134319e-001	-6.172500e-001	1.429758e-001
	-6.288709e-001	1.407036e-001	-2.119296e-001	-6.141057e-001	1.386326e-001	1.815087e-001	-2.369284e-001	-6.202372e-002
	-2.004094e-001	-6.129750e-001	-6.177170e-001	1.427783e-001	-2.373979e-001	-6.168172e-002	1.687031e-001	2.115020e-001
3597810000	1.788961e-001	1.427726e-001	-2.544397e-001	-1.851343e-002	-6.280914e-001	1.488958e-001	-2.067586e-001	-6.106397e-001
	-2.539410e-001	-1.864118e-002	1.754639e-001	1.814866e-001	-2.186840e-001	-6.102924e-001	-6.158041e-001	1.508704e-001
	-6.276282e-001	1.488536e-001	-2.184538e-001	-6.109959e-001	1.398028e-001	1.811462e-001	-2.376380e-001	-5.779859e-002
	-2.070600e-001	-6.099947e-001	-6.162689e-001	1.506644e-001	-2.379941e-001	-5.738411e-002	1.703417e-001	2.111511e-001
3602800000	1.794577e-001	1.417512e-001	-2.547962e-001	-1.421465e-002	-6.267001e-001	1.569747e-001	-2.133288e-001	-6.075919e-001
	-2.541807e-001	-1.429925e-002	1.762608e-001	1.810781e-001	-2.252695e-001	-6.070403e-001	-6.142491e-001	1.586534e-001
	-6.262533e-001	1.569601e-001	-2.250485e-001	-6.076939e-001	1.408612e-001	1.808541e-001	-2.383628e-001	-5.346751e-002
	-2.136880e-001	-6.069931e-001	-6.146699e-001	1.584447e-001	-2.386699e-001	-5.315157e-002	1.718907e-001	2.107808e-001
3607790000	1.798913e-001	1.407369e-001	-2.549731e-001	-9.890221e-003	-6.252072e-001	1.651375e-001	-2.198409e-001	-6.044867e-001
	-2.543294e-001	-9.977234e-003	1.769154e-001	1.804382e-001	-2.317936e-001	-6.037236e-001	-6.126457e-001	1.664409e-001
	-6.247307e-001	1.650759e-001	-2.315926e-001	-6.044116e-001	1.416583e-001	1.806068e-001	-2.389007e-001	-4.914534e-002
	-2.202428e-001	-6.039147e-001	-6.130611e-001	1.662062e-001	-2.393256e-001	-4.896712e-002	1.731886e-001	2.103085e-001
3612780000	1.802349e-001	1.396481e-001	-2.549755e-001	-5.652642e-003	-6.235644e-001	1.733479e-001	-2.265356e-001	-6.012641e-001
	-2.544898e-001	-5.637710e-003	1.776083e-001	1.797525e-001	-2.383009e-001	-6.002959e-001	-6.109478e-001	1.742787e-001
	-6.231110e-001	1.733251e-001	-2.381750e-001	-6.010663e-001	1.425041e-001	1.801578e-001	-2.394720e-001	-4.491786e-002
	-2.269275e-001	-6.006695e-001	-6.112849e-001	1.741017e-001	-2.398236e-001	-4.465075e-002	1.744609e-001	2.098972e-001
3617770000	1.806873e-001	1.383885e-001	-2.548775e-001	-1.472368e-003	-6.217860e-001	1.815708e-001	-2.331688e-001	-5.979015e-001
	-2.543653e-001	-1.222230e-003	1.782442e-001	1.788492e-001	-2.448933e-001	-5.968260e-001	-6.091675e-001	1.822538e-001
	-6.214505e-001	1.816037e-001	-2.447402e-001	-5.977165e-001	1.432790e-001	1.796260e-001	-2.400028e-001	-4.054130e-002
	-2.335389e-001	-5.974018e-001	-6.094741e-001	1.821036e-001	-2.403843e-001	-4.049425e-002	1.755589e-001	2.092781e-001
3622760000	1.811676e-001	1.372182e-001	-2.547750e-001	2.912111e-003	-6.199253e-001	1.898915e-001	-2.398330e-001	-5.945138e-001
	-2.542278e-001	3.046457e-003	1.790400e-001	1.780559e-001	-2.513814e-001	-5.933286e-001	-6.072543e-001	1.902483e-001
	-6.195372e-001	1.898479e-001	-2.511922e-001	-5.941560e-001	1.439613e-001	1.790205e-001	-2.404620e-001	-3.637508e-002
	-2.402311e-001	-5.940813e-001	-6.076330e-001	1.901363e-001	-2.407035e-001	-3.621577e-002	1.767129e-001	2.087376e-001
3627750000	1.816480e-001	1.358992e-001	-2.543729e-001	7.304567e-003	-6.179319e-001	1.981783e-001	-2.464449e-001	-5.910436e-001
	-2.538429e-001	7.396550e-003	1.798595e-001	1.772045e-001	-2.577896e-001	-5.897756e-001	-6.052950e-001	1.983251e-001
	-6.176561e-001	1.982139e-001	-2.575822e-001	-5.906141e-001	1.447157e-001	1.784056e-001	-2.407737e-001	-3.214667e-002
	-2.467326e-001	-5.906755e-001	-6.057169e-001	1.982302e-001	-2.408792e-001	-3.203906e-002	1.777779e-001	2.079967e-001
3632740000	1.822266e-001	1.346762e-001	-2.537351e-001	1.193104e-002	-6.159637e-001	2.065031e-001	-2.529452e-001	-5.875563e-001
	-2.533623e-001	1.199507e-002	1.809499e-001	1.763215e-001	-2.640060e-001	-5.861465e-001	-6.031694e-001	2.063586e-001
	-6.156526e-001	2.064779e-001	-2.636679e-001	-5.870360e-001	1.454978e-001	1.775214e-001	-2.408383e-001	-2.786462e-002
	-2.531107e-001	-5.871820e-001	-6.036760e-001	2.063020e-001	-2.408911e-001	-2.765065e-002	1.789403e-001	2.073955e-001
3637730000	1.827334e-001	1.335434e-001	-2.530599e-001	1.631315e-002	-6.138046e-001	2.146530e-001	-2.592309e-001	-5.839910e-001
	-2.526015e-001	1.643574e-002	1.821596e-001	1.755517e-001	-2.700661e-001	-5.825206e-001	-6.010337e-001	2.143775e-001
	-6.135821e-001	2.147320e-001	-2.697773e-001	-5.834234e-001	1.464993e-001	1.767865e-001	-2.407636e-001	-2.345501e-002
	-2.593517e-001	-5.836740e-001	-6.015088e-001	2.142669e-001	-2.406203e-001	-2.326282e-002	1.800896e-001	2.066638e-001
3642720000	1.832789e-001	1.325032e-001	-2.523476e-001	2.087996e-002	-6.116904e-001	2.228430e-001	-2.654197e-001	-5.804230e-001
	-2.518047e-001	2.086376e-002	1.834898e-001	1.745658e-001	-2.760660e-001	-5.787568e-001	-5.987451e-001	2.221811e-001
	-6.114442e-001	2.228239e-001	-2.757420e-001	-5.796989e-001	1.473447e-001	1.759152e-001	-2.404737e-001	-1.928522e-002
	-2.655533e-001	-5.800747e-001	-5.992574e-001	2.221273e-001	-2.406147e-001	-1.891117e-002	1.815803e-001	2.058564e-001
3647710000	1.838290e-001	1.315933e-001	-2.515759e-001	2.528891e-002	-6.095024e-001	2.308640e-001	-2.713436e-001	-5.767500e-001
	-2.510525e-001	2.517674e-002	1.846113e-001	1.739195e-001	-2.819097e-001	-5.750574e-001	-5.964420e-001	2.298792e-001
	-6.092381e-001	2.309015e-001	-2.816394e-001	-5.759633e-001	1.482945e-001	1.751664e-001	-2.402349e-001	-1.482853e-002
	-2.715983e-001	-5.763575e-001	-5.969135e-001	2.299166e-001	-2.404006e-001	-1.450468e-002	1.829191e-001	2.051243e-001
3652700000	1.842788e-001	1.306062e-001	-2.508441e-001	2.956322e-002	-6.072440e-001	2.388664e-001	-2.772272e-001	-5.730033e-001
	-2.503861e-001	2.948669e-002	1.860147e-001	1.730613e-001	-2.877363e-001	-5.712351e-001	-5.940313e-001	2.374507e-001
	-6.069513e-001	2.388349e-001	-2.875478e-001	-5.721258e-001	1.492103e-001	1.742739e-001	-2.400318e-001	-1.053654e-002
	-2.775293e-001	-5.725215e-001	-5.945190e-001	2.374489e-001	-2.401529e-001	-1.013603e-002	1.843788e-001	2.043658e-001
3657690000	1.848625e-001	1.298617e-001	-2.501975e-001	3.372211e-002	-6.047050e-001	2.469161e-001	-2.832454e-001	-5.691075e-001
	-2.497515e-001	3.390605e-002	1.871114e-001	1.723635e-001	-2.936642e-001	-5.671847e-001	-5.914732e-001	2.450345e-001
	-6.044641e-001	2.469392e-001	-2.936209e-001	-5.681086e-001	1.501193e-001	1.735068e-001	-2.397962e-001	-6.435706e-003
	-2.834784e-001	-5.684831e-001	-5.919897e-001	2.451408e-001	-2.400489e-001	-5.895643e-003	1.858169e-001	2.037501e-001
3662680000	1.851942e-001	1.288980e-001	-2.493375e-001	3.769904e-002	-6.020564e-001	2.550336e-001	-2.893051e-001	-5.651953e-001
	-2.487436e-001	3.798600e-002	1.885117e-001	1.716632e-001	-2.996084e-001	-5.631581e-001	-5.887726e-001	2.527936e-001
	-6.017767e-001	2.550609e-001	-2.996140e-001	-5.640911e-001	1.511328e-001	1.725752e-001	-2.394485e-001	-2.312877e-003
	-2.894495e-001	-5.646258e-001	-5.892030e-001	2.528509e-001	-2.396234e-001	-1.874899e-003	1.872149e-001	2.029243e-001
3667670000	1.858598e-001	1.280197e-001	-2.483021e-001	4.162394e-002	-5.992899e-001	2.631751e-001	-2.953103e-001	-5.611614e-001
	-2.478529e-001	4.186635e-002	1.897836e-001	1.708237e-001	-3.055447e-001	-5.590654e-001	-5.859580e-001	2.605800e-001
	-5.989275e-001	2.631289e-001	-3.055651e-001	-5.600503e-001	1.521687e-001	1.715995e-001	-2.390481e-001	1.761638e-003
	-2.955343e-001	-5.606356e-001	-5.864171e-001	2.605787e-001	-2.391320e-001	2.053805e-003	1.885882e-001	2.020785e-001
3672660000	1.861729e-001	1.270512e-001	-2.472176e-001	4.568073e-002	-5.964057e-001	2.712983e-001	-3.013887e-001	-5.571373e-001
	-2.468207e-001	4.579821e-002	1.913425e-001	1.700434e-001	-3.114580e-001	-5.549113e-001	-5.830741e-001	2.681856e-001
	-5.960238e-001	2.712393e-001	-3.114104e-001	-5.558855e-001	1.534829e-001	1.705324e-001	-2.384734e-001	5.716163e-003
	-3.015828e-001	-5.566365e-001	-5.834067e-001	2.682280e-001	-2.385921e-001	5.945916e-003	1.901514e-001	2.010508e-001
3677650000	1.865769e-001	1.261083e-001	-2.459783e-001	4.975868e-002	-5.933980e-001	2.795084e-001	-3.074799e-001	-5.531242e-001
	-2.458070e-001	4.982714e-002	1.926523e-001	1.690720e-001	-3.172815e-001	-5.508260e-001	-5.801074e-001	2.758439e-001
	-5.930564e-001	2.793374e-001	-3.170975e-001	-5.517167e-001	1.546219e-001	1.697321e-001	-2.377686e-001	9.485054e-003
	-3.075487e-001	-5.524767e-001	-5.805129e-001	2.759720e-001	-2.378866e-001	9.858581e-003	1.916000e-001	2.000741e-001
3682640000	1.870569e-001	1.252509e-001	-2.449107e-001	5.376548e-002	-5.903625e-001	2.877466e-001	-3.134103e-001	-5.489023e-001
	-2.447095e-001	5.371714e-002	1.938455e-001	1.682685e-001	-3.230332e-001	-5.466475e-001	-5.770863e-001	2.835660e-001
	-5.899652e-001	2.875575e-001	-3.228548e-001	-5.475367e-001	1.560230e-001	1.687541e-001	-2.368727e-001	1.348896e-002
	-3.135079e-001	-5.482420e-001	-5.774036e-001	2.836496e-001	-2.369530e-001	1.377665e-002	1.930503e-001	1.990795e-001
3687630000	1.876693e-001	1.245767e-001	-2.435923e-001	5.798667e-002	-5.871301e-001	2.960066e-001	-3.191323e-001	-5.445823e-001
	-2.434952e-001	5.790381e-002	1.950233e-001	1.674137e-001	-3.286188e-001	-5.422977e-001	-5.739194e-001	2.912705e-001
	-5.866753e-001	2.957366e-001	-3.284759e-001	-5.431240e-001	1.572839e-001	1.680028e-001	-2.358591e-001	1.755108e-002
	-3.191805e-001	-5.438658e-001	-5.742255e-001	2.913842e-001	-2.360032e-001	1.793511e-002	1.945984e-001	1.983087e-001
3692620000	1.883992e-001	1.237706e-001	-2.423281e-001	6.238537e-002	-5.838139e-001	3.040982e-001	-3.246219e-001	-5.401982e-001
	-2.420505e-001	6.204874e-002	1.961986e-001	1.667831e-001	-3.340330e-001	-5.377908e-001	-5.707145e-001	2.989259e-001
	-5.833383e-001	3.037935e-001	-3.339282e-001	-5.385040e-001	1.586755e-001	1.674795e-001	-2.346875e-001	2.174882e-002
	-3.246497e-001	-5.394913e-001	-5.710507e-001	2.989939e-001	-2.349765e-001	2.223957e-002	1.962341e-001	1.975935e-001
3697610000	1.890782e-001	1.230300e-001	-2.409585e-001	6.656727e-002	-5.804032e-001	3.120468e-001	-3.300122e-001	-5.356662e-001
	-2.406274e-001	6.622147e-002	1.971660e-001	1.662312e-001	-3.393827e-001	-5.332512e-001	-5.674407e-001	3.065012e-001
	-5.798508e-001	3.117832e-001	-3.392512e-001	-5.339696e-001	1.601320e-001	1.669864e-001	-2.336971e-001	2.586671e-002
	-3.300305e-001	-5.350309e-001	-5.676878e-001	3.065764e-001	-2.338048e-001	2.627589e-002	1.978413e-001	1.968802e-001
3702600000	1.897253e-001	1.222196e-001	-2.394928e-001	7.055453e-002	-5.768167e-001	3.198354e-001	-3.352213e-001	-5.311699e-001
	-2.392367e-001	7.027540e-002	1.982033e-001	1.654086e-001	-3.444542e-001	-5.286590e-001	-5.640027e-001	3.139533e-001
	-5.763332e-001	3.195482e-001	-3.444094e-001	-5.294182e-001	1.615521e-001	1.666113e-001	-2.324417e-001	3.008989e-002
	-3.353142e-001	-5.305146e-001	-5.642748e-001	3.140211e-001	-2.327269e-001	3.043282e-002	1.994602e-001	1.963509e-001
3707590000	1.904278e-001	1.213150e-001	-2.380343e-001	7.452531e-002	-5.731488e-001	3.276000e-001	-3.404777e-001	-5.265167e-001
	-2.377253e-001	7.427066e-002	1.991412e-001	1.645511e-001	-3.496493e-001	-5.241564e-001	-5.604675e-001	3.213737e-001
	-5.726644e-001	3.273247e-001	-3.496050e-001	-5.248668e-001	1.627345e-001	1.660598e-001	-2.313228e-001	3.412930e-002
	-3.405272e-001	-5.258996e-001	-5.607173e-001	3.214396e-001	-2.314204e-001	3.446567e-002	2.009542e-001	1.956383e-001
3712580000	1.909456e-001	1.203743e-001	-2.365425e-001	7.834333e-002	-5.694328e-001	3.354191e-001	-3.457037e-001	-5.217906e-001
	-2.362768e-001	7.815677e-002	1.999334e-001	1.634355e-001	-3.549439e-001	-5.194441e-001	-5.567468e-001	3.288275e-001
	-5.689496e-001	3.350574e-001	-3.549520e-001	-5.202890e-001	1.636063e-001	1.654968e-001	-2.302049e-001	3.808910e-002
	-3.458163e-001	-5.212830e-001	-5.570604e-001	3.288605e-001	-2.303852e-001	3.835869e-002	2.023897e-001	1.950015e-001
3717570000	1.915085e-001	1.192519e-001	-2.349108e-001	8.219239e-002	-5.655390e-001	3.432816e-001	-3.510657e-001	-5.172438e-001
	-2.346194e-001	8.193319e-002	2.005547e-001	1.622446e-001	-3.602565e-001	-5.148393e-001	-5.529747e-001	3.363049e-001
	-5.651503e-001	3.429397e-001	-3.602881e-001	-5.156650e-001	1.644943e-001	1.649556e-001	-2.288378e-001	4.176074e-002
	-3.511248e-001	-5.166968e-001	-5.533262e-001	3.364327e-001	-2.290608e-001	4.212499e-002	2.038264e-001	1.941108e-001
3722560000	1.920651e-001	1.180191e-001	-2.332520e-001	8.596746e-002	-5.616552e-001	3.510786e-001	-3.564103e-001	-5.125857e-001
	-2.328263e-001	8.573148e-002	2.012806e-001	1.609714e-001	-3.655895e-001	-5.101018e-001	-5.491937e-001	3.438656e-001
	-5.611943e-001	3.507137e-001	-3.656479e-001	-5.110426e-001	1.652383e-001	1.642567e-001	-2.276340e-001	4.549194e-002
	-3.564051e-001	-5.121869e-001	-5.495577e-001	3.439341e-001	-2.278034e-001	4.588719e-002	2.051610e-001	1.930677e-001
3727550000	1.925256e-001	1.166670e-001	-2.314503e-001	8.984698e-002	-5.577447e-001	3.588898e-001	-3.617530e-001	-5.080173e-001
	-2.310079e-001	8.959066e-002	2.019102e-001	1.596790e-001	-3.708805e-001	-5.053222e-001	-5.453232e-001	3.514129e-001
	-5.573561e-001	3.585499e-001	-3.709308e-001	-5.062888e-001	1.659428e-001	1.635006e-001	-2.261921e-001	4.910952e-002
	-3.617140e-001	-5.075756e-001	-5.457843e-001	3.515469e-001	-2.264961e-001	4.963003e-002	2.065086e-001	1.919078e-001
3732540000	1.930013e-001	1.154887e-001	-2.293721e-001	9.372531e-002	-5.537171e-001	3.667597e-001	-3.669599e-001	-5.032874e-001
	-2.292161e-001	9.358505e-002	2.027542e-001	1.584717e-001	-3.761134e-001	-5.005190e-001	-5.414031e-001	3.590481e-001
	-5.533421e-001	3.664587e-001	-3.760468e-001	-5.015746e-001	1.666476e-001	1.629151e-001	-2.247959e-001	5.304272e-002
	-3.669218e-001	-5.027993e-001	-5.419586e-001	3.591574e-001	-2.250585e-001	5.340336e-002	2.078137e-001	1.908063e-001
3737530000	1.935549e-001	1.142533e-001	-2.274658e-001	9.799577e-002	-5.497256e-001	3.746502e-001	-3.721173e-001	-4.985470e-001
	-2.270876e-001	9.749243e-002	2.037728e-001	1.574482e-001	-3.810246e-001	-4.955489e-001	-5.373967e-001	3.666339e-001
	-5.492416e-001	3.743172e-001	-3.808972e-001	-4.965349e-001	1.672924e-001	1.621179e-001	-2.231642e-001	5.685813e-002
	-3.719675e-001	-4.980414e-001	-5.379740e-001	3.666888e-001	-2.233604e-001	5.742727e-002	2.090798e-001	1.895180e-001
3742520000	1.941993e-001	1.129987e-001	-2.254181e-001	1.020382e-001	-5.455388e-001	3.824131e-001	-3.770183e-001	-4.937000e-001
	-2.250129e-001	1.015577e-001	2.047619e-001	1.563399e-001	-3.857369e-001	-4.903962e-001	-5.333410e-001	3.741549e-001
	-5.451145e-001	3.820267e-001	-3.856951e-001	-4.914228e-001	1.683070e-001	1.616229e-001	-2.214233e-001	6.098281e-002
	-3.768867e-001	-4.931809e-001	-5.339834e-001	3.742006e-001	-2.217837e-001	6.153955e-002	2.104156e-001	1.884858e-001
3747510000	1.947109e-001	1.119114e-001	-2.233807e-001	1.060824e-001	-5.412762e-001	3.901321e-001	-3.818197e-001	-4.887056e-001
	-2.228336e-001	1.055373e-001	2.059438e-001	1.554453e-001	-3.902722e-001	-4.852936e-001	-5.291880e-001	3.815634e-001
	-5.408611e-001	3.898212e-001	-3.902833e-001	-4.862149e-001	1.692653e-001	1.610865e-001	-2.196630e-001	6.501202e-002
	-3.817519e-001	-4.881520e-001	-5.298302e-001	3.816543e-001	-2.200335e-001	6.552290e-002	2.118130e-001	1.873709e-001
3752500000	1.952444e-001	1.109596e-001	-2.213354e-001	1.100539e-001	-5.367854e-001	3.976946e-001	-3.864021e-001	-4.835989e-001
	-2.205317e-001	1.095308e-001	2.072109e-001	1.544647e-001	-3.945770e-001	-4.801235e-001	-5.249066e-001	3.888916e-001
	-5.363104e-001	3.973557e-001	-3.945663e-001	-4.809701e-001	1.703922e-001	1.603529e-001	-2.178925e-001	6.900666e-002
	-3.863194e-001	-4.830039e-001	-5.254994e-001	3.890201e-001	-2.182779e-001	6.952984e-002	2.132282e-001	1.862642e-001
3757490000	1.959282e-001	1.097410e-001	-2.189632e-001	1.135185e-001	-5.321452e-001	4.050575e-001	-3.908661e-001	-4.784529e-001
	-2.183992e-001	1.132776e-001	2.084599e-001	1.532798e-001	-3.990162e-001	-4.750232e-001	-5.203541e-001	3.960048e-001
	-5.316260e-001	4.047187e-001	-3.990554e-001	-4.760106e-001	1.716191e-001	1.593361e-001	-2.158521e-001	7.286619e-002
	-3.909120e-001	-4.778007e-001	-5.209401e-001	3.961723e-001	-2.164206e-001	7.320581e-002	2.146456e-001	1.853846e-001
3762480000	1.961225e-001	1.088793e-001	-2.168379e-001	1.171268e-001	-5.274403e-001	4.124906e-001	-3.956211e-001	-4.733209e-001
	-2.161795e-001	1.167682e-001	2.095930e-001	1.520396e-001	-4.035478e-001	-4.698768e-001	-5.157750e-001	4.031217e-001
	-5.268890e-001	4.122569e-001	-4.036467e-001	-4.708557e-001	1.725679e-001	1.582780e-001	-2.139791e-001	7.621116e-002
	-3.956358e-001	-4.726272e-001	-5.163141e-001	4.032690e-001	-2.144385e-001	7.662323e-002	2.159636e-001	1.842505e-001
3767470000	1.965379e-001	1.078370e-001	-2.144839e-001	1.205534e-001	-5.224999e-001	4.199286e-001	-4.004054e-001	-4.680325e-001
	-2.139554e-001	1.203367e-001	2.105872e-001	1.508694e-001	-4.082030e-001	-4.645814e-001	-5.111439e-001	4.102409e-001
	-5.219966e-001	4.197806e-001	-4.082943e-001	-4.656172e-001	1.734882e-001	1.572758e-001	-2.121467e-001	7.957459e-002
	-4.004627e-001	-4.672738e-001	-5.116603e-001	4.104448e-001	-2.126380e-001	8.001683e-002	2.173115e-001	1.831956e-001
3772460000	1.969319e-001	1.068374e-001	-2.118847e-001	1.239626e-001	-5.174135e-001	4.274883e-001	-4.050694e-001	-4.625715e-001
	-2.114687e-001	1.237247e-001	2.116889e-001	1.495706e-001	-4.127187e-001	-4.592867e-001	-5.064212e-001	4.174269e-001
	-5.168987e-001	4.273067e-001	-4.128559e-001	-4.603632e-001	1.744685e-001	1.561541e-001	-2.102167e-001	8.294874e-002
	-4.051711e-001	-4.619189e-001	-5.068441e-001	4.176441e-001	-2.104976e-001	8.338833e-002	2.185230e-001	1.820314e-001
3777450000	1.973074e-001	1.057439e-001	-2.091806e-001	1.275750e-001	-5.122296e-001	4.349152e-001	-4.096729e-001	-4.572103e-001
	-2.087688e-001	1.271448e-001	2.128311e-001	1.483861e-001	-4.172377e-001	-4.538278e-001	-5.015551e-001	4.245654e-001
	-5.116972e-001	4.347808e-001	-4.172011e-001	-4.549106e-001	1.755044e-001	1.550339e-001	-2.079801e-001	8.621396e-002
	-4.097234e-001	-4.565151e-001	-5.019285e-001	4.248104e-001	-2.083658e-001	8.662380e-002	2.197972e-001	1.809068e-001
3782440000	1.977695e-001	1.049594e-001	-2.064005e-001	1.310207e-001	-5.068954e-001	4.424384e-001	-4.141462e-001	-4.516487e-001
	-2.060023e-001	1.306883e-001	2.139292e-001	1.472727e-001	-4.215018e-001	-4.484018e-001	-4.965455e-001	4.318129e-001
	-5.063343e-001	4.422864e-001	-4.214824e-001	-4.493500e-001	1.767851e-001	1.539433e-001	-2.057854e-001	8.949652e-002
	-4.140919e-001	-4.509382e-001	-4.968438e-001	4.320735e-001	-2.058906e-001	8.999737e-002	2.210313e-001	1.798069e-001
3787430000	1.983855e-001	1.040267e-001	-2.032324e-001	1.346950e-001	-5.013992e-001	4.498607e-001	-4.183249e-001	-4.460230e-001
	-2.030065e-001	1.341928e-001	2.152258e-001	1.461098e-001	-4.255719e-001	-4.426819e-001	-4.913107e-001	4.389820e-001
	-5.008399e-001	4.497251e-001	-4.254013e-001	-4.437442e-001	1.782161e-001	1.530369e-001	-2.032985e-001	9.287081e-002
	-4.183027e-001	-4.453228e-001	-4.916116e-001	4.392763e-001	-2.034728e-001	9.346288e-002	2.225625e-001	1.787879e-001
3792420000	1.991236e-001	1.029913e-001	-2.002955e-001	1.382819e-001	-4.957119e-001	4.571633e-001	-4.222314e-001	-4.404289e-001
	-2.000149e-001	1.375766e-001	2.166332e-001	1.448831e-001	-4.293220e-001	-4.371780e-001	-4.858906e-001	4.460275e-001
	-4.951497e-001	4.570371e-001	-4.291747e-001	-4.379639e-001	1.798674e-001	1.519208e-001	-2.005002e-001	9.631546e-002
	-4.222705e-001	-4.396636e-001	-4.861717e-001	4.462860e-001	-2.006110e-001	9.676092e-002	2.241942e-001	1.777848e-001
3797410000	1.999987e-001	1.022074e-001	-1.970977e-001	1.415391e-001	-4.899016e-001	4.642743e-001	-4.260134e-001	-4.347801e-001
	-1.968039e-001	1.408650e-001	2.180129e-001	1.436622e-001	-4.329158e-001	-4.315087e-001	-4.804509e-001	4.529332e-001
	-4.893503e-001	4.641428e-001	-4.328281e-001	-4.324232e-001	1.816224e-001	1.510714e-001	-1.978058e-001	9.953668e-002
	-4.260109e-001	-4.340439e-001	-4.806454e-001	4.531236e-001	-1.980492e-001	1.001657e-001	2.257585e-001	1.767601e-001
3802400000	2.006879e-001	1.011191e-001	-1.938601e-001	1.446559e-001	-4.839953e-001	4.711168e-001	-4.295018e-001	-4.291601e-001
	-1.934818e-001	1.439487e-001	2.193638e-001	1.422577e-001	-4.363522e-001	-4.260327e-001	-4.748293e-001	4.595786e-001
	-4.835118e-001	4.710489e-001	-4.363621e-001	-4.269577e-001	1.832863e-001	1.502226e-001	-1.949156e-001	1.027716e-001
	-4.296488e-001	-4.285548e-001	-4.750110e-001	4.597992e-001	-1.952471e-001	1.033513e-001	2.275071e-001	1.757567e-001
3807390000	2.016347e-001	1.001893e-001	-1.906424e-001	1.476168e-001	-4.779090e-001	4.779310e-001	-4.330158e-001	-4.234462e-001
	-1.902346e-001	1.469673e-001	2.206917e-001	1.406042e-001	-4.398475e-001	-4.205834e-001	-4.690315e-001	4.661197e-001
	-4.774655e-001	4.778056e-001	-4.398305e-001	-4.214376e-001	1.849296e-001	1.492796e-001	-1.921802e-001	1.057931e-001
	-4.331757e-001	-4.228863e-001	-4.692087e-001	4.662990e-001	-1.924266e-001	1.061563e-001	2.292401e-001	1.747292e-001
3812380000	2.023824e-001	9.894982e-002	-1.872827e-001	1.503894e-001	-4.717506e-001	4.845893e-001	-4.365141e-001	-4.177585e-001
	-1.869400e-001	1.498525e-001	2.218296e-001	1.387957e-001	-4.433291e-001	-4.152328e-001	-4.631413e-001	4.726067e-001
	-4.713439e-001	4.844862e-001	-4.433646e-001	-4.161135e-001	1.863916e-001	1.480492e-001	-1.893327e-001	1.086057e-001
	-4.366625e-001	-4.172555e-001	-4.633205e-001	4.727658e-001	-1.895364e-001	1.088056e-001	2.307789e-001	1.735377e-001
3817370000	2.031221e-001	9.744709e-002	-1.840308e-001	1.528964e-001	-4.655160e-001	4.911978e-001	-4.400429e-001	-4.120787e-001
	-1.835419e-001	1.525564e-001	2.229006e-001	1.365639e-001	-4.469511e-001	-4.099197e-001	-4.570864e-001	4.790261e-001
	-4.652194e-001	4.910691e-001	-4.471083e-001	-4.108842e-001	1.876660e-001	1.467742e-001	-1.865948e-001	1.111883e-001
	-4.401057e-001	-4.117426e-001	-4.573448e-001	4.791085e-001	-1.868421e-001	1.114291e-001	2.322937e-001	1.723354e-001
3822360000	2.037612e-001	9.600700e-002	-1.805994e-001	1.551989e-001	-4.591753e-001	4.977346e-001	-4.435602e-001	-4.064856e-001
	-1.801201e-001	1.549454e-001	2.235545e-001	1.342098e-001	-4.507512e-001	-4.048196e-001	-4.509673e-001	4.852837e-001
	-4.589429e-001	4.975088e-001	-4.509636e-001	-4.058175e-001	1.885097e-001	1.452328e-001	-1.837468e-001	1.135836e-001
	-4.436223e-001	-4.062022e-001	-4.512936e-001	4.854045e-001	-1.839298e-001	1.137355e-001	2.338061e-001	1.708411e-001
3827350000	2.043709e-001	9.420173e-002	-1.771167e-001	1.573591e-001	-4.530935e-001	5.039002e-001	-4.470101e-001	-4.011749e-001
	-1.765735e-001	1.570298e-001	2.239067e-001	1.318721e-001	-4.550127e-001	-3.996529e-001	-4.450030e-001	4.912445e-001
	-4.528594e-001	5.036468e-001	-4.551445e-001	-4.006491e-001	1.888158e-001	1.435598e-001	-1.808950e-001	1.155195e-001
	-4.469257e-001	-4.010162e-001	-4.454396e-001	4.913186e-001	-1.809826e-001	1.156300e-001	2.353396e-001	1.690387e-001
3832340000	2.048211e-001	9.224448e-002	-1.740564e-001	1.596537e-001	-4.472991e-001	5.101970e-001	-4.506345e-001	-3.960563e-001
	-1.735899e-001	1.592758e-001	2.247896e-001	1.300362e-001	-4.587471e-001	-3.938136e-001	-4.393113e-001	4.973777e-001
	-4.470768e-001	5.100002e-001	-4.589248e-001	-3.948647e-001	1.894990e-001	1.426751e-001	-1.783016e-001	1.177082e-001
	-4.504435e-001	-3.959012e-001	-4.398237e-001	4.974112e-001	-1.783954e-001	1.179821e-001	2.366281e-001	1.669848e-001
3837330000	2.049286e-001	9.049373e-002	-1.709126e-001	1.622964e-001	-4.414671e-001	5.167088e-001	-4.543058e-001	-3.908323e-001
	-1.704562e-001	1.617689e-001	2.257832e-001	1.280110e-001	-4.620388e-001	-3.881964e-001	-4.335809e-001	5.036288e-001
	-4.412784e-001	5.165002e-001	-4.622445e-001	-3.891878e-001	1.904510e-001	1.413749e-001	-1.754850e-001	1.201528e-001
	-4.540041e-001	-3.905641e-001	-4.342026e-001	5.036311e-001	-1.755871e-001	1.206153e-001	2.377188e-001	1.648853e-001
3842320000	2.052388e-001	8.882529e-002	-1.678930e-001	1.651858e-001	-4.355240e-001	5.232134e-001	-4.577887e-001	-3.852464e-001
	-1.672578e-001	1.644319e-001	2.270207e-001	1.258993e-001	-4.652601e-001	-3.825963e-001	-4.278210e-001	5.098008e-001
	-4.353663e-001	5.229312e-001	-4.654696e-001	-3.834976e-001	1.913492e-001	1.400877e-001	-1.728278e-001	1.227496e-001
	-4.574166e-001	-3.850085e-001	-4.284685e-001	5.097087e-001	-1.728869e-001	1.231933e-001	2.389743e-001	1.630054e-001
3847310000	2.054650e-001	8.739560e-002	-1.646774e-001	1.677267e-001	-4.295770e-001	5.296878e-001	-4.609391e-001	-3.796335e-001
	-1.639835e-001	1.671209e-001	2.279858e-001	1.239419e-001	-4.685035e-001	-3.770385e-001	-4.220256e-001	5.158775e-001
	-4.293788e-001	5.293703e-001	-4.687182e-001	-3.778974e-001	1.920889e-001	1.386761e-001	-1.699338e-001	1.254535e-001
	-4.605862e-001	-3.794264e-001	-4.226864e-001	5.158017e-001	-1.700826e-001	1.257413e-001	2.401582e-001	1.611725e-001
3852300000	2.058519e-001	8.606683e-002	-1.616226e-001	1.701321e-001	-4.234706e-001	5.359778e-001	-4.641156e-001	-3.740324e-001
	-1.609272e-001	1.695722e-001	2.289171e-001	1.221237e-001	-4.717370e-001	-3.713001e-001	-4.162474e-001	5.218168e-001
	-4.232823e-001	5.356631e-001	-4.720313e-001	-3.721497e-001	1.928430e-001	1.373476e-001	-1.672484e-001	1.277719e-001
	-4.637618e-001	-3.736283e-001	-4.168078e-001	5.217649e-001	-1.675390e-001	1.281003e-001	2.415338e-001	1.592076e-001
3857290000	2.061923e-001	8.451093e-002	-1.583706e-001	1.724468e-001	-4.171684e-001	5.421694e-001	-4.671035e-001	-3.683620e-001
	-1.575480e-001	1.718426e-001	2.298607e-001	1.201866e-001	-4.749263e-001	-3.655873e-001	-4.101881e-001	5.276878e-001
	-4.169721e-001	5.418545e-001	-4.752597e-001	-3.663606e-001	1.934300e-001	1.360740e-001	-1.644928e-001	1.301528e-001
	-4.667926e-001	-3.679955e-001	-4.107722e-001	5.277055e-001	-1.647470e-001	1.303550e-001	2.428922e-001	1.574057e-001
3862280000	2.064587e-001	8.294332e-002	-1.552614e-001	1.743357e-001	-4.107322e-001	5.483568e-001	-4.702427e-001	-3.626836e-001
	-1.544509e-001	1.738322e-001	2.305567e-001	1.184728e-001	-4.782494e-001	-3.596591e-001	-4.040829e-001	5.335279e-001
	-4.105449e-001	5.481386e-001	-4.786639e-001	-3.604936e-001	1.939023e-001	1.347748e-001	-1.618488e-001	1.324189e-001
	-4.700436e-001	-3.622929e-001	-4.046423e-001	5.336415e-001	-1.621937e-001	1.324600e-001	2.441985e-001	1.554679e-001
3867270000	2.065403e-001	8.132310e-002	-1.519356e-001	1.762505e-001	-4.041798e-001	5.545899e-001	-4.736616e-001	-3.570824e-001
	-1.513713e-001	1.758161e-001	2.312255e-001	1.165547e-001	-4.816008e-001	-3.537830e-001	-3.979178e-001	5.394389e-001
	-4.039168e-001	5.543417e-001	-4.819683e-001	-3.546660e-001	1.944486e-001	1.333471e-001	-1.591617e-001	1.343104e-001
	-4.734099e-001	-3.565921e-001	-3.984792e-001	5.395565e-001	-1.594568e-001	1.343905e-001	2.451440e-001	1.535604e-001
3872260000	2.062327e-001	7.969284e-002	-1.485744e-001	1.781480e-001	-3.975727e-001	5.608542e-001	-4.771386e-001	-3.512903e-001
	-1.479988e-001	1.776337e-001	2.318311e-001	1.146916e-001	-4.847032e-001	-3.478980e-001	-3.916696e-001	5.455038e-001
	-3.972797e-001	5.606519e-001	-4.851924e-001	-3.487790e-001	1.950280e-001	1.318052e-001	-1.565072e-001	1.363659e-001
	-4.768772e-001	-3.509323e-001	-3.922564e-001	5.456396e-001	-1.566149e-001	1.365997e-001	2.458028e-001	1.517378e-001
3877250000	2.058936e-001	7.825865e-002	-1.450907e-001	1.801014e-001	-3.907138e-001	5.671699e-001	-4.805488e-001	-3.453452e-001
	-1.447746e-001	1.794778e-001	2.324930e-001	1.127475e-001	-4.879001e-001	-3.420062e-001	-3.853171e-001	5.516030e-001
	-3.904414e-001	5.669686e-001	-4.883170e-001	-3.428545e-001	1.956916e-001	1.302245e-001	-1.535965e-001	1.385510e-001
	-4.803296e-001	-3.449241e-001	-3.858300e-001	5.517304e-001	-1.535631e-001	1.386666e-001	2.463626e-001	1.500909e-001
3882240000	2.056757e-001	7.657517e-002	-1.414884e-001	1.822761e-001	-3.836927e-001	5.734728e-001	-4.837475e-001	-3.393764e-001
	-1.412190e-001	1.815116e-001	2.330090e-001	1.108679e-001	-4.908976e-001	-3.360074e-001	-3.787405e-001	5.575523e-001
	-3.835300e-001	5.732281e-001	-4.912041e-001	-3.368684e-001	1.963088e-001	1.283523e-001	-1.502614e-001	1.405325e-001
	-4.834704e-001	-3.388064e-001	-3.792562e-001	5.577981e-001	-1.504780e-001	1.407452e-001	2.472614e-001	1.484366e-001
3887230000	2.057149e-001	7.525659e-002	-1.378086e-001	1.841988e-001	-3.764626e-001	5.795495e-001	-4.866478e-001	-3.332519e-001
	-1.374208e-001	1.833065e-001	2.336046e-001	1.088356e-001	-4.937495e-001	-3.301546e-001	-3.720959e-001	5.634228e-001
	-3.763149e-001	5.792851e-001	-4.941011e-001	-3.309830e-001	1.970031e-001	1.264329e-001	-1.469883e-001	1.425601e-001
	-4.864695e-001	-3.327153e-001	-3.725212e-001	5.636246e-001	-1.471869e-001	1.428526e-001	2.481827e-001	1.467247e-001
3892220000	2.058025e-001	7.381947e-002	-1.340808e-001	1.861057e-001	-3.692257e-001	5.854133e-001	-4.894024e-001	-3.271155e-001
	-1.337409e-001	1.851392e-001	2.338345e-001	1.067924e-001	-4.967477e-001	-3.242519e-001	-3.653794e-001	5.690949e-001
	-3.690840e-001	5.851318e-001	-4.970881e-001	-3.249246e-001	1.977145e-001	1.245224e-001	-1.437079e-001	1.443774e-001
	-4.891855e-001	-3.265129e-001	-3.657858e-001	5.692931e-001	-1.439006e-001	1.447598e-001	2.491905e-001	1.450690e-001
3897210000	2.058290e-001	7.247011e-002	-1.304643e-001	1.878893e-001	-3.620358e-001	5.910952e-001	-4.919523e-001	-3.210426e-001
	-1.300323e-001	1.868334e-001	2.339542e-001	1.048776e-001	-4.996576e-001	-3.181534e-001	-3.587109e-001	5.746355e-001
	-3.618948e-001	5.908757e-001	-5.000137e-001	-3.187300e-001	1.982835e-001	1.227672e-001	-1.405318e-001	1.462800e-001
	-4.918310e-001	-3.204044e-001	-3.591794e-001	5.748705e-001	-1.405793e-001	1.466646e-001	2.501964e-001	1.432228e-001
3902200000	2.060590e-001	7.093139e-002	-1.269685e-001	1.894442e-001	-3.549187e-001	5.967405e-001	-4.944262e-001	-3.148576e-001
	-1.264159e-001	1.886183e-001	2.339417e-001	1.033046e-001	-5.025310e-001	-3.117016e-001	-3.520620e-001	5.801724e-001
	-3.548217e-001	5.964928e-001	-5.029929e-001	-3.123377e-001	1.988158e-001	1.214624e-001	-1.374364e-001	1.481477e-001
	-4.942873e-001	-3.142494e-001	-3.525260e-001	5.804582e-001	-1.376855e-001	1.485676e-001	2.510805e-001	1.415614e-001
3907190000	2.061040e-001	6.977963e-002	-1.235446e-001	1.910043e-001	-3.476375e-001	6.023436e-001	-4.968734e-001	-3.084641e-001
	-1.230287e-001	1.901681e-001	2.339272e-001	1.017554e-001	-5.053786e-001	-3.050279e-001	-3.452971e-001	5.858208e-001
	-3.475278e-001	6.022160e-001	-5.059359e-001	-3.056042e-001	1.994787e-001	1.202263e-001	-1.345145e-001	1.501011e-001
	-4.969107e-001	-3.078615e-001	-3.457054e-001	5.860412e-001	-1.346979e-001	1.503161e-001	2.518056e-001	1.397968e-001
3912180000	2.061737e-001	6.826929e-002	-1.199655e-001	1.923999e-001	-3.401641e-001	6.080060e-001	-4.994522e-001	-3.019769e-001
	-1.192162e-001	1.916330e-001	2.337976e-001	1.003432e-001	-5.080776e-001	-2.980364e-001	-3.382535e-001	5.914085e-001
	-3.401059e-001	6.078607e-001	-5.086810e-001	-2.986741e-001	2.000494e-001	1.192094e-001	-1.314632e-001	1.517545e-001
	-4.994095e-001	-3.015685e-001	-3.387666e-001	5.917300e-001	-1.316376e-001	1.520831e-001	2.524515e-001	1.382824e-001
3917170000	2.062998e-001	6.680288e-002	-1.162206e-001	1.936630e-001	-3.325534e-001	6.136897e-001	-5.019304e-001	-2.954226e-001
	-1.156643e-001	1.930931e-001	2.338694e-001	9.874947e-002	-5.106457e-001	-2.909830e-001	-3.311365e-001	5.971635e-001
	-3.325218e-001	6.135000e-001	-5.113126e-001	-2.917682e-001	2.005686e-001	1.183056e-001	-1.284581e-001	1.535178e-001
	-5.019631e-001	-2.950720e-001	-3.316192e-001	5.973563e-001	-1.285117e-001	1.536655e-001	2.528191e-001	1.365182e-001
3922160000	2.060215e-001	6.530458e-002	-1.124557e-001	1.950822e-001	-3.248550e-001	6.194266e-001	-5.044694e-001	-2.888668e-001
	-1.119795e-001	1.944392e-001	2.341266e-001	9.703256e-002	-5.130440e-001	-2.839570e-001	-3.237368e-001	6.028096e-001
	-3.248973e-001	6.192678e-001	-5.136148e-001	-2.847357e-001	2.011665e-001	1.172636e-001	-1.252340e-001	1.549984e-001
	-5.045195e-001	-2.885398e-001	-3.243158e-001	6.030590e-001	-1.252721e-001	1.551768e-001	2.531149e-001	1.347246e-001
3927150000	2.058390e-001	6.378221e-002	-1.083247e-001	1.964462e-001	-3.169895e-001	6.251415e-001	-5.069225e-001	-2.822924e-001
	-1.079510e-001	1.956918e-001	2.344584e-001	9.503313e-002	-5.152251e-001	-2.768728e-001	-3.162726e-001	6.084978e-001
	-3.170622e-001	6.249306e-001	-5.156613e-001	-2.778453e-001	2.019235e-001	1.164072e-001	-1.218463e-001	1.564980e-001
	-5.069400e-001	-2.821396e-001	-3.169646e-001	6.086600e-001	-1.220193e-001	1.566350e-001	2.533947e-001	1.328978e-001
3932140000	2.057043e-001	6.227535e-002	-1.044152e-001	1.978136e-001	-3.090216e-001	6.307546e-001	-5.093756e-001	-2.757172e-001
	-1.038943e-001	1.971258e-001	2.349590e-001	9.317268e-002	-5.170971e-001	-2.699978e-001	-3.087625e-001	6.141917e-001
	-3.090900e-001	6.305891e-001	-5.174529e-001	-2.709442e-001	2.027096e-001	1.152767e-001	-1.183631e-001	1.578278e-001
	-5.091841e-001	-2.756179e-001	-3.095482e-001	6.143232e-001	-1.183674e-001	1.581527e-001	2.534735e-001	1.310042e-001
3937130000	2.056808e-001	6.076106e-002	-1.001835e-001	1.992984e-001	-3.010458e-001	6.363693e-001	-5.115201e-001	-2.690532e-001
	-9.972835e-002	1.985945e-001	2.355848e-001	9.106377e-002	-5.186946e-001	-2.630817e-001	-3.011492e-001	6.198088e-001
	-3.010868e-001	6.360634e-001	-5.190266e-001	-2.641332e-001	2.035156e-001	1.140922e-001	-1.147332e-001	1.593974e-001
	-5.112200e-001	-2.690481e-001	-3.020902e-001	6.199003e-001	-1.147282e-001	1.596852e-001	2.538393e-001	1.289744e-001
3942120000	2.056358e-001	5.942731e-002	-9.616759e-002	2.007904e-001	-2.929449e-001	6.417534e-001	-5.133607e-001	-2.624448e-001
	-9.554025e-002	1.999230e-001	2.365267e-001	8.919095e-002	-5.199655e-001	-2.563209e-001	-2.934401e-001	6.253314e-001
	-2.929677e-001	6.415050e-001	-5.202656e-001	-2.572211e-001	2.045997e-001	1.127427e-001	-1.107794e-001	1.609966e-001
	-5.131043e-001	-2.623807e-001	-2.943446e-001	6.253026e-001	-1.108359e-001	1.612965e-001	2.542127e-001	1.268645e-001
3947110000	2.057885e-001	5.825715e-002	-9.221190e-002	2.021191e-001	-2.846887e-001	6.469943e-001	-5.150748e-001	-2.557509e-001
	-9.152187e-002	2.012048e-001	2.374724e-001	8.714342e-002	-5.210252e-001	-2.495144e-001	-2.855943e-001	6.306626e-001
	-2.846699e-001	6.467948e-001	-5.214177e-001	-2.503923e-001	2.058697e-001	1.115742e-001	-1.070042e-001	1.623390e-001
	-5.147245e-001	-2.556098e-001	-2.866249e-001	6.306537e-001	-1.071936e-001	1.627193e-001	2.547607e-001	1.250044e-001
3952100000	2.058348e-001	5.707802e-002	-8.822350e-002	2.031478e-001	-2.764953e-001	6.520666e-001	-5.165409e-001	-2.490379e-001
	-8.753353e-002	2.023337e-001	2.384204e-001	8.538559e-002	-5.220990e-001	-2.428421e-001	-2.777291e-001	6.357469e-001
	-2.764057e-001	6.518457e-001	-5.223808e-001	-2.437217e-001	2.068608e-001	1.100935e-001	-1.033177e-001	1.634756e-001
	-5.162526e-001	-2.488030e-001	-2.787098e-001	6.357847e-001	-1.036393e-001	1.637157e-001	2.554640e-001	1.229790e-001
3957090000	2.058799e-001	5.591810e-002	-8.432008e-002	2.038734e-001	-2.681053e-001	6.569645e-001	-5.180172e-001	-2.422728e-001
	-8.345229e-002	2.031171e-001	2.393549e-001	8.332510e-002	-5.229355e-001	-2.363370e-001	-2.697181e-001	6.407854e-001
	-2.680263e-001	6.567587e-001	-5.233561e-001	-2.371126e-001	2.078352e-001	1.085748e-001	-9.958688e-002	1.643771e-001
	-5.177732e-001	-2.420098e-001	-2.706784e-001	6.408589e-001	-9.984822e-002	1.647013e-001	2.560201e-001	1.210554e-001
3962080000	2.057965e-001	5.494827e-002	-8.021670e-002	2.043552e-001	-2.595293e-001	6.618901e-001	-5.194517e-001	-2.352752e-001
	-7.934634e-002	2.036881e-001	2.401078e-001	8.102747e-002	-5.239816e-001	-2.299118e-001	-2.614818e-001	6.456365e-001
	-2.594620e-001	6.616562e-001	-5.244005e-001	-2.307355e-001	2.085674e-001	1.069588e-001	-9.606353e-002	1.651006e-001
	-5.192365e-001	-2.350321e-001	-2.623788e-001	6.458350e-001	-9.627430e-002	1.652417e-001	2.567621e-001	1.192140e-001
3967070000	2.057881e-001	5.390238e-002	-7.596955e-002	2.045642e-001	-2.507874e-001	6.666473e-001	-5.208064e-001	-2.282288e-001
	-7.524014e-002	2.040013e-001	2.405497e-001	7.857968e-002	-5.250494e-001	-2.236582e-001	-2.530625e-001	6.504277e-001
	-2.506853e-001	6.663909e-001	-5.256737e-001	-2.245658e-001	2.090132e-001	1.050040e-001	-9.256065e-002	1.654230e-001
	-5.205397e-001	-2.280829e-001	-2.540117e-001	6.505828e-001	-9.262026e-002	1.658266e-001	2.574609e-001	1.173811e-001
3972060000	2.055299e-001	5.255328e-002	-7.173411e-002	2.045536e-001	-2.420835e-001	6.713297e-001	-5.219816e-001	-2.213768e-001
	-7.104234e-002	2.041232e-001	2.404419e-001	7.600569e-002	-5.264862e-001	-2.174306e-001	-2.446914e-001	6.550704e-001
	-2.419034e-001	6.710531e-001	-5.270881e-001	-2.183010e-001	2.090631e-001	1.030841e-001	-8.890577e-002	1.658442e-001
	-5.217142e-001	-2.212541e-001	-2.456831e-001	6.552940e-001	-8.889055e-002	1.659647e-001	2.579579e-001	1.154715e-001
3977050000	2.052967e-001	5.110443e-002	-6.768279e-002	2.046760e-001	-2.332689e-001	6.760083e-001	-5.231566e-001	-2.145846e-001
	-6.696713e-002	2.040879e-001	2.403166e-001	7.375305e-002	-5.277961e-001	-2.109095e-001	-2.363172e-001	6.597684e-001
	-2.330201e-001	6.756404e-001	-5.284669e-001	-2.117458e-001	2.089855e-001	1.011822e-001	-8.508970e-002	1.661562e-001
	-5.228937e-001	-2.143908e-001	-2.371899e-001	6.599825e-001	-8.508367e-002	1.663030e-001	2.584853e-001	1.134287e-001
3982040000	2.049687e-001	4.954296e-002	-6.329801e-002	2.047957e-001	-2.242079e-001	6.805287e-001	-5.241834e-001	-2.076981e-001
	-6.257943e-002	2.039998e-001	2.402509e-001	7.140111e-002	-5.288908e-001	-2.043776e-001	-2.277379e-001	6.643705e-001
	-2.240010e-001	6.801498e-001	-5.295393e-001	-2.051905e-001	2.091772e-001	9.922033e-002	-8.121518e-002	1.663214e-001
	-5.238733e-001	-2.075878e-001	-2.286523e-001	6.645329e-001	-8.114213e-002	1.666474e-001	2.589316e-001	1.112031e-001
3987030000	2.045894e-001	4.798472e-002	-5.897068e-002	2.047262e-001	-2.150624e-001	6.848786e-001	-5.250020e-001	-2.009090e-001
	-5.833289e-002	2.038969e-001	2.400932e-001	6.912570e-002	-5.297956e-001	-1.977567e-001	-2.190118e-001	6.688673e-001
	-2.148589e-001	6.845144e-001	-5.304802e-001	-1.985825e-001	2.094278e-001	9.718876e-002	-7.729756e-002	1.663193e-001
	-5.246228e-001	-2.008274e-001	-2.198951e-001	6.689600e-001	-7.726125e-002	1.668131e-001	2.594585e-001	1.090985e-001
3992020000	2.044998e-001	4.617060e-002	-5.464760e-002	2.046021e-001	-2.059250e-001	6.891277e-001	-5.256239e-001	-1.941422e-001
	-5.399824e-002	2.038296e-001	2.399211e-001	6.673270e-002	-5.306325e-001	-1.911764e-001	-2.103148e-001	6.731180e-001
	-2.057362e-001	6.886604e-001	-5.312576e-001	-1.919697e-001	2.096017e-001	9.506997e-002	-7.336993e-002	1.662948e-001
	-5.251882e-001	-1.940696e-001	-2.111575e-001	6.732375e-001	-7.334363e-002	1.667915e-001	2.600691e-001	1.066862e-001
3997010000	2.042428e-001	4.432495e-002	-5.052085e-002	2.042257e-001	-1.967063e-001	6.931348e-001	-5.260209e-001	-1.874078e-001
	-4.988007e-002	2.033741e-001	2.396387e-001	6.437364e-002	-5.313573e-001	-1.844628e-001	-2.015224e-001	6.771927e-001
	-1.965214e-001	6.926505e-001	-5.319858e-001	-1.852701e-001	2.099892e-001	9.307838e-002	-6.944580e-002	1.662635e-001
	-5.256514e-001	-1.872659e-001	-2.023427e-001	6.772946e-001	-6.962431e-002	1.667464e-001	2.606418e-001	1.044517e-001
4002000000	2.042422e-001	4.230671e-002	-4.658460e-002	2.037125e-001	-1.875986e-001	6.968633e-001	-5.260953e-001	-1.805960e-001
	-4.588084e-002	2.029442e-001	2.390345e-001	6.220843e-002	-5.318889e-001	-1.778393e-001	-1.928193e-001	6.810553e-001
	-1.874214e-001	6.964166e-001	-5.326479e-001	-1.785275e-001	2.103037e-001	9.097217e-002	-6.597757e-002	1.661215e-001
	-5.257800e-001	-1.805285e-001	-1.936105e-001	6.811659e-001	-6.586652e-002	1.666240e-001	2.613560e-001	1.022202e-001
4006990000	2.039557e-001	4.033317e-002	-4.308824e-002	2.030145e-001	-1.785169e-001	7.006105e-001	-5.261831e-001	-1.740239e-001
	-4.229480e-002	2.023049e-001	2.383092e-001	6.014845e-002	-5.324531e-001	-1.707234e-001	-1.841419e-001	6.849332e-001
	-1.783446e-001	7.002332e-001	-5.333018e-001	-1.714454e-001	2.105579e-001	8.919352e-002	-6.254389e-002	1.658942e-001
	-5.260403e-001	-1.739482e-001	-1.850611e-001	6.850418e-001	-6.274501e-002	1.663250e-001	2.617403e-001	9.980200e-002
4011980000	2.035555e-001	3.812315e-002	-3.965817e-002	2.023995e-001	-1.692699e-001	7.044469e-001	-5.265102e-001	-1.673453e-001
	-3.861441e-002	2.017304e-001	2.375570e-001	5.796514e-002	-5.328866e-001	-1.635945e-001	-1.753693e-001	6.888907e-001
	-1.691504e-001	7.039988e-001	-5.337887e-001	-1.642301e-001	2.109032e-001	8.740102e-002	-5.933454e-002	1.657075e-001
	-5.264312e-001	-1.673207e-001	-1.763109e-001	6.890800e-001	-5.947327e-002	1.660153e-001	2.617785e-001	9.727074e-002
4016970000	2.027010e-001	3.602671e-002	-3.596082e-002	2.016602e-001	-1.597856e-001	7.083894e-001	-5.269811e-001	-1.603593e-001
	-3.492259e-002	2.012229e-001	2.367973e-001	5.578072e-002	-5.330979e-001	-1.563572e-001	-1.663087e-001	6.930589e-001
	-1.597997e-001	7.079995e-001	-5.340656e-001	-1.571160e-001	2.111488e-001	8.569369e-002	-5.612443e-002	1.653953e-001
	-5.268725e-001	-1.604605e-001	-1.672939e-001	6.933112e-001	-5.624674e-002	1.658342e-001	2.613552e-001	9.520753e-002
4021960000	2.019528e-001	3.417118e-002	-3.185911e-002	2.008798e-001	-1.500242e-001	7.122435e-001	-5.271009e-001	-1.533237e-001
	-3.116025e-002	2.005530e-001	2.359869e-001	5.317112e-002	-5.331688e-001	-1.493550e-001	-1.568927e-001	6.971082e-001
	-1.500920e-001	7.119538e-001	-5.341666e-001	-1.501843e-001	2.114403e-001	8.374130e-002	-5.256215e-002	1.652106e-001
	-5.271549e-001	-1.534609e-001	-1.579835e-001	6.974090e-001	-5.264430e-002	1.653676e-001	2.610636e-001	9.291264e-002
4026950000	2.013762e-001	3.214396e-002	-2.782069e-002	2.002007e-001	-1.401374e-001	7.159255e-001	-5.272949e-001	-1.465224e-001
	-2.708732e-002	1.997459e-001	2.353505e-001	5.031736e-002	-5.331557e-001	-1.425586e-001	-1.473493e-001	7.010402e-001
	-1.401502e-001	7.156071e-001	-5.339182e-001	-1.433126e-001	2.115961e-001	8.145401e-002	-4.869010e-002	1.643456e-001
	-5.271598e-001	-1.466291e-001	-1.485441e-001	7.013484e-001	-4.874212e-002	1.646067e-001	2.605677e-001	9.056564e-002
4031940000	2.007666e-001	2.994774e-002	-2.349988e-002	1.993648e-001	-1.301686e-001	7.193866e-001	-5.272551e-001	-1.397658e-001
	-2.305510e-002	1.988223e-001	2.345673e-001	4.716550e-002	-5.328086e-001	-1.358165e-001	-1.376983e-001	7.047274e-001
	-1.302119e-001	7.190907e-001	-5.336230e-001	-1.367915e-001	2.118709e-001	7.897910e-002	-4.497132e-002	1.636594e-001
	-5.270880e-001	-1.398708e-001	-1.390507e-001	7.050609e-001	-4.507818e-002	1.640658e-001	2.601226e-001	8.789519e-002
4036930000	1.999950e-001	2.758545e-002	-1.950694e-002	1.986035e-001	-1.202834e-001	7.227125e-001	-5.272175e-001	-1.331333e-001
	-1.891246e-002	1.979295e-001	2.338010e-001	4.390126e-002	-5.325365e-001	-1.292281e-001	-1.282633e-001	7.083635e-001
	-1.203353e-001	7.223834e-001	-5.331894e-001	-1.301993e-001	2.118043e-001	7.631036e-002	-4.114737e-002	1.627769e-001
	-5.269318e-001	-1.332747e-001	-1.296078e-001	7.086248e-001	-4.143203e-002	1.632529e-001	2.592899e-001	8.492802e-002
4041920000	1.991696e-001	2.536690e-002	-1.572346e-002	1.976767e-001	-1.104278e-001	7.259738e-001	-5.269635e-001	-1.264242e-001
	-1.507576e-002	1.970022e-001	2.330704e-001	4.093458e-002	-5.321836e-001	-1.226735e-001	-1.186815e-001	7.118802e-001
	-1.104316e-001	7.256490e-001	-5.327880e-001	-1.235927e-001	2.116341e-001	7.369137e-002	-3.748309e-002	1.621102e-001
	-5.266824e-001	-1.265079e-001	-1.200118e-001	7.121873e-001	-3.785400e-002	1.624529e-001	2.587210e-001	8.203642e-002
4046910000	1.986239e-001	2.361485e-002	-1.199135e-002	1.967961e-001	-1.005107e-001	7.291712e-001	-5.265732e-001	-1.195859e-001
	-1.136010e-002	1.960350e-001	2.322802e-001	3.770845e-002	-5.316844e-001	-1.160961e-001	-1.091277e-001	7.153289e-001
	-1.004268e-001	7.287554e-001	-5.322389e-001	-1.169700e-001	2.113255e-001	7.118238e-002	-3.405578e-002	1.612657e-001
	-5.262062e-001	-1.196438e-001	-1.104238e-001	7.155760e-001	-3.443805e-002	1.615351e-001	2.581459e-001	7.922902e-002
4051900000	1.977504e-001	2.169396e-002	-8.463466e-003	1.955632e-001	-9.047115e-002	7.319876e-001	-5.260073e-001	-1.127992e-001
	-7.656805e-003	1.946841e-001	2.313680e-001	3.485051e-002	-5.311464e-001	-1.095745e-001	-9.950572e-002	7.185450e-001
	-9.047957e-002	7.316881e-001	-5.317497e-001	-1.103865e-001	2.111893e-001	6.882779e-002	-3.075403e-002	1.601044e-001
	-5.257011e-001	-1.128489e-001	-1.007951e-001	7.188746e-001	-3.129957e-002	1.604507e-001	2.574683e-001	7.647490e-002
4056890000	1.970273e-001	2.002790e-002	-4.923868e-003	1.938090e-001	-8.033200e-002	7.347479e-001	-5.252514e-001	-1.059316e-001
	-4.121440e-003	1.933017e-001	2.300219e-001	3.221574e-002	-5.306869e-001	-1.029232e-001	-8.967490e-002	7.215800e-001
	-8.033850e-002	7.344060e-001	-5.313976e-001	-1.037425e-001	2.105364e-001	6.650383e-002	-2.758864e-002	1.590437e-001
	-5.249644e-001	-1.059577e-001	-9.102456e-002	7.220642e-001	-2.814736e-002	1.591642e-001	2.569494e-001	7.387197e-002
4061880000	1.960317e-001	1.858170e-002	-1.386801e-003	1.919692e-001	-7.004472e-002	7.374966e-001	-5.246085e-001	-9.888202e-002
	-7.454158e-004	1.915027e-001	2.286088e-001	2.962867e-002	-5.303117e-001	-9.608798e-002	-7.977426e-002	7.245986e-001
	-7.005181e-002	7.371025e-001	-5.310174e-001	-9.699598e-002	2.094141e-001	6.452724e-002	-2.464691e-002	1.574166e-001
	-5.243507e-001	-9.898492e-002	-8.111200e-002	7.250595e-001	-2.500587e-002	1.574246e-001	2.562157e-001	7.131768e-002
4066870000	1.951549e-001	1.722340e-002	2.193124e-003	1.899920e-001	-5.955504e-002	7.399137e-001	-5.237546e-001	-9.178719e-002
	2.655411e-003	1.896454e-001	2.270946e-001	2.727331e-002	-5.296371e-001	-8.913801e-002	-6.963835e-002	7.274693e-001
	-5.956946e-002	7.395460e-001	-5.304938e-001	-9.011046e-002	2.086854e-001	6.248487e-002	-2.176119e-002	1.556286e-001
	-5.234931e-001	-9.195326e-002	-7.098735e-002	7.279814e-001	-2.197053e-002	1.558674e-001	2.554043e-001	6.883384e-002
4071860000	1.938951e-001	1.551243e-002	5.773335e-003	1.877630e-001	-4.899191e-002	7.422031e-001	-5.227968e-001	-8.482666e-002
	6.193194e-003	1.873179e-001	2.255889e-001	2.475053e-002	-5.289301e-001	-8.232620e-002	-5.936127e-002	7.301415e-001
	-4.912997e-002	7.419303e-001	-5.297962e-001	-8.331557e-002	2.075124e-001	6.043509e-002	-1.887868e-002	1.537770e-001
	-5.225998e-001	-8.507320e-002	-6.078559e-002	7.306686e-001	-1.895627e-002	1.537795e-001	2.546514e-001	6.628785e-002
4076850000	1.926415e-001	1.378918e-002	9.357200e-003	1.854741e-001	-3.841183e-002	7.443345e-001	-5.218007e-001	-7.796833e-002
	9.584923e-003	1.850319e-001	2.238518e-001	2.208330e-002	-5.282064e-001	-7.562280e-002	-4.913197e-002	7.326797e-001
	-3.857539e-002	7.440716e-001	-5.290122e-001	-7.663006e-002	2.063168e-001	5.822941e-002	-1.602978e-002	1.515597e-001
	-5.214748e-001	-7.824637e-002	-5.051167e-002	7.331357e-001	-1.601169e-002	1.516473e-001	2.535911e-001	6.370815e-002
4081840000	1.910985e-001	1.191860e-002	1.261293e-002	1.830269e-001	-2.793841e-002	7.462534e-001	-5.206693e-001	-7.122332e-002
	1.278735e-002	1.824930e-001	2.218470e-001	1.943377e-002	-5.274427e-001	-6.890460e-002	-3.899221e-002	7.350840e-001
	-2.809629e-002	7.460033e-001	-5.282254e-001	-6.991804e-002	2.048610e-001	5.591776e-002	-1.324633e-002	1.493586e-001
	-5.202978e-001	-7.158660e-002	-4.035922e-002	7.353980e-001	-1.313864e-002	1.495418e-001	2.523459e-001	6.091305e-002
4086830000	1.895124e-001	9.560034e-003	1.568087e-002	1.806760e-001	-1.757617e-002	7.481967e-001	-5.194745e-001	-6.459408e-002
	1.566859e-002	1.800984e-001	2.195714e-001	1.710751e-002	-5.266132e-001	-6.195099e-002	-2.896418e-002	7.373973e-001
	-1.771943e-002	7.478237e-001	-5.273950e-001	-6.300491e-002	2.033077e-001	5.369975e-002	-1.043163e-002	1.471262e-001
	-5.190318e-001	-6.496108e-002	-3.022440e-002	7.376412e-001	-1.037370e-002	1.474905e-001	2.511289e-001	5.791252e-002
4091820000	1.877131e-001	7.552134e-003	1.851216e-002	1.786700e-001	-7.174762e-003	7.501429e-001	-5.180622e-001	-5.790288e-002
	1.844033e-002	1.780934e-001	2.174404e-001	1.491581e-002	-5.254404e-001	-5.472486e-002	-1.883946e-002	7.398094e-001
	-7.336351e-003	7.497585e-001	-5.262110e-001	-5.578935e-002	2.020302e-001	5.163658e-002	-7.865898e-003	1.450386e-001
	-5.175789e-001	-5.825817e-002	-2.017025e-002	7.399434e-001	-7.825352e-003	1.454026e-001	2.498538e-001	5.491218e-002
4096810000	1.860120e-001	5.547333e-003	2.112376e-002	1.768292e-001	3.378094e-003	7.521043e-001	-5.163997e-001	-5.110439e-002
	2.118442e-002	1.763279e-001	2.155849e-001	1.316693e-002	-5.237174e-001	-4.747768e-002	-8.512561e-003	7.421856e-001
	3.149704e-003	7.517263e-001	-5.245506e-001	-4.845793e-002	2.010492e-001	4.953379e-002	-5.341016e-003	1.432274e-001
	-5.159299e-001	-5.144252e-002	-9.880291e-003	7.423835e-001	-5.382013e-003	1.436482e-001	2.485348e-001	5.207384e-002
4101800000	1.844230e-001	3.675227e-003	2.378450e-002	1.747900e-001	1.411597e-002	7.539090e-001	-5.143922e-001	-4.438283e-002
	2.390910e-002	1.741985e-001	2.138510e-001	1.116906e-002	-5.216925e-001	-4.055410e-002	2.020426e-003	7.443416e-001
	1.385459e-002	7.535561e-001	-5.225431e-001	-4.130895e-002	2.001872e-001	4.735663e-002	-2.808620e-003	1.411601e-001
	-5.140622e-001	-4.460209e-002	7.159037e-004	7.446271e-001	-2.889372e-003	1.416667e-001	2.472453e-001	4.927189e-002
4106790000	1.828184e-001	1.404819e-003	2.639907e-002	1.725440e-001	2.509293e-002	7.554401e-001	-5.121966e-001	-3.774838e-002
	2.661105e-002	1.718012e-001	2.118354e-001	8.795681e-003	-5.195891e-001	-3.367158e-002	1.281564e-002	7.462188e-001
	2.473928e-002	7.550605e-001	-5.203967e-001	-3.441730e-002	1.992716e-001	4.515531e-002	-3.670118e-004	1.392010e-001
	-5.119663e-001	-3.786986e-002	1.156231e-002	7.466299e-001	-6.813738e-004	1.394863e-001	2.458325e-001	4.644148e-002
4111780000	1.809642e-001	-9.306032e-004	2.879552e-002	1.697521e-001	3.611880e-002	7.567293e-001	-5.101159e-001	-3.112411e-002
	2.892270e-002	1.691849e-001	2.091240e-001	6.425802e-003	-5.176508e-001	-2.683379e-002	2.362563e-002	7.478773e-001
	3.573739e-002	7.563073e-001	-5.184772e-001	-2.766261e-002	1.979892e-001	4.279129e-002	1.586053e-003	1.367303e-001
	-5.099183e-001	-3.128117e-002	2.246226e-002	7.483653e-001	1.353928e-003	1.369834e-001	2.441490e-001	4.365825e-002
4116770000	1.786116e-001	-3.428216e-003	3.104605e-002	1.668098e-001	4.714095e-002	7.579415e-001	-5.081351e-001	-2.452426e-002
	3.116758e-002	1.665600e-001	2.059470e-001	3.907527e-003	-5.157703e-001	-1.991014e-002	3.437651e-002	7.495351e-001
	4.669975e-002	7.574925e-001	-5.166373e-001	-2.076022e-002	1.962121e-001	4.050854e-002	3.355727e-003	1.340242e-001
	-5.079001e-001	-2.474738e-002	3.320743e-002	7.499873e-001	3.233834e-003	1.341597e-001	2.417734e-001	4.076909e-002
4121760000	1.759475e-001	-5.606792e-003	3.325308e-002	1.641271e-001	5.818328e-002	7.591105e-001	-5.061658e-001	-1.776979e-002
	3.325059e-002	1.638140e-001	2.028068e-001	1.616341e-003	-5.136916e-001	-1.289178e-002	4.533690e-002	7.512357e-001
	5.768363e-002	7.587075e-001	-5.145047e-001	-1.377751e-002	1.943786e-001	3.823113e-002	5.177605e-003	1.314744e-001
	-5.060285e-001	-1.800672e-002	4.416364e-002	7.517268e-001	4.999011e-003	1.316167e-001	2.390872e-001	3.809464e-002
4126750000	1.732657e-001	-7.821340e-003	3.568363e-002	1.615114e-001	6.943867e-002	7.602722e-001	-5.040971e-001	-1.088968e-002
	3.559343e-002	1.612656e-001	1.992920e-001	-1.050139e-003	-5.113535e-001	-6.030667e-003	5.649750e-002	7.529142e-001
	6.886186e-002	7.598375e-001	-5.122263e-001	-6.894817e-003	1.924491e-001	3.598062e-002	6.885908e-003	1.288022e-001
	-5.039248e-001	-1.117801e-002	5.522997e-002	7.534870e-001	6.970376e-003	1.290174e-001	2.362021e-001	3.560886e-002
4131740000	1.706365e-001	-1.001245e-002	3.806263e-002	1.590984e-001	8.082517e-002	7.614036e-001	-5.017316e-001	-3.947397e-003
	3.799916e-002	1.586557e-001	1.962179e-001	-3.954070e-003	-5.088317e-001	8.148907e-004	6.793130e-002	7.544833e-001
	8.017920e-002	7.609065e-001	-5.095925e-001	-1.391811e-004	1.903764e-001	3.376237e-002	8.770693e-003	1.262481e-001
	-5.014977e-001	-4.323007e-003	6.666453e-002	7.550548e-001	8.842766e-003	1.265724e-001	2.332200e-001	3.317733e-002
4136730000	1.683865e-001	-1.203751e-002	4.031730e-002	1.566408e-001	9.227233e-002	7.623775e-001	-4.989560e-001	2.819455e-003
	4.008734e-002	1.562895e-001	1.929167e-001	-6.822569e-003	-5.061744e-001	7.575774e-003	7.955260e-002	7.557452e-001
	9.179128e-002	7.617822e-001	-5.068358e-001	6.583809e-003	1.882930e-001	3.141547e-002	1.075906e-002	1.237589e-001
	-4.986437e-001	2.611711e-003	7.828544e-002	7.563827e-001	1.060779e-002	1.242262e-001	2.305307e-001	3.079154e-002
4141720000	1.658085e-001	-1.427392e-002	4.213047e-002	1.542018e-001	1.037212e-001	7.631581e-001	-4.959338e-001	9.468271e-003
	4.212725e-002	1.536297e-001	1.896627e-001	-9.285208e-003	-5.032611e-001	1.441904e-002	9.105209e-002	7.568044e-001
	1.032023e-001	7.625282e-001	-5.039348e-001	1.349681e-002	1.862576e-001	2.935963e-002	1.250501e-002	1.213791e-001
	-4.955767e-001	9.301518e-003	8.985958e-002	7.574257e-001	1.228864e-002	1.220041e-001	2.279133e-001	2.812686e-002
4146710000	1.634225e-001	-1.631686e-002	4.383784e-002	1.518932e-001	1.153337e-001	7.639790e-001	-4.927444e-001	1.603685e-002
	4.390967e-002	1.512338e-001	1.868511e-001	-1.159573e-002	-4.996548e-001	2.133341e-002	1.026450e-001	7.578926e-001
	1.148097e-001	7.633063e-001	-5.002862e-001	2.050957e-002	1.846543e-001	2.758455e-002	1.408556e-002	1.192132e-001
	-4.923181e-001	1.588586e-002	1.013939e-001	7.586189e-001	1.371264e-002	1.197905e-001	2.254042e-001	2.569959e-002
4151700000	1.611660e-001	-1.803589e-002	4.556736e-002	1.491617e-001	1.273201e-001	7.644101e-001	-4.890919e-001	2.261494e-002
	4.570906e-002	1.486326e-001	1.842352e-001	-1.430653e-002	-4.957439e-001	2.732529e-002	1.146440e-001	7.586930e-001
	1.267772e-001	7.636958e-001	-4.963444e-001	2.651505e-002	1.833059e-001	2.504890e-002	1.564472e-002	1.167911e-001
	-4.887870e-001	2.244948e-002	1.133833e-001	7.594531e-001	1.519250e-002	1.172348e-001	2.231648e-001	2.335948e-002
4156690000	1.591515e-001	-1.954580e-002	4.713376e-002	1.460255e-001	1.393283e-001	7.639572e-001	-4.851939e-001	2.874878e-002
	4.726872e-002	1.455619e-001	1.811891e-001	-1.713280e-002	-4.923176e-001	3.294307e-002	1.266254e-001	7.586427e-001
	1.388721e-001	7.633240e-001	-4.930154e-001	3.213552e-002	1.809520e-001	2.255749e-002	1.664463e-002	1.137432e-001
	-4.848967e-001	2.863301e-002	1.254149e-001	7.595424e-001	1.611052e-002	1.141768e-001	2.209757e-001	2.067740e-002
4161680000	1.563777e-001	-2.156211e-002	4.837231e-002	1.423660e-001	1.508036e-001	7.634373e-001	-4.817048e-001	3.463023e-002
	4.861800e-002	1.419497e-001	1.773686e-001	-1.980352e-002	-4.894617e-001	3.892093e-002	1.382483e-001	7.584708e-001
	1.502802e-001	7.628216e-001	-4.902111e-001	3.813206e-002	1.779672e-001	2.095291e-002	1.710381e-002	1.110419e-001
	-4.814212e-001	3.440495e-002	1.369662e-001	7.594117e-001	1.658803e-002	1.113335e-001	2.183566e-001	1.820411e-002
4166670000	1.531584e-001	-2.318158e-002	4.925770e-002	1.389170e-001	1.623755e-001	7.631027e-001	-4.782585e-001	4.081449e-002
	4.934564e-002	1.385542e-001	1.732986e-001	-2.175484e-002	-4.863481e-001	4.525076e-002	1.500082e-001	7.584482e-001
	1.618581e-001	7.625758e-001	-4.870732e-001	4.445274e-002	1.753017e-001	1.968283e-002	1.765593e-002	1.083762e-001
	-4.780425e-001	4.056580e-002	1.487271e-001	7.594154e-001	1.725805e-002	1.084778e-001	2.156573e-001	1.628984e-002
4171660000	1.497378e-001	-2.450484e-002	5.035836e-002	1.356430e-001	1.741635e-001	7.627293e-001	-4.747423e-001	4.695267e-002
	5.009336e-002	1.352722e-001	1.690512e-001	-2.360557e-002	-4.830098e-001	5.153817e-002	1.618996e-001	7.582906e-001
	1.736845e-001	7.621779e-001	-4.837008e-001	5.063906e-002	1.724877e-001	1.823268e-002	1.826011e-002	1.053388e-001
	-4.744642e-001	4.665926e-002	1.605591e-001	7.592862e-001	1.804968e-002	1.055172e-001	2.128962e-001	1.440162e-002
4176650000	1.459040e-001	-2.587665e-002	5.127138e-002	1.324619e-001	1.859966e-001	7.621603e-001	-4.710386e-001	5.306122e-002
	5.093322e-002	1.320287e-001	1.648903e-001	-2.526812e-002	-4.794973e-001	5.779133e-002	1.738727e-001	7.580487e-001
	1.854934e-001	7.616119e-001	-4.801974e-001	5.686337e-002	1.693423e-001	1.669758e-002	1.880402e-002	1.023599e-001
	-4.707851e-001	5.272328e-002	1.725527e-001	7.589887e-001	1.863590e-002	1.024752e-001	2.099522e-001	1.259004e-002
4181640000	1.421300e-001	-2.701085e-002	5.214549e-002	1.293561e-001	1.979145e-001	7.614016e-001	-4.671922e-001	5.916109e-002
	5.171808e-002	1.289131e-001	1.606354e-001	-2.669591e-002	-4.758497e-001	6.402010e-002	1.858303e-001	7.576681e-001
	1.973693e-001	7.608826e-001	-4.765215e-001	6.304943e-002	1.660581e-001	1.509896e-002	1.922019e-002	9.925535e-002
	-4.668835e-001	5.871672e-002	1.845203e-001	7.585574e-001	1.922063e-002	9.946898e-002	2.066334e-001	1.054221e-002
4186630000	1.383119e-001	-2.809573e-002	5.297717e-002	1.266156e-001	2.099042e-001	7.605123e-001	-4.631206e-001	6.512745e-002
	5.244753e-002	1.259290e-001	1.565322e-001	-2.821629e-002	-4.719264e-001	7.013906e-002	1.978810e-001	7.570907e-001
	2.093504e-001	7.599899e-001	-4.725818e-001	6.922032e-002	1.627420e-001	1.351668e-002	1.966807e-002	9.625625e-002
	-4.627585e-001	6.471397e-002	1.966595e-001	7.579499e-001	1.963240e-002	9.660606e-002	2.033520e-001	8.429582e-003
4191620000	1.344611e-001	-2.934289e-002	5.361548e-002	1.236323e-001	2.219526e-001	7.594113e-001	-4.587923e-001	7.110155e-002
	5.311557e-002	1.230357e-001	1.521962e-001	-2.934406e-002	-4.678958e-001	7.629548e-002	2.101246e-001	7.564175e-001
	2.213300e-001	7.589760e-001	-4.685310e-001	7.538153e-002	1.593285e-001	1.193368e-002	1.983080e-002	9.321819e-002
	-4.583384e-001	7.063393e-002	2.088601e-001	7.571591e-001	1.978024e-002	9.365536e-002	1.998625e-001	6.587501e-003
4196610000	1.308190e-001	-3.033886e-002	5.394509e-002	1.208442e-001	2.340241e-001	7.581900e-001	-4.541192e-001	7.691797e-002
	5.350663e-002	1.200943e-001	1.478093e-001	-3.012578e-002	-4.636672e-001	8.251298e-002	2.222581e-001	7.554648e-001
	2.334474e-001	7.577628e-001	-4.643039e-001	8.169674e-002	1.557722e-001	1.060383e-002	1.975355e-002	9.041780e-002
	-4.537173e-001	7.648985e-002	2.211285e-001	7.562776e-001	1.960713e-002	9.089414e-002	1.963193e-001	4.706832e-003
4201600000	1.270252e-001	-3.129702e-002	5.382732e-002	1.177298e-001	2.461356e-001	7.567900e-001	-4.492182e-001	8.261745e-002
	5.343285e-002	1.170929e-001	1.432102e-001	-3.057533e-002	-4.590827e-001	8.879710e-002	2.344818e-001	7.544178e-001
	2.455176e-001	7.565039e-001	-4.598581e-001	8.802587e-002	1.523440e-001	9.560575e-003	1.923589e-002	8.768692e-002
	-4.488898e-001	8.224447e-002	2.333932e-001	7.552695e-001	1.925052e-002	8.833011e-002	1.927919e-001	3.185624e-003
4206590000	1.230739e-001	-3.232980e-002	5.352112e-002	1.146341e-001	2.584385e-001	7.553091e-001	-4.440784e-001	8.824161e-002
	5.320994e-002	1.142338e-001	1.383247e-001	-3.082919e-002	-4.541944e-001	9.515255e-002	2.469293e-001	7.531664e-001
	2.577795e-001	7.549579e-001	-4.550646e-001	9.437302e-002	1.491138e-001	9.072126e-003	1.855769e-002	8.520437e-002
	-4.438193e-001	8.788108e-002	2.458629e-001	7.540856e-001	1.829364e-002	8.574812e-002	1.889035e-001	1.835918e-003
4211580000	1.188132e-001	-3.304712e-002	5.290263e-002	1.116313e-001	2.709354e-001	7.536457e-001	-4.387489e-001	9.385462e-002
	5.270952e-002	1.112127e-001	1.333076e-001	-3.075326e-002	-4.490861e-001	1.014558e-001	2.596806e-001	7.516805e-001
	2.702470e-001	7.532998e-001	-4.499786e-001	1.007091e-001	1.456002e-001	8.695942e-003	1.752405e-002	8.267169e-002
	-4.386501e-001	9.349962e-002	2.585805e-001	7.527063e-001	1.739904e-002	8.303672e-002	1.850461e-001	7.940610e-004
4216570000	1.145509e-001	-3.363996e-002	5.229834e-002	1.086244e-001	2.836618e-001	7.518223e-001	-4.331429e-001	9.930077e-002
	5.209489e-002	1.084543e-001	1.279947e-001	-3.065735e-002	-4.436353e-001	1.076605e-001	2.725603e-001	7.500947e-001
	2.829887e-001	7.514741e-001	-4.446057e-001	1.068953e-001	1.419970e-001	8.413090e-003	1.650916e-002	8.001930e-002
	-4.331308e-001	9.899311e-002	2.714296e-001	7.510555e-001	1.631887e-002	8.027752e-002	1.806899e-001	-5.986169e-005
4221560000	1.099338e-001	-3.465102e-002	5.179514e-002	1.057025e-001	2.966172e-001	7.497335e-001	-4.274199e-001	1.045050e-001
	5.161868e-002	1.056020e-001	1.227561e-001	-3.070963e-002	-4.378326e-001	1.136147e-001	2.856480e-001	7.482246e-001
	2.958841e-001	7.494280e-001	-4.387758e-001	1.127980e-001	1.383262e-001	7.919400e-003	1.537302e-002	7.720625e-002
	-4.274446e-001	1.041996e-001	2.845316e-001	7.491957e-001	1.526130e-002	7.749023e-002	1.760403e-001	-1.000149e-003
4226550000	1.053492e-001	-3.532195e-002	5.146189e-002	1.027738e-001	3.098399e-001	7.473605e-001	-4.215411e-001	1.093685e-001
	5.102000e-002	1.026561e-001	1.170891e-001	-3.100988e-002	-4.317026e-001	1.191496e-001	2.988989e-001	7.460239e-001
	3.091228e-001	7.470197e-001	-4.326135e-001	1.183140e-001	1.342695e-001	7.296390e-003	1.433139e-002	7.432634e-002
	-4.215261e-001	1.090736e-001	2.977455e-001	7.470377e-001	1.438745e-002	7.473544e-002	1.708624e-001	-2.037813e-003
4231540000	1.005831e-001	-3.652323e-002	5.089250e-002	1.000988e-001	3.231097e-001	7.445537e-001	-4.155827e-001	1.138378e-001
	5.036245e-002	9.993977e-002	1.116583e-001	-3.143712e-002	-4.254204e-001	1.242647e-001	3.122512e-001	7.434497e-001
	3.223630e-001	7.441809e-001	-4.262615e-001	1.234603e-001	1.302943e-001	6.460074e-003	1.324224e-002	7.135956e-002
	-4.154536e-001	1.136066e-001	3.111314e-001	7.444658e-001	1.336906e-002	7.206965e-002	1.654524e-001	-3.047176e-003
4236530000	9.551509e-002	-3.770882e-002	4.999257e-002	9.753194e-002	3.363631e-001	7.414375e-001	-4.095927e-001	1.179961e-001
	4.965522e-002	9.720394e-002	1.060480e-001	-3.182042e-002	-4.190030e-001	1.290373e-001	3.255889e-001	7.406017e-001
	3.355455e-001	7.409904e-001	-4.198080e-001	1.283099e-001	1.261953e-001	5.450792e-003	1.211207e-002	6.887483e-002
	-4.094023e-001	1.177249e-001	3.245094e-001	7.416214e-001	1.216981e-002	6.955937e-002	1.598951e-001	-4.535821e-003
4241520000	9.027976e-002	-3.832098e-002	4.876879e-002	9.531942e-002	3.495229e-001	7.381554e-001	-4.036555e-001	1.220121e-001
	4.829323e-002	9.487163e-002	1.003784e-001	-3.209583e-002	-4.125776e-001	1.335527e-001	3.388460e-001	7.374829e-001
	3.487649e-001	7.376293e-001	-4.132935e-001	1.328330e-001	1.217407e-001	4.444717e-003	1.061426e-002	6.643336e-002
	-4.033764e-001	1.217904e-001	3.378506e-001	7.384957e-001	1.053673e-002	6.710741e-002	1.539845e-001	-5.912421e-003
4246510000	8.536190e-002	-3.887086e-002	4.717476e-002	9.337300e-002	3.626933e-001	7.345223e-001	-3.975576e-001	1.259303e-001
	4.685739e-002	9.288671e-002	9.497428e-002	-3.209913e-002	-4.060745e-001	1.377615e-001	3.521535e-001	7.341226e-001
	3.618677e-001	7.339217e-001	-4.067858e-001	1.371709e-001	1.171763e-001	3.783503e-003	8.654467e-003	6.423903e-002
	-3.972638e-001	1.256715e-001	3.511587e-001	7.350940e-001	8.558630e-003	6.487570e-002	1.482535e-001	-6.993918e-003
4251500000	8.046248e-002	-3.879856e-002	4.548386e-002	9.139855e-002	3.757666e-001	7.305019e-001	-3.912886e-001	1.295960e-001
	4.512748e-002	9.084776e-002	8.968432e-002	-3.168567e-002	-3.995380e-001	1.417854e-001	3.653663e-001	7.305619e-001
	3.749824e-001	7.299498e-001	-4.002324e-001	1.412374e-001	1.123670e-001	3.530062e-003	6.258349e-003	6.220019e-002
	-3.910236e-001	1.293206e-001	3.643752e-001	7.315166e-001	6.086798e-003	6.273862e-002	1.422299e-001	-7.865665e-003
4256490000	7.543082e-002	-3.900360e-002	4.372557e-002	8.902200e-002	3.887650e-001	7.260509e-001	-3.849674e-001	1.327173e-001
	4.341902e-002	8.863050e-002	8.419554e-002	-3.110311e-002	-3.929810e-001	1.456603e-001	3.785635e-001	7.265032e-001
	3.879808e-001	7.254986e-001	-3.937050e-001	1.450748e-001	1.073261e-001	3.865567e-003	3.267048e-003	6.022151e-002
	-3.847234e-001	1.324919e-001	3.776423e-001	7.275017e-001	3.115551e-003	6.085682e-002	1.361949e-001	-8.567653e-003
4261480000	6.969742e-002	-3.889839e-002	4.129038e-002	8.670601e-002	4.014861e-001	7.214081e-001	-3.792428e-001	1.356153e-001
	4.117762e-002	8.651512e-002	7.838824e-002	-3.013061e-002	-3.864746e-001	1.494905e-001	3.915662e-001	7.220943e-001
	4.007337e-001	7.208568e-001	-3.872805e-001	1.489160e-001	1.021515e-001	4.974584e-003	1.176662e-005	5.879485e-002
	-3.789510e-001	1.353706e-001	3.906571e-001	7.231724e-001	-2.930210e-004	5.928091e-002	1.294660e-001	-8.934039e-003
4266470000	6.339396e-002	-3.779099e-002	3.892063e-002	8.506656e-002	4.142620e-001	7.168870e-001	-3.737330e-001	1.390173e-001
	3.871965e-002	8.465953e-002	7.261891e-002	-2.868135e-002	-3.798062e-001	1.532590e-001	4.046492e-001	7.177381e-001
	4.134595e-001	7.163090e-001	-3.805199e-001	1.527117e-001	9.704951e-002	6.578161e-003	-3.205373e-003	5.787780e-002
	-3.734527e-001	1.387385e-001	4.037974e-001	7.187835e-001	-3.429814e-003	5.825917e-002	1.225238e-001	-8.185750e-003
4271460000	5.719096e-002	-3.598756e-002	3.666718e-002	8.346707e-002	4.273033e-001	7.121162e-001	-3.678868e-001	1.426761e-001
	3.636081e-002	8.316205e-002	6.668215e-002	-2.679983e-002	-3.728850e-001	1.568576e-001	4.180341e-001	7.132283e-001
	4.265290e-001	7.115938e-001	-3.736039e-001	1.562444e-001	9.196056e-002	8.536023e-003	-6.313812e-003	5.719942e-002
	-3.676052e-001	1.423495e-001	4.171692e-001	7.142896e-001	-6.478543e-003	5.740348e-002	1.159298e-001	-6.606860e-003
4276450000	5.121795e-002	-3.377661e-002	3.462628e-002	8.228294e-002	4.404693e-001	7.070588e-001	-3.617343e-001	1.461789e-001
	3.421233e-002	8.199476e-002	6.098720e-002	-2.488640e-002	-3.657738e-001	1.600815e-001	4.315358e-001	7.083921e-001
	4.397088e-001	7.065444e-001	-3.664645e-001	1.595025e-001	8.699754e-002	1.034980e-002	-9.237918e-003	5.650138e-002
	-3.613904e-001	1.458142e-001	4.307084e-001	7.094374e-001	-9.109414e-003	5.691705e-002	1.094451e-001	-4.521302e-003
4281440000	4.508995e-002	-3.152594e-002	3.271690e-002	8.111970e-002	4.536386e-001	7.016524e-001	-3.553329e-001	1.495130e-001
	3.214158e-002	8.082016e-002	5.497179e-002	-2.294187e-002	-3.586051e-001	1.629603e-001	4.451225e-001	7.032289e-001
	4.529228e-001	7.012036e-001	-3.592615e-001	1.624443e-001	8.178585e-002	1.221010e-002	-1.175769e-002	5.596630e-002
	-3.549668e-001	1.491561e-001	4.443667e-001	7.041822e-001	-1.153483e-002	5.631380e-002	1.026878e-001	-2.479210e-003
4286430000	3.913306e-002	-2.899482e-002	3.041870e-002	8.018788e-002	4.668341e-001	6.959875e-001	-3.486167e-001	1.526560e-001
	2.980769e-002	7.987307e-002	4.910703e-002	-2.080458e-002	-3.513255e-001	1.656440e-001	4.587652e-001	6.977353e-001
	4.661732e-001	6.955245e-001	-3.520091e-001	1.651795e-001	7.671132e-002	1.401986e-002	-1.428451e-002	5.567185e-002
	-3.482460e-001	1.523068e-001	4.580936e-001	6.985275e-001	-1.396044e-002	5.618360e-002	9.627523e-002	-9.761864e-005
4291420000	3.318119e-002	-2.643299e-002	2.821395e-002	7.964849e-002	4.801029e-001	6.900012e-001	-3.416182e-001	1.555656e-001
	2.766394e-002	7.931551e-002	4.320030e-002	-1.832835e-002	-3.439515e-001	1.680856e-001	4.724116e-001	6.917676e-001
	4.794175e-001	6.896182e-001	-3.446040e-001	1.676961e-001	7.173023e-002	1.610639e-002	-1.677578e-002	5.582138e-002
	-3.412498e-001	1.552326e-001	4.718657e-001	6.926317e-001	-1.643225e-002	5.624196e-002	9.022642e-002	2.355441e-003
4296410000	2.768784e-002	-2.337413e-002	2.584236e-002	7.946038e-002	4.934182e-001	6.836507e-001	-3.343774e-001	1.581553e-001
	2.533676e-002	7.897249e-002	3.740426e-002	-1.522857e-002	-3.364133e-001	1.702515e-001	4.861429e-001	6.855541e-001
	4.928291e-001	6.833278e-001	-3.370452e-001	1.699638e-001	6.710748e-002	1.823316e-002	-1.905024e-002	5.597287e-002
	-3.339949e-001	1.578769e-001	4.857378e-001	6.862971e-001	-1.882648e-002	5.665341e-002	8.408938e-002	5.074936e-003
4301400000	2.222248e-002	-2.021024e-002	2.324021e-002	7.932617e-002	5.068231e-001	6.769729e-001	-3.268624e-001	1.604411e-001
	2.305748e-002	7.875441e-002	3.162956e-002	-1.148781e-002	-3.288368e-001	1.720954e-001	4.999052e-001	6.788035e-001
	5.061887e-001	6.765937e-001	-3.295028e-001	1.718686e-001	6.266552e-002	2.081750e-002	-2.157027e-002	5.651257e-002
	-3.265536e-001	1.601240e-001	4.995934e-001	6.796554e-001	-2.134679e-002	5.712751e-002	7.861419e-002	8.246038e-003
4306390000	1.696341e-002	-1.673206e-002	2.065059e-002	7.909806e-002	5.200964e-001	6.698062e-001	-3.191658e-001	1.623667e-001
	2.052635e-002	7.866738e-002	2.560695e-002	-7.277484e-003	-3.212675e-001	1.736294e-001	5.137388e-001	6.714510e-001
	5.195282e-001	6.693538e-001	-3.219345e-001	1.734034e-001	5.798072e-002	2.384272e-002	-2.406694e-002	5.711135e-002
	-3.189284e-001	1.620759e-001	5.134681e-001	6.722987e-001	-2.400272e-002	5.746483e-002	7.313986e-002	1.181105e-002
4311380000	1.151455e-002	-1.290736e-002	1.796340e-002	7.910223e-002	5.334719e-001	6.620546e-001	-3.114401e-001	1.639199e-001
	1.787501e-002	7.864181e-002	1.930094e-002	-2.596794e-003	-3.137371e-001	1.749040e-001	5.275371e-001	6.634704e-001
	5.328330e-001	6.616609e-001	-3.144455e-001	1.747337e-001	5.348855e-002	2.694855e-002	-2.666734e-002	5.772672e-002
	-3.112569e-001	1.636197e-001	5.272589e-001	6.644266e-001	-2.670801e-002	5.806066e-002	6.762020e-002	1.589981e-002
4316370000	6.192684e-003	-8.674232e-003	1.528779e-002	7.907785e-002	5.466898e-001	6.537762e-001	-3.037837e-001	1.650591e-001
	1.524429e-002	7.879027e-002	1.290126e-002	2.566260e-003	-3.063300e-001	1.759998e-001	5.409941e-001	6.550823e-001
	5.461497e-001	6.534027e-001	-3.070163e-001	1.758423e-001	4.847495e-002	3.046396e-002	-2.934923e-002	5.813590e-002
	-3.035969e-001	1.647782e-001	5.407568e-001	6.560219e-001	-2.934482e-002	5.832642e-002	6.205224e-002	2.016659e-002
4321360000	7.927723e-004	-4.358849e-003	1.277123e-002	7.921473e-002	5.597789e-001	6.452356e-001	-2.962089e-001	1.659343e-001
	1.266455e-002	7.912005e-002	6.608437e-003	7.758899e-003	-2.988223e-001	1.769638e-001	5.544147e-001	6.465007e-001
	5.591646e-001	6.448564e-001	-2.995029e-001	1.768278e-001	4.345990e-002	3.431718e-002	-3.214551e-002	5.859970e-002
	-2.960430e-001	1.656447e-001	5.541423e-001	6.474378e-001	-3.205034e-002	5.876276e-002	5.624018e-002	2.459469e-002
4326350000	-4.759973e-003	-1.043921e-004	1.043368e-002	7.955766e-002	5.727352e-001	6.364091e-001	-2.885720e-001	1.665116e-001
	1.026582e-002	7.934903e-002	1.430761e-004	1.273826e-002	-2.911760e-001	1.775695e-001	5.678526e-001	6.374906e-001
	5.720745e-001	6.360039e-001	-2.917480e-001	1.774818e-001	3.813213e-002	3.787755e-002	-3.481628e-002	5.911136e-002
	-2.884104e-001	1.661613e-001	5.676043e-001	6.384446e-001	-3.464883e-002	5.910253e-002	5.003145e-002	2.908809e-002
4331340000	-1.041984e-002	4.385877e-003	7.993498e-003	8.032817e-002	5.856282e-001	6.271424e-001	-2.809518e-001	1.666706e-001
	7.628441e-003	7.990716e-002	-6.421433e-003	1.793841e-002	-2.834684e-001	1.778042e-001	5.811031e-001	6.279792e-001
	5.849102e-001	6.267896e-001	-2.839532e-001	1.777956e-001	3.269425e-002	4.141283e-002	-3.767050e-002	5.956581e-002
	-2.807767e-001	1.663184e-001	5.808790e-001	6.289148e-001	-3.735549e-002	5.980280e-002	4.327404e-002	3.389245e-002
4336330000	-1.569937e-002	9.136381e-003	5.568356e-003	8.148927e-002	5.983906e-001	6.175666e-001	-2.734098e-001	1.664743e-001
	5.103406e-003	8.099333e-002	-1.259451e-002	2.341375e-002	-2.757613e-001	1.777793e-001	5.940659e-001	6.180679e-001
	5.976531e-001	6.172244e-001	-2.761539e-001	1.778020e-001	2.718808e-002	4.537705e-002	-4.048627e-002	6.059316e-002
	-2.731959e-001	1.661846e-001	5.939872e-001	6.190627e-001	-4.022551e-002	6.100525e-002	3.648805e-002	3.870540e-002
4341320000	-2.086390e-002	1.423324e-002	3.100591e-003	8.307776e-002	6.110179e-001	6.077071e-001	-2.659463e-001	1.661134e-001
	2.651357e-003	8.233923e-002	-1.812882e-002	2.909188e-002	-2.680476e-001	1.774375e-001	6.068389e-001	6.079711e-001
	6.101747e-001	6.073470e-001	-2.683860e-001	1.775077e-001	2.196700e-002	4.955634e-002	-4.338766e-002	6.228443e-002
	-2.657360e-001	1.657951e-001	6.067891e-001	6.089212e-001	-4.311816e-002	6.266410e-002	2.988091e-002	4.365340e-002
4346310000	-2.543662e-002	1.938992e-002	5.826076e-004	8.484553e-002	6.235098e-001	5.976187e-001	-2.584454e-001	1.655561e-001
	2.783605e-004	8.415550e-002	-2.324392e-002	3.484611e-002	-2.603581e-001	1.767936e-001	6.195140e-001	5.976378e-001
	6.226045e-001	5.971673e-001	-2.606943e-001	1.768475e-001	1.735831e-002	5.438656e-002	-4.610557e-002	6.435184e-002
	-2.582504e-001	1.652542e-001	6.195248e-001	5.985476e-001	-4.613926e-002	6.479441e-002	2.368100e-002	4.907845e-002
4351300000	-2.956100e-002	2.508076e-002	-1.841393e-003	8.678425e-002	6.357677e-001	5.872140e-001	-2.508801e-001	1.647023e-001
	-2.138996e-003	8.609780e-002	-2.822140e-002	4.095583e-002	-2.527287e-001	1.757265e-001	6.319604e-001	5.869167e-001
	6.348307e-001	5.866897e-001	-2.530459e-001	1.757768e-001	1.303091e-002	5.948615e-002	-4.890009e-002	6.676340e-002
	-2.506914e-001	1.643830e-001	6.319521e-001	5.878921e-001	-4.897264e-002	6.722933e-002	1.821841e-002	5.473521e-002
4356290000	-3.321401e-002	3.138426e-002	-4.265218e-003	8.878975e-002	6.478856e-001	5.762109e-001	-2.431839e-001	1.634871e-001
	-4.493163e-003	8.818893e-002	-3.298865e-002	4.772388e-002	-2.451780e-001	1.742595e-001	6.443582e-001	5.756252e-001
	6.469875e-001	5.757257e-001	-2.455025e-001	1.742917e-001	9.126621e-003	6.483452e-002	-5.160743e-002	6.933197e-002
	-2.430176e-001	1.631679e-001	6.442922e-001	5.766010e-001	-5.178015e-002	6.968704e-002	1.331498e-002	6.071116e-002
4361280000	-3.655339e-002	3.762067e-002	-6.487934e-003	9.078041e-002	6.597936e-001	5.645044e-001	-2.354272e-001	1.616830e-001
	-6.591269e-003	9.020795e-002	-3.739406e-002	5.446559e-002	-2.378246e-001	1.723398e-001	6.564491e-001	5.635802e-001
	6.589185e-001	5.639896e-001	-2.381275e-001	1.723660e-001	5.092790e-003	7.030652e-002	-5.419665e-002	7.192581e-002
	-2.352750e-001	1.613254e-001	6.563842e-001	5.645231e-001	-5.438886e-002	7.216568e-002	8.912234e-003	6.664655e-002
4366270000	-3.968488e-002	4.407283e-002	-8.855728e-003	9.267006e-002	6.713406e-001	5.521656e-001	-2.279647e-001	1.593102e-001
	-8.865118e-003	9.226360e-002	-4.217501e-002	6.192344e-002	-2.308267e-001	1.701328e-001	6.681570e-001	5.509311e-001
	6.704807e-001	5.516472e-001	-2.311435e-001	1.701508e-001	1.061800e-003	7.643062e-002	-5.701551e-002	7.450974e-002
	-2.277698e-001	1.589479e-001	6.680515e-001	5.518949e-001	-5.709796e-002	7.459852e-002	4.805990e-003	7.318991e-002
4371260000	-4.273145e-002	5.104678e-002	-1.117711e-002	9.489546e-002	6.823111e-001	5.394878e-001	-2.208230e-001	1.564796e-001
	-1.140789e-002	9.457176e-002	-4.683368e-002	6.981963e-002	-2.240224e-001	1.678295e-001	6.793602e-001	5.379601e-001
	6.815299e-001	5.389649e-001	-2.243162e-001	1.677574e-001	-2.803670e-003	8.300863e-002	-5.977049e-002	7.720082e-002
	-2.205926e-001	1.561063e-001	6.792846e-001	5.388931e-001	-5.978991e-002	7.737335e-002	5.797934e-004	7.990244e-002
4376250000	-4.610319e-002	5.813002e-002	-1.344776e-002	9.765354e-002	6.928263e-001	5.265112e-001	-2.139554e-001	1.532533e-001
	-1.369701e-002	9.726824e-002	-5.114914e-002	7.816637e-002	-2.173114e-001	1.653221e-001	6.901112e-001	5.246704e-001
	6.920449e-001	5.260421e-001	-2.176308e-001	1.652279e-001	-6.895778e-003	8.983298e-002	-6.238109e-002	8.021184e-002
	-2.137189e-001	1.528691e-001	6.900452e-001	5.255325e-001	-6.230714e-002	8.034040e-002	-3.480681e-003	8.686135e-002
4381240000	-4.913644e-002	6.528470e-002	-1.542017e-002	1.007621e-001	7.030376e-001	5.133501e-001	-2.074433e-001	1.497205e-001
	-1.577057e-002	1.004273e-001	-5.523316e-002	8.689768e-002	-2.106255e-001	1.626151e-001	7.005172e-001	5.110789e-001
	7.021984e-001	5.129100e-001	-2.109193e-001	1.625177e-001	-1.030434e-002	9.669524e-002	-6.490925e-002	8.358675e-002
	-2.071436e-001	1.493275e-001	7.003947e-001	5.118142e-001	-6.469732e-002	8.377703e-002	-7.449515e-003	9.418110e-002
4386230000	-5.228946e-002	7.250250e-002	-1.720712e-002	1.042567e-001	7.126929e-001	5.000692e-001	-2.012562e-001	1.458489e-001
	-1.761765e-002	1.039418e-001	-5.869371e-002	9.582379e-002	-2.040234e-001	1.595643e-001	7.104061e-001	4.972672e-001
	7.119041e-001	4.996328e-001	-2.043057e-001	1.594756e-001	-1.366617e-002	1.037609e-001	-6.705339e-002	8.728153e-002
	-2.009578e-001	1.454755e-001	7.103363e-001	4.979571e-001	-6.678832e-002	8.760344e-002	-1.156171e-002	1.015969e-001
4391220000	-5.512146e-002	7.957150e-002	-1.882732e-002	1.083378e-001	7.221327e-001	4.868176e-001	-1.953733e-001	1.418848e-001
	-1.905926e-002	1.079599e-001	-6.123723e-002	1.048517e-001	-1.974890e-001	1.562274e-001	7.199078e-001	4.832571e-001
	7.213278e-001	4.862863e-001	-1.977585e-001	1.562069e-001	-1.626321e-002	1.106200e-001	-6.884530e-002	9.158573e-002
	-1.950967e-001	1.415425e-001	7.198876e-001	4.838753e-001	-6.863419e-002	9.198582e-002	-1.509127e-002	1.090775e-001
4396210000	-5.772636e-002	8.716431e-002	-2.006550e-002	1.128597e-001	7.313193e-001	4.734060e-001	-1.897445e-001	1.378290e-001
	-2.025393e-002	1.123157e-001	-6.306544e-002	1.141825e-001	-1.910607e-001	1.525872e-001	7.291444e-001	4.690762e-001
	7.305440e-001	4.728710e-001	-1.913346e-001	1.526162e-001	-1.808432e-002	1.175979e-001	-7.027480e-002	9.610665e-002
	-1.894637e-001	1.375453e-001	7.292608e-001	4.697088e-001	-7.005638e-002	9.669460e-002	-1.808983e-002	1.171233e-001
4401200000	-5.956236e-002	9.525248e-002	-2.105893e-002	1.175028e-001	7.403504e-001	4.597474e-001	-1.841737e-001	1.336707e-001
	-2.110887e-002	1.169652e-001	-6.433334e-002	1.240436e-001	-1.849053e-001	1.484542e-001	7.380213e-001	4.546303e-001
	7.396387e-001	4.592309e-001	-1.852322e-001	1.485613e-001	-1.958641e-002	1.245647e-001	-7.130102e-002	1.009161e-001
	-1.839733e-001	1.334175e-001	7.381446e-001	4.553158e-001	-7.112026e-002	1.013819e-001	-2.007903e-002	1.252331e-001
4406190000	-6.075038e-002	1.037288e-001	-2.175092e-002	1.221618e-001	7.490956e-001	4.455815e-001	-1.787144e-001	1.291867e-001
	-2.160782e-002	1.216992e-001	-6.501366e-002	1.343237e-001	-1.790845e-001	1.439959e-001	7.464847e-001	4.398137e-001
	7.484819e-001	4.451278e-001	-1.794848e-001	1.441197e-001	-2.060081e-002	1.317835e-001	-7.208884e-002	1.056732e-001
	-1.786018e-001	1.290123e-001	7.466079e-001	4.405610e-001	-7.201996e-002	1.060895e-001	-2.147573e-002	1.335077e-001
4411180000	-6.179317e-002	1.123546e-001	-2.200252e-002	1.267965e-001	7.574277e-001	4.308911e-001	-1.736325e-001	1.244051e-001
	-2.183918e-002	1.262826e-001	-6.567831e-002	1.447141e-001	-1.736645e-001	1.392431e-001	7.545502e-001	4.246594e-001
	7.568535e-001	4.304767e-001	-1.740715e-001	1.393529e-001	-2.154137e-002	1.392933e-001	-7.277601e-002	1.103862e-001
	-1.735232e-001	1.241547e-001	7.546917e-001	4.253640e-001	-7.269033e-002	1.107505e-001	-2.268892e-002	1.423609e-001
4416170000	-6.245122e-002	1.211158e-001	-2.195410e-002	1.312728e-001	7.653951e-001	4.158099e-001	-1.688968e-001	1.192597e-001
	-2.177440e-002	1.309017e-001	-6.643238e-002	1.556016e-001	-1.686749e-001	1.342497e-001	7.621273e-001	4.089865e-001
	7.648422e-001	4.154748e-001	-1.690772e-001	1.342562e-001	-2.244052e-002	1.472631e-001	-7.318468e-002	1.151408e-001
	-1.688659e-001	1.189713e-001	7.622540e-001	4.098090e-001	-7.322362e-002	1.153640e-001	-2.377566e-002	1.512912e-001
4421160000	-6.316767e-002	1.299030e-001	-2.150847e-002	1.359048e-001	7.727891e-001	4.004022e-001	-1.647613e-001	1.138178e-001
	-2.134473e-002	1.356008e-001	-6.691331e-002	1.664343e-001	-1.640888e-001	1.290238e-001	7.690657e-001	3.931438e-001
	7.722392e-001	4.000793e-001	-1.644216e-001	1.290065e-001	-2.332414e-002	1.553738e-001	-7.347320e-002	1.198819e-001
	-1.646962e-001	1.135431e-001	7.691856e-001	3.939415e-001	-7.342750e-002	1.199857e-001	-2.498278e-002	1.606898e-001
4426150000	-6.362187e-002	1.389542e-001	-2.058320e-002	1.406008e-001	7.796244e-001	3.848007e-001	-1.610579e-001	1.082731e-001
	-2.052055e-002	1.403141e-001	-6.715215e-002	1.771936e-001	-1.598390e-001	1.235600e-001	7.755825e-001	3.771276e-001
	7.790836e-001	3.845182e-001	-1.601064e-001	1.235661e-001	-2.431002e-002	1.637044e-001	-7.334211e-002	1.246929e-001
	-1.610120e-001	1.079708e-001	7.757074e-001	3.779461e-001	-7.332165e-002	1.246867e-001	-2.619825e-002	1.703540e-001
4431140000	-6.384013e-002	1.478388e-001	-1.922869e-002	1.453628e-001	7.860514e-001	3.690490e-001	-1.578197e-001	1.027619e-001
	-1.918635e-002	1.450540e-001	-6.706026e-002	1.875532e-001	-1.559450e-001	1.179281e-001	7.815714e-001	3.610205e-001
	7.854852e-001	3.687727e-001	-1.561323e-001	1.179029e-001	-2.513395e-002	1.718006e-001	-7.292523e-002	1.295997e-001
	-1.577053e-001	1.024009e-001	7.817544e-001	3.618732e-001	-7.285601e-002	1.295975e-001	-2.731101e-002	1.803098e-001
4436130000	-6.365636e-002	1.569297e-001	-1.752703e-002	1.502158e-001	7.920047e-001	3.531837e-001	-1.548769e-001	9.710715e-002
	-1.759010e-002	1.497585e-001	-6.662112e-002	1.973264e-001	-1.524675e-001	1.121335e-001	7.870443e-001	3.447467e-001
	7.913392e-001	3.529286e-001	-1.526176e-001	1.121329e-001	-2.560866e-002	1.796628e-001	-7.215321e-002	1.345093e-001
	-1.547777e-001	9.685224e-002	7.872951e-001	3.456732e-001	-7.206196e-002	1.346909e-001	-2.857533e-002	1.902665e-001
4441120000	-6.264188e-002	1.655187e-001	-1.562537e-002	1.550725e-001	7.973553e-001	3.373093e-001	-1.522391e-001	9.148677e-002
	-1.569078e-002	1.545914e-001	-6.583927e-002	2.071759e-001	-1.496131e-001	1.063445e-001	7.919262e-001	3.285738e-001
	7.966928e-001	3.370826e-001	-1.497093e-001	1.063585e-001	-2.594113e-002	1.876771e-001	-7.119323e-002	1.397053e-001
	-1.520906e-001	9.128846e-002	7.921847e-001	3.296266e-001	-7.118784e-002	1.399022e-001	-2.924235e-002	1.999342e-001
4446110000	-6.122378e-002	1.738357e-001	-1.359490e-002	1.599545e-001	8.020656e-001	3.216075e-001	-1.499912e-001	8.582314e-002
	-1.355317e-002	1.593945e-001	-6.406624e-002	2.167475e-001	-1.472291e-001	1.007573e-001	7.961618e-001	3.125766e-001
	8.013250e-001	3.213288e-001	-1.473141e-001	1.007603e-001	-2.555872e-002	1.958705e-001	-6.997641e-002	1.450999e-001
	-1.498299e-001	8.561198e-002	7.964176e-001	3.137583e-001	-7.005657e-002	1.453226e-001	-2.947660e-002	2.095490e-001
4451100000	-5.901598e-002	1.820705e-001	-1.137399e-002	1.647253e-001	8.061538e-001	3.060793e-001	-1.482388e-001	8.018144e-002
	-1.124594e-002	1.641870e-001	-6.178725e-002	2.265339e-001	-1.451968e-001	9.530772e-002	7.998061e-001	2.968133e-001
	8.054009e-001	3.058095e-001	-1.453464e-001	9.532892e-002	-2.455569e-002	2.039232e-001	-6.849225e-002	1.506502e-001
	-1.480743e-001	7.996853e-002	8.000334e-001	2.980504e-001	-6.860702e-002	1.508709e-001	-2.898512e-002	2.187658e-001
4456090000	-5.637906e-002	1.904697e-001	-8.804239e-003	1.694580e-001	8.098080e-001	2.906285e-001	-1.468396e-001	7.470896e-002
	-8.630578e-003	1.688914e-001	-5.873599e-002	2.365382e-001	-1.434115e-001	9.001784e-002	8.030534e-001	2.811494e-001
	8.089016e-001	2.904464e-001	-1.436077e-001	9.005657e-002	-2.271235e-002	2.120878e-001	-6.663852e-002	1.562919e-001
	-1.467656e-001	7.439360e-002	8.031664e-001	2.824311e-001	-6.674806e-002	1.564149e-001	-2.749513e-002	2.277802e-001
4461080000	-5.293750e-002	1.986198e-001	-5.841260e-003	1.741174e-001	8.129817e-001	2.752567e-001	-1.457952e-001	6.935254e-002
	-5.647101e-003	1.736549e-001	-5.496648e-002	2.464280e-001	-1.419058e-001	8.490835e-002	8.057819e-001	2.653815e-001
	8.121825e-001	2.750126e-001	-1.420922e-001	8.487085e-002	-1.996988e-002	2.206642e-001	-6.435103e-002	1.617882e-001
	-1.457954e-001	6.908062e-002	8.058868e-001	2.667499e-001	-6.457137e-002	1.617787e-001	-2.542150e-002	2.367014e-001
4466070000	-4.928884e-002	2.069805e-001	-2.502908e-003	1.785003e-001	8.158733e-001	2.597897e-001	-1.451249e-001	6.415584e-002
	-2.260205e-003	1.781572e-001	-5.071156e-002	2.565920e-001	-1.405246e-001	7.972712e-002	8.080274e-001	2.496704e-001
	8.150459e-001	2.596264e-001	-1.407813e-001	7.965261e-002	-1.706654e-002	2.288982e-001	-6.180220e-002	1.670209e-001
	-1.451035e-001	6.383235e-002	8.080523e-001	2.509743e-001	-6.194183e-002	1.669984e-001	-2.245776e-002	2.459556e-001
4471060000	-4.511421e-002	2.154823e-001	1.218979e-003	1.827690e-001	8.182654e-001	2.443953e-001	-1.447314e-001	5.903881e-002
	1.427974e-003	1.824349e-001	-4.573749e-002	2.664265e-001	-1.394433e-001	7.464399e-002	8.097046e-001	2.339277e-001
	8.175172e-001	2.441982e-001	-1.396929e-001	7.455581e-002	-1.368454e-002	2.374773e-001	-5.883137e-002	1.720439e-001
	-1.446778e-001	5.877311e-002	8.096964e-001	2.352443e-001	-5.898238e-002	1.720134e-001	-1.900871e-002	2.552374e-001
4476050000	-4.093086e-002	2.238598e-001	5.332726e-003	1.868485e-001	8.203540e-001	2.289727e-001	-1.445988e-001	5.408125e-002
	5.487645e-003	1.865528e-001	-4.058697e-002	2.758904e-001	-1.385548e-001	6.955602e-002	8.108771e-001	2.183835e-001
	8.194703e-001	2.287663e-001	-1.387846e-001	6.946045e-002	-1.011772e-002	2.454926e-001	-5.553185e-002	1.769094e-001
	-1.445089e-001	5.381315e-002	8.109008e-001	2.196239e-001	-5.554826e-002	1.769322e-001	-1.500533e-002	2.642549e-001
4481040000	-3.629296e-002	2.320090e-001	9.758475e-003	1.908159e-001	8.219282e-001	2.137092e-001	-1.446338e-001	4.920305e-002
	9.894523e-003	1.904790e-001	-3.504118e-002	2.847010e-001	-1.378773e-001	6.444203e-002	8.115718e-001	2.030978e-001
	8.211187e-001	2.134881e-001	-1.380783e-001	6.443900e-002	-6.479527e-003	2.531249e-001	-5.177887e-002	1.816434e-001
	-1.445495e-001	4.895867e-002	8.117645e-001	2.042682e-001	-5.172696e-002	1.817064e-001	-1.098326e-002	2.727982e-001
4486030000	-3.160701e-002	2.398381e-001	1.460726e-002	1.945816e-001	8.232684e-001	1.986256e-001	-1.450191e-001	4.451870e-002
	1.464287e-002	1.941984e-001	-2.925951e-002	2.929755e-001	-1.374419e-001	5.948906e-002	8.119546e-001	1.880807e-001
	8.221837e-001	1.983782e-001	-1.376495e-001	5.943201e-002	-2.300633e-003	2.602806e-001	-4.767653e-002	1.860827e-001
	-1.447819e-001	4.428295e-002	8.122145e-001	1.891086e-001	-4.756453e-002	1.862453e-001	-6.507686e-003	2.812335e-001
4491020000	-2.597429e-002	2.467595e-001	1.956798e-002	1.981958e-001	8.241063e-001	1.838207e-001	-1.453680e-001	3.999835e-002
	1.958866e-002	1.978003e-001	-2.285419e-002	3.001290e-001	-1.372069e-001	5.455449e-002	8.121702e-001	1.733816e-001
	8.232638e-001	1.836650e-001	-1.373933e-001	5.462615e-002	2.095763e-003	2.665533e-001	-4.315851e-002	1.903347e-001
	-1.451675e-001	3.994109e-002	8.124098e-001	1.743264e-001	-4.308872e-002	1.904896e-001	-1.792752e-003	2.886472e-001
4496010000	-2.053525e-002	2.534480e-001	2.466338e-002	2.014754e-001	8.249061e-001	1.693020e-001	-1.458688e-001	3.577377e-002
	2.472433e-002	2.010002e-001	-1.579747e-002	3.071949e-001	-1.372177e-001	4.985419e-002	8.119674e-001	1.590376e-001
	8.238958e-001	1.691058e-001	-1.374448e-001	4.995873e-002	7.001468e-003	2.723725e-001	-3.857924e-002	1.942060e-001
	-1.456818e-001	3.570518e-002	8.123138e-001	1.599756e-001	-3.854928e-002	1.944431e-001	3.578730e-003	2.956816e-001
4501000000	-1.444740e-002	2.594878e-001	2.980243e-002	2.044635e-001	8.254112e-001	1.551901e-001	-1.464100e-001	3.169912e-002
	2.996356e-002	2.040540e-001	-8.495549e-003	3.138777e-001	-1.374502e-001	4.534436e-002	8.116241e-001	1.450344e-001
	8.244694e-001	1.549925e-001	-1.376931e-001	4.551467e-002	1.224622e-002	2.778799e-001	-3.397365e-002	1.978448e-001
	-1.462307e-001	3.166795e-002	8.120687e-001	1.460038e-001	-3.403170e-002	1.980621e-001	9.281431e-003	3.018869e-001
4505990000	-8.243824e-003	2.654559e-001	3.504972e-002	2.071193e-001	8.257973e-001	1.410818e-001	-1.470210e-001	2.783354e-002
	3.529182e-002	2.067395e-001	-9.949918e-004	3.204249e-001	-1.378258e-001	4.106704e-002	8.112111e-001	1.312782e-001
	8.247682e-001	1.408283e-001	-1.381041e-001	4.125546e-002	1.782637e-002	2.833171e-001	-2.942824e-002	2.011505e-001
	-1.468436e-001	2.778373e-002	8.115727e-001	1.322033e-001	-2.953119e-002	2.014138e-001	1.550836e-002	3.081997e-001
4510980000	-2.039556e-003	2.715287e-001	4.045252e-002	2.093473e-001	8.258593e-001	1.270245e-001	-1.475863e-001	2.405453e-002
	4.074268e-002	2.090857e-001	6.386257e-003	3.271516e-001	-1.383489e-001	3.695581e-002	8.107123e-001	1.175668e-001
	8.248830e-001	1.266414e-001	-1.386822e-001	3.708750e-002	2.354499e-002	2.892167e-001	-2.488690e-002	2.043060e-001
	-1.475806e-001	2.397443e-002	8.109374e-001	1.184546e-001	-2.504643e-002	2.044596e-001	2.194545e-002	3.142729e-001
4515970000	4.240212e-003	2.774240e-001	4.604571e-002	2.113631e-001	8.258090e-001	1.128403e-001	-1.483189e-001	2.039166e-002
	4.633502e-002	2.110782e-001	1.340032e-002	3.334374e-001	-1.390199e-001	3.284617e-002	8.100356e-001	1.038923e-001
	8.248256e-001	1.123987e-001	-1.392324e-001	3.292860e-002	2.924915e-002	2.952297e-001	-2.035009e-002	2.072917e-001
	-1.483646e-001	2.015080e-002	8.102881e-001	1.046552e-001	-2.047305e-002	2.073220e-001	2.857413e-002	3.207451e-001
4520960000	1.089885e-002	2.832835e-001	5.169183e-002	2.130448e-001	8.255553e-001	9.861595e-002	-1.492273e-001	1.658143e-002
	5.184783e-002	2.128482e-001	1.998631e-002	3.396474e-001	-1.397752e-001	2.874556e-002	8.092823e-001	9.013846e-002
	8.247097e-001	9.818903e-002	-1.399812e-001	2.878749e-002	3.488049e-002	3.012460e-001	-1.563249e-002	2.100595e-001
	-1.491693e-001	1.643810e-002	8.094936e-001	9.076664e-002	-1.574413e-002	2.101181e-001	3.502684e-002	3.274403e-001
4525950000	1.703489e-002	2.890884e-001	5.746312e-002	2.145804e-001	8.250763e-001	8.427483e-002	-1.502209e-001	1.265034e-002
	5.753585e-002	2.143939e-001	2.612997e-002	3.459027e-001	-1.406229e-001	2.458079e-002	8.085016e-001	7.624914e-002
	8.241751e-001	8.380119e-002	-1.407969e-001	2.458905e-002	4.052551e-002	3.073664e-001	-1.073644e-002	2.128357e-001
	-1.501225e-001	1.248556e-002	8.085761e-001	7.673564e-002	-1.080802e-002	2.128864e-001	4.129780e-002	3.342011e-001
4530940000	2.317322e-002	2.947286e-001	6.330175e-002	2.160835e-001	8.241315e-001	6.985701e-002	-1.514994e-001	8.670360e-003
	6.328032e-002	2.158452e-001	3.186767e-002	3.516595e-001	-1.416770e-001	2.022664e-002	8.074299e-001	6.224229e-002
	8.233284e-001	6.943660e-002	-1.417700e-001	2.023655e-002	4.598979e-002	3.131658e-001	-5.498235e-003	2.155129e-001
	-1.513518e-001	8.514845e-003	8.076590e-001	6.254522e-002	-5.545704e-003	2.156361e-001	4.743308e-002	3.412036e-001
4535930000	2.921974e-002	3.000150e-001	6.914921e-002	2.175250e-001	8.231525e-001	5.550440e-002	-1.530509e-001	4.658703e-003
	6.916717e-002	2.171905e-001	3.771815e-002	3.572751e-001	-1.431971e-001	1.589905e-002	8.060158e-001	4.793760e-002
	8.221923e-001	5.517682e-002	-1.431953e-001	1.600603e-002	5.126236e-002	3.186107e-001	6.825199e-005	2.179583e-001
	-1.528427e-001	4.539446e-003	8.063865e-001	4.827543e-002	1.441807e-005	2.181488e-001	5.347801e-002	3.480765e-001
4540920000	3.546505e-002	3.047914e-001	7.505736e-002	2.187552e-001	8.218712e-001	4.137378e-002	-1.548107e-001	7.674164e-004
	7.504796e-002	2.184125e-001	4.363295e-002	3.626777e-001	-1.449598e-001	1.195577e-002	8.043168e-001	3.370123e-002
	8.208010e-001	4.100633e-002	-1.449595e-001	1.204104e-002	5.663841e-002	3.235886e-001	5.634123e-003	2.202253e-001
	-1.545514e-001	7.056431e-004	8.045703e-001	3.411034e-002	5.498215e-003	2.204679e-001	5.961647e-002	3.544244e-001
4545910000	4.194629e-002	3.092721e-001	8.094541e-002	2.199332e-001	8.202970e-001	2.751243e-002	-1.568409e-001	-2.987537e-003
	8.099714e-002	2.195511e-001	5.018429e-002	3.676112e-001	-1.468396e-001	8.278317e-003	8.020282e-001	1.986699e-002
	8.191466e-001	2.710221e-002	-1.468477e-001	8.343294e-003	6.227003e-002	3.284702e-001	1.114835e-002	2.223326e-001
	-1.565301e-001	-3.042907e-003	8.023029e-001	2.032831e-002	1.093380e-002	2.225973e-001	6.591276e-002	3.600306e-001
4550900000	4.885468e-002	3.132673e-001	8.686829e-002	2.208069e-001	8.182809e-001	1.390061e-002	-1.590561e-001	-6.557851e-003
	8.695400e-002	2.204531e-001	5.734313e-002	3.722660e-001	-1.489094e-001	4.889060e-003	7.993248e-001	6.443174e-003
	8.172056e-001	1.353548e-002	-1.489130e-001	4.929689e-003	6.836206e-002	3.332067e-001	1.664845e-002	2.242435e-001
	-1.587665e-001	-6.554304e-003	7.996699e-001	7.055302e-003	1.637249e-002	2.244365e-001	7.242630e-002	3.650492e-001
4555890000	5.627622e-002	3.170783e-001	9.285075e-002	2.213543e-001	8.159930e-001	5.689214e-004	-1.615727e-001	-9.867923e-003
	9.293826e-002	2.209893e-001	6.516921e-002	3.767446e-001	-1.511842e-001	1.804829e-003	7.961448e-001	-6.529175e-003
	8.149006e-001	1.454874e-004	-1.511583e-001	1.754558e-003	7.491719e-002	3.376971e-001	2.213526e-002	2.257819e-001
	-1.612086e-001	-9.831757e-003	7.965633e-001	-5.903796e-003	2.182265e-002	2.260008e-001	7.937252e-002	3.696845e-001
4560880000	6.392513e-002	3.207053e-001	9.888021e-002	2.215726e-001	8.133309e-001	-1.263340e-002	-1.641996e-001	-1.290714e-002
	9.890875e-002	2.212586e-001	7.335388e-002	3.812165e-001	-1.534303e-001	-1.003230e-003	7.928373e-001	-1.924880e-002
	8.122133e-001	-1.299052e-002	-1.534775e-001	-1.053039e-003	8.147100e-002	3.420834e-001	2.747625e-002	2.271188e-001
	-1.638697e-001	-1.285405e-002	7.930829e-001	-1.856746e-002	2.716545e-002	2.272772e-001	8.650042e-002	3.734168e-001
4565870000	7.167114e-002	3.243332e-001	1.049355e-001	2.216252e-001	8.102486e-001	-2.574927e-002	-1.669752e-001	-1.575000e-002
	1.049333e-001	2.214256e-001	8.203463e-002	3.855953e-001	-1.555642e-001	-3.634424e-003	7.893523e-001	-3.173391e-002
	8.091854e-001	-2.614254e-002	-1.556382e-001	-3.695304e-003	8.859361e-002	3.468860e-001	3.272507e-002	2.284878e-001
	-1.666481e-001	-1.573608e-002	7.895617e-001	-3.096763e-002	3.249100e-002	2.285097e-001	9.384745e-002	3.772564e-001
4570860000	7.937703e-002	3.277950e-001	1.111579e-001	2.215783e-001	8.070209e-001	-3.856822e-002	-1.699663e-001	-1.828626e-002
	1.110734e-001	2.213423e-001	9.050473e-002	3.896670e-001	-1.578149e-001	-6.224019e-003	7.854917e-001	-4.407360e-002
	8.059691e-001	-3.904503e-002	-1.579002e-001	-6.350185e-003	9.579121e-002	3.514494e-001	3.828001e-002	2.296489e-001
	-1.696466e-001	-1.834870e-002	7.857939e-001	-4.341448e-002	3.808484e-002	2.297614e-001	1.015534e-001	3.813714e-001
4575850000	8.718381e-002	3.315870e-001	1.175449e-001	2.212402e-001	8.035540e-001	-5.126926e-002	-1.730256e-001	-2.061568e-002
	1.174257e-001	2.209590e-001	9.926321e-002	3.937977e-001	-1.600385e-001	-8.627921e-003	7.815899e-001	-5.626443e-002
	8.024237e-001	-5.169918e-002	-1.602091e-001	-8.798351e-003	1.030964e-001	3.557878e-001	4.403816e-002	2.307308e-001
	-1.727565e-001	-2.067302e-002	7.817516e-001	-5.555223e-002	4.384746e-002	2.308266e-001	1.092092e-001	3.853043e-001
4580840000	9.489447e-002	3.346653e-001	1.239091e-001	2.208054e-001	8.000704e-001	-6.376021e-002	-1.760895e-001	-2.263303e-002
	1.237749e-001	2.204404e-001	1.079611e-001	3.968932e-001	-1.622920e-001	-1.099876e-002	7.773756e-001	-6.823482e-002
	7.989063e-001	-6.417564e-002	-1.623890e-001	-1.118192e-002	1.103224e-001	3.595542e-001	4.994156e-002	2.316238e-001
	-1.757573e-001	-2.273324e-002	7.776403e-001	-6.759051e-002	4.976298e-002	2.317962e-001	1.170589e-001	3.891334e-001
4585830000	1.025541e-001	3.376101e-001	1.303051e-001	2.202047e-001	7.964296e-001	-7.623348e-002	-1.791068e-001	-2.445858e-002
	1.301955e-001	2.197775e-001	1.167351e-001	3.993644e-001	-1.645730e-001	-1.337348e-002	7.730598e-001	-7.989814e-002
	7.952941e-001	-7.661813e-002	-1.645455e-001	-1.348206e-002	1.173391e-001	3.629425e-001	5.595773e-002	2.323602e-001
	-1.787222e-001	-2.464827e-002	7.735390e-001	-7.934038e-002	5.587093e-002	2.326276e-001	1.250131e-001	3.924335e-001
4590820000	1.104905e-001	3.401030e-001	1.366884e-001	2.193211e-001	7.926969e-001	-8.854690e-002	-1.820398e-001	-2.623602e-002
	1.365925e-001	2.188731e-001	1.255131e-001	4.015518e-001	-1.668333e-001	-1.561369e-002	7.686636e-001	-9.149379e-002
	7.914471e-001	-8.887396e-002	-1.668309e-001	-1.571836e-002	1.246739e-001	3.655488e-001	6.218114e-002	2.328887e-001
	-1.816148e-001	-2.633356e-002	7.692054e-001	-9.088519e-002	6.203215e-002	2.332439e-001	1.327872e-001	3.951919e-001
4595810000	1.184535e-001	3.420649e-001	1.429934e-001	2.182606e-001	7.887273e-001	-1.006712e-001	-1.847977e-001	-2.789507e-002
	1.428988e-001	2.177516e-001	1.347916e-001	4.030084e-001	-1.691839e-001	-1.780657e-002	7.641994e-001	-1.027006e-001
	7.874198e-001	-1.008998e-001	-1.691197e-001	-1.783728e-002	1.320939e-001	3.676216e-001	6.829291e-002	2.331957e-001
	-1.844472e-001	-2.795899e-002	7.648500e-001	-1.020704e-001	6.815003e-002	2.335708e-001	1.409503e-001	3.971651e-001
4600800000	1.265831e-001	3.433004e-001	1.491310e-001	2.169408e-001	7.846079e-001	-1.123534e-001	-1.875416e-001	-2.951866e-002
	1.491399e-001	2.164625e-001	1.443294e-001	4.042146e-001	-1.714589e-001	-1.979537e-002	7.596253e-001	-1.136775e-001
	7.832527e-001	-1.126867e-001	-1.714721e-001	-1.977909e-002	1.401539e-001	3.690119e-001	7.433617e-002	2.332627e-001
	-1.872260e-001	-2.962249e-002	7.604384e-001	-1.129613e-001	7.412039e-002	2.337288e-001	1.493193e-001	3.986701e-001
4605790000	1.351514e-001	3.442993e-001	1.552871e-001	2.153773e-001	7.802787e-001	-1.238681e-001	-1.903650e-001	-3.099311e-002
	1.553233e-001	2.149375e-001	1.539104e-001	4.055305e-001	-1.738095e-001	-2.169314e-002	7.549418e-001	-1.243996e-001
	7.788232e-001	-1.240990e-001	-1.739424e-001	-2.156811e-002	1.483791e-001	3.702068e-001	8.034186e-002	2.331702e-001
	-1.900481e-001	-3.107029e-002	7.557048e-001	-1.236533e-001	8.011665e-002	2.336171e-001	1.581770e-001	3.998698e-001
4610780000	1.438006e-001	3.450933e-001	1.615648e-001	2.134294e-001	7.756389e-001	-1.352406e-001	-1.933134e-001	-3.239500e-002
	1.616103e-001	2.131471e-001	1.637971e-001	4.068832e-001	-1.763678e-001	-2.343856e-002	7.500606e-001	-1.350644e-001
	7.742642e-001	-1.355087e-001	-1.764466e-001	-2.325466e-002	1.568384e-001	3.716428e-001	8.642163e-002	2.328279e-001
	-1.930744e-001	-3.241617e-002	7.507494e-001	-1.341642e-001	8.624674e-002	2.331999e-001	1.672226e-001	4.006977e-001
4615770000	1.524026e-001	3.459783e-001	1.679904e-001	2.113835e-001	7.707954e-001	-1.463873e-001	-1.964026e-001	-3.353013e-002
	1.678732e-001	2.110520e-001	1.729355e-001	4.079809e-001	-1.788994e-001	-2.498560e-002	7.450678e-001	-1.456681e-001
	7.695294e-001	-1.467132e-001	-1.791155e-001	-2.501939e-002	1.656962e-001	3.728511e-001	9.266028e-002	2.322158e-001
	-1.962181e-001	-3.349921e-002	7.455820e-001	-1.448942e-001	9.240622e-002	2.324869e-001	1.765356e-001	4.017656e-001
4620760000	1.609387e-001	3.467917e-001	1.744763e-001	2.090243e-001	7.659656e-001	-1.575431e-001	-1.996041e-001	-3.444213e-002
	1.743117e-001	2.087277e-001	1.821255e-001	4.090840e-001	-1.815926e-001	-2.663642e-002	7.398983e-001	-1.559807e-001
	7.646436e-001	-1.577908e-001	-1.817772e-001	-2.661832e-002	1.741884e-001	3.738946e-001	9.890058e-002	2.312946e-001
	-1.994748e-001	-3.440624e-002	7.403654e-001	-1.554159e-001	9.876408e-002	2.315496e-001	1.858784e-001	4.027094e-001
4625750000	1.691500e-001	3.474635e-001	1.809824e-001	2.064949e-001	7.609505e-001	-1.686162e-001	-2.028894e-001	-3.516210e-002
	1.808129e-001	2.061905e-001	1.907112e-001	4.096744e-001	-1.844893e-001	-2.821738e-002	7.346564e-001	-1.662109e-001
	7.596209e-001	-1.687429e-001	-1.845900e-001	-2.821957e-002	1.823310e-001	3.750238e-001	1.052530e-001	2.300956e-001
	-2.027384e-001	-3.513238e-002	7.350899e-001	-1.657854e-001	1.052586e-001	2.303701e-001	1.952667e-001	4.038691e-001
4630740000	1.772637e-001	3.479727e-001	1.874821e-001	2.037690e-001	7.558062e-001	-1.794575e-001	-2.061951e-001	-3.580986e-002
	1.872886e-001	2.033115e-001	1.990963e-001	4.099515e-001	-1.873965e-001	-2.954864e-002	7.293591e-001	-1.763762e-001
	7.544851e-001	-1.796025e-001	-1.874263e-001	-2.967362e-002	1.905280e-001	3.759176e-001	1.117482e-001	2.286279e-001
	-2.060007e-001	-3.572431e-002	7.298265e-001	-1.759371e-001	1.116513e-001	2.288872e-001	2.041208e-001	4.050700e-001
4635730000	1.853514e-001	3.480832e-001	1.939100e-001	2.008857e-001	7.507497e-001	-1.902757e-001	-2.094147e-001	-3.619818e-002
	1.937087e-001	2.003591e-001	2.070162e-001	4.097501e-001	-1.903834e-001	-3.093651e-002	7.239805e-001	-1.862547e-001
	7.493600e-001	-1.902537e-001	-1.903554e-001	-3.099337e-002	1.980156e-001	3.763660e-001	1.180768e-001	2.268903e-001
	-2.091593e-001	-3.609736e-002	7.246151e-001	-1.859794e-001	1.180733e-001	2.273574e-001	2.130024e-001	4.059897e-001
4640720000	1.931892e-001	3.479787e-001	2.002248e-001	1.976674e-001	7.455684e-001	-2.006505e-001	-2.127643e-001	-3.654138e-002
	2.000498e-001	1.970066e-001	2.148333e-001	4.091328e-001	-1.934432e-001	-3.210390e-002	7.187296e-001	-1.960659e-001
	7.441690e-001	-2.007211e-001	-1.933786e-001	-3.213803e-002	2.055276e-001	3.766861e-001	1.244125e-001	2.251021e-001
	-2.123925e-001	-3.637510e-002	7.193823e-001	-1.956372e-001	1.243504e-001	2.255058e-001	2.210594e-001	4.067254e-001
4645710000	2.008537e-001	3.471110e-001	2.063171e-001	1.942108e-001	7.405098e-001	-2.108827e-001	-2.159576e-001	-3.658381e-002
	2.061502e-001	1.935350e-001	2.223452e-001	4.080543e-001	-1.965545e-001	-3.315958e-002	7.134619e-001	-2.055069e-001
	7.391255e-001	-2.109008e-001	-1.964199e-001	-3.315831e-002	2.126670e-001	3.764351e-001	1.305962e-001	2.230123e-001
	-2.155835e-001	-3.648945e-002	7.142717e-001	-2.050366e-001	1.304900e-001	2.235051e-001	2.290771e-001	4.070550e-001
4650700000	2.082893e-001	3.459133e-001	2.121507e-001	1.904350e-001	7.354030e-001	-2.206556e-001	-2.191182e-001	-3.659858e-002
	2.120856e-001	1.898150e-001	2.299564e-001	4.064264e-001	-1.996224e-001	-3.390751e-002	7.083855e-001	-2.147321e-001
	7.339776e-001	-2.207418e-001	-1.995442e-001	-3.394289e-002	2.199616e-001	3.759414e-001	1.365670e-001	2.207666e-001
	-2.186779e-001	-3.647074e-002	7.091067e-001	-2.140166e-001	1.363173e-001	2.211386e-001	2.366803e-001	4.067441e-001
4655690000	2.161102e-001	3.442056e-001	2.177201e-001	1.863096e-001	7.302172e-001	-2.302853e-001	-2.220413e-001	-3.635546e-002
	2.176445e-001	1.857514e-001	2.377640e-001	4.046417e-001	-2.026194e-001	-3.443882e-002	7.031152e-001	-2.236903e-001
	7.288414e-001	-2.303407e-001	-2.025694e-001	-3.448894e-002	2.272674e-001	3.752327e-001	1.422548e-001	2.181438e-001
	-2.215606e-001	-3.628993e-002	7.038061e-001	-2.227930e-001	1.419278e-001	2.184358e-001	2.445499e-001	4.060015e-001
4660680000	2.239370e-001	3.422825e-001	2.231214e-001	1.819949e-001	7.249073e-001	-2.397766e-001	-2.248295e-001	-3.604504e-002
	2.230132e-001	1.814859e-001	2.458702e-001	4.026736e-001	-2.055662e-001	-3.475459e-002	6.978139e-001	-2.323852e-001
	7.235931e-001	-2.398826e-001	-2.055380e-001	-3.483876e-002	2.347260e-001	3.744758e-001	1.475879e-001	2.153268e-001
	-2.244249e-001	-3.597929e-002	6.983498e-001	-2.313598e-001	1.472934e-001	2.155717e-001	2.524161e-001	4.046437e-001
4665670000	2.318583e-001	3.404355e-001	2.284659e-001	1.775044e-001	7.194800e-001	-2.491798e-001	-2.276012e-001	-3.566139e-002
	2.283119e-001	1.769325e-001	2.538716e-001	4.007587e-001	-2.084742e-001	-3.499004e-002	6.924332e-001	-2.410106e-001
	7.180537e-001	-2.492266e-001	-2.085295e-001	-3.509361e-002	2.422313e-001	3.736264e-001	1.528278e-001	2.123504e-001
	-2.272671e-001	-3.555171e-002	6.928448e-001	-2.398787e-001	1.525798e-001	2.125393e-001	2.602687e-001	4.029175e-001
4670660000	2.397024e-001	3.384259e-001	2.336365e-001	1.729371e-001	7.138597e-001	-2.583869e-001	-2.303361e-001	-3.521237e-002
	2.333494e-001	1.722815e-001	2.620499e-001	3.986479e-001	-2.113771e-001	-3.499471e-002	6.868162e-001	-2.494287e-001
	7.125651e-001	-2.584782e-001	-2.113613e-001	-3.524114e-002	2.496728e-001	3.730099e-001	1.580159e-001	2.091789e-001
	-2.299844e-001	-3.511763e-002	6.873324e-001	-2.483066e-001	1.578356e-001	2.093323e-001	2.679878e-001	4.013748e-001
4675650000	2.473139e-001	3.365568e-001	2.386266e-001	1.681845e-001	7.081966e-001	-2.676311e-001	-2.330389e-001	-3.469221e-002
	2.384130e-001	1.675323e-001	2.699779e-001	3.964733e-001	-2.142410e-001	-3.498804e-002	6.812919e-001	-2.576880e-001
	7.069226e-001	-2.676719e-001	-2.142032e-001	-3.527382e-002	2.569036e-001	3.721914e-001	1.630557e-001	2.059896e-001
	-2.327650e-001	-3.464252e-002	6.816429e-001	-2.566413e-001	1.629997e-001	2.061327e-001	2.758050e-001	3.998064e-001
4680640000	2.545581e-001	3.345632e-001	2.436009e-001	1.634832e-001	7.025412e-001	-2.767308e-001	-2.358467e-001	-3.403279e-002
	2.433571e-001	1.627045e-001	2.775442e-001	3.939814e-001	-2.170671e-001	-3.494221e-002	6.756485e-001	-2.659113e-001
	7.012342e-001	-2.767557e-001	-2.170044e-001	-3.528496e-002	2.637771e-001	3.713103e-001	1.682320e-001	2.026695e-001
	-2.355971e-001	-3.409887e-002	6.760745e-001	-2.650120e-001	1.682014e-001	2.029312e-001	2.833745e-001	3.984029e-001
4685630000	2.616409e-001	3.323565e-001	2.484435e-001	1.586096e-001	6.969262e-001	-2.858277e-001	-2.386551e-001	-3.330964e-002
	2.481181e-001	1.578084e-001	2.849935e-001	3.912183e-001	-2.198095e-001	-3.487230e-002	6.700309e-001	-2.741695e-001
	6.956509e-001	-2.857324e-001	-2.197755e-001	-3.521325e-002	2.703002e-001	3.698119e-001	1.733559e-001	1.992956e-001
	-2.383504e-001	-3.342645e-002	6.705636e-001	-2.732914e-001	1.733168e-001	1.996354e-001	2.905326e-001	3.967131e-001
4690620000	2.683861e-001	3.298705e-001	2.530413e-001	1.536889e-001	6.912195e-001	-2.948806e-001	-2.412737e-001	-3.251685e-002
	2.528245e-001	1.528447e-001	2.921953e-001	3.878596e-001	-2.225703e-001	-3.475291e-002	6.645706e-001	-2.823182e-001
	6.901173e-001	-2.947141e-001	-2.223950e-001	-3.508264e-002	2.764929e-001	3.680275e-001	1.782818e-001	1.959031e-001
	-2.410171e-001	-3.259077e-002	6.649409e-001	-2.814562e-001	1.782854e-001	1.962054e-001	2.974444e-001	3.945689e-001
4695610000	2.752098e-001	3.270327e-001	2.572914e-001	1.485212e-001	6.855515e-001	-3.037208e-001	-2.437784e-001	-3.155273e-002
	2.572363e-001	1.476732e-001	2.998948e-001	3.841585e-001	-2.251214e-001	-3.441442e-002	6.588692e-001	-2.902771e-001
	6.844402e-001	-3.035854e-001	-2.250125e-001	-3.482308e-002	2.830783e-001	3.657131e-001	1.830736e-001	1.922290e-001
	-2.434660e-001	-3.169320e-002	6.594436e-001	-2.893213e-001	1.829411e-001	1.925791e-001	3.042960e-001	3.922550e-001
4700600000	2.821452e-001	3.238945e-001	2.614625e-001	1.432359e-001	6.798298e-001	-3.125048e-001	-2.460632e-001	-3.058222e-002
	2.614131e-001	1.424510e-001	3.075978e-001	3.803250e-001	-2.275723e-001	-3.417696e-002	6.532066e-001	-2.979764e-001
	6.786564e-001	-3.121923e-001	-2.274981e-001	-3.449701e-002	2.895254e-001	3.628970e-001	1.875182e-001	1.885090e-001
	-2.458415e-001	-3.073795e-002	6.539903e-001	-2.970454e-001	1.874155e-001	1.889774e-001	3.112081e-001	3.893166e-001
4705590000	2.893915e-001	3.203231e-001	2.654605e-001	1.377398e-001	6.739401e-001	-3.210288e-001	-2.482401e-001	-2.961886e-002
	2.653201e-001	1.369903e-001	3.156240e-001	3.763997e-001	-2.299593e-001	-3.376838e-002	6.475601e-001	-3.056728e-001
	6.729358e-001	-3.206077e-001	-2.299443e-001	-3.405678e-002	2.964896e-001	3.599294e-001	1.919052e-001	1.847876e-001
	-2.479860e-001	-2.979307e-002	6.483919e-001	-3.046094e-001	1.917070e-001	1.851681e-001	3.182948e-001	3.860400e-001
4710580000	2.964753e-001	3.167386e-001	2.693262e-001	1.320664e-001	6.680139e-001	-3.296046e-001	-2.504365e-001	-2.862927e-002
	2.692986e-001	1.314669e-001	3.235789e-001	3.725733e-001	-2.324360e-001	-3.330103e-002	6.418211e-001	-3.133276e-001
	6.669579e-001	-3.291909e-001	-2.323767e-001	-3.356335e-002	3.034688e-001	3.568116e-001	1.961874e-001	1.809181e-001
	-2.502246e-001	-2.876608e-002	6.426769e-001	-3.123284e-001	1.960932e-001	1.812258e-001	3.255012e-001	3.825888e-001
4715570000	3.036380e-001	3.132423e-001	2.732691e-001	1.262598e-001	6.619733e-001	-3.381460e-001	-2.526600e-001	-2.750407e-002
	2.731222e-001	1.256746e-001	3.313826e-001	3.689406e-001	-2.348698e-001	-3.276670e-002	6.360511e-001	-3.209387e-001
	6.609461e-001	-3.375721e-001	-2.349175e-001	-3.296119e-002	3.103626e-001	3.534790e-001	2.005296e-001	1.769026e-001
	-2.525547e-001	-2.760955e-002	6.366882e-001	-3.199917e-001	2.005287e-001	1.771764e-001	3.329447e-001	3.792479e-001
4720560000	3.104461e-001	3.095988e-001	2.771349e-001	1.204862e-001	6.557603e-001	-3.466344e-001	-2.549919e-001	-2.624361e-002
	2.769711e-001	1.198073e-001	3.388060e-001	3.651583e-001	-2.373365e-001	-3.213058e-002	6.300512e-001	-3.285658e-001
	6.547942e-001	-3.460813e-001	-2.374342e-001	-3.242291e-002	3.170884e-001	3.502740e-001	2.049515e-001	1.726302e-001
	-2.548548e-001	-2.646153e-002	6.307690e-001	-3.277447e-001	2.049729e-001	1.728692e-001	3.403224e-001	3.762140e-001
4725550000	3.172578e-001	3.059972e-001	2.808534e-001	1.145417e-001	6.495457e-001	-3.551416e-001	-2.572693e-001	-2.497080e-002
	2.805368e-001	1.138533e-001	3.461161e-001	3.613794e-001	-2.398555e-001	-3.139961e-002	6.240339e-001	-3.360502e-001
	6.485552e-001	-3.545026e-001	-2.398550e-001	-3.176042e-002	3.236413e-001	3.472132e-001	2.092690e-001	1.681663e-001
	-2.570625e-001	-2.511589e-002	6.246031e-001	-3.353570e-001	2.093498e-001	1.684086e-001	3.476722e-001	3.732536e-001
4730540000	3.236986e-001	3.022885e-001	2.844556e-001	1.085596e-001	6.431027e-001	-3.634675e-001	-2.595761e-001	-2.360923e-002
	2.841464e-001	1.078698e-001	3.529826e-001	3.574075e-001	-2.422724e-001	-3.066023e-002	6.180329e-001	-3.434189e-001
	6.421823e-001	-3.628425e-001	-2.422488e-001	-3.102796e-002	3.298997e-001	3.442030e-001	2.134493e-001	1.636184e-001
	-2.592991e-001	-2.376504e-002	6.184941e-001	-3.428930e-001	2.135567e-001	1.638664e-001	3.549117e-001	3.705172e-001
4735530000	3.298186e-001	2.985061e-001	2.879726e-001	1.026059e-001	6.367319e-001	-3.717542e-001	-2.618095e-001	-2.209766e-002
	2.875710e-001	1.018337e-001	3.593248e-001	3.531272e-001	-2.447202e-001	-2.988924e-002	6.119955e-001	-3.507103e-001
	6.357729e-001	-3.710093e-001	-2.446476e-001	-3.029054e-002	3.358237e-001	3.410827e-001	2.175131e-001	1.589539e-001
	-2.615066e-001	-2.241497e-002	6.125773e-001	-3.503905e-001	2.175947e-001	1.593082e-001	3.618300e-001	3.680579e-001
4740520000	3.357791e-001	2.944758e-001	2.911042e-001	9.641709e-002	6.304591e-001	-3.799692e-001	-2.639684e-001	-2.064805e-002
	2.908271e-001	9.561956e-002	3.655695e-001	3.486100e-001	-2.470233e-001	-2.908287e-002	6.059896e-001	-3.580339e-001
	6.294043e-001	-3.791344e-001	-2.469185e-001	-2.943971e-002	3.415047e-001	3.379000e-001	2.213918e-001	1.543181e-001
	-2.635342e-001	-2.084777e-002	6.066534e-001	-3.577093e-001	2.214558e-001	1.546985e-001	3.683140e-001	3.652893e-001
4745510000	3.414252e-001	2.900842e-001	2.940968e-001	9.029212e-002	6.240710e-001	-3.878665e-001	-2.658527e-001	-1.907614e-002
	2.937812e-001	8.944170e-002	3.713915e-001	3.437350e-001	-2.492615e-001	-2.818342e-002	6.000505e-001	-3.651580e-001
	6.231187e-001	-3.870704e-001	-2.491821e-001	-2.864984e-002	3.470645e-001	3.345636e-001	2.249223e-001	1.495089e-001
	-2.654632e-001	-1.938586e-002	6.008736e-001	-3.648737e-001	2.250334e-001	1.499116e-001	3.748205e-001	3.624254e-001
4750500000	3.470297e-001	2.855399e-001	2.968164e-001	8.398677e-002	6.179343e-001	-3.955771e-001	-2.677569e-001	-1.761286e-002
	2.965066e-001	8.313696e-002	3.773147e-001	3.385032e-001	-2.512885e-001	-2.733599e-002	5.942270e-001	-3.722112e-001
	6.168137e-001	-3.947400e-001	-2.512580e-001	-2.778037e-002	3.526308e-001	3.309450e-001	2.283895e-001	1.447169e-001
	-2.672895e-001	-1.788419e-002	5.952500e-001	-3.716699e-001	2.282614e-001	1.450733e-001	3.808391e-001	3.593224e-001
4755490000	3.525227e-001	2.804673e-001	2.991987e-001	7.767523e-002	6.117764e-001	-4.030724e-001	-2.695521e-001	-1.610070e-002
	2.989383e-001	7.676170e-002	3.830846e-001	3.328573e-001	-2.533246e-001	-2.653056e-002	5.883700e-001	-3.791082e-001
	6.105520e-001	-4.022244e-001	-2.532073e-001	-2.696959e-002	3.582024e-001	3.270288e-001	2.315036e-001	1.399490e-001
	-2.690148e-001	-1.645446e-002	5.895544e-001	-3.783600e-001	2.312190e-001	1.402863e-001	3.866898e-001	3.558013e-001
4760480000	3.581237e-001	2.752271e-001	3.015299e-001	7.119455e-002	6.054417e-001	-4.104345e-001	-2.712077e-001	-1.467925e-002
	3.011953e-001	7.032706e-002	3.889873e-001	3.272001e-001	-2.552964e-001	-2.564088e-002	5.825442e-001	-3.858871e-001
	6.043114e-001	-4.095910e-001	-2.551669e-001	-2.621600e-002	3.640142e-001	3.229995e-001	2.343618e-001	1.350106e-001
	-2.706030e-001	-1.497882e-002	5.836875e-001	-3.848293e-001	2.340991e-001	1.352474e-001	3.925394e-001	3.518344e-001
4765470000	3.636925e-001	2.698140e-001	3.038321e-001	6.462846e-002	5.992109e-001	-4.177074e-001	-2.727997e-001	-1.328319e-002
	3.033460e-001	6.376928e-002	3.948392e-001	3.214932e-001	-2.572758e-001	-2.491636e-002	5.766444e-001	-3.923411e-001
	5.980157e-001	-4.168866e-001	-2.572627e-001	-2.543028e-002	3.697458e-001	3.185756e-001	2.370783e-001	1.300678e-001
	-2.721569e-001	-1.359177e-002	5.777849e-001	-3.913335e-001	2.368993e-001	1.303482e-001	3.983282e-001	3.475907e-001
4770460000	3.691895e-001	2.644575e-001	3.059626e-001	5.810836e-002	5.927993e-001	-4.249120e-001	-2.744952e-001	-1.191825e-002
	3.054817e-001	5.711679e-002	4.005730e-001	3.157592e-001	-2.593356e-001	-2.410637e-002	5.707023e-001	-3.990163e-001
	5.916466e-001	-4.240802e-001	-2.593567e-001	-2.467733e-002	3.752313e-001	3.142270e-001	2.399762e-001	1.251785e-001
	-2.737085e-001	-1.218143e-002	5.717922e-001	-3.977829e-001	2.396747e-001	1.253621e-001	4.038520e-001	3.433062e-001
4775450000	3.744122e-001	2.590505e-001	3.079558e-001	5.153068e-002	5.863727e-001	-4.321111e-001	-2.760142e-001	-1.054216e-002
	3.073939e-001	5.047712e-002	4.059745e-001	3.101020e-001	-2.615026e-001	-2.321230e-002	5.647809e-001	-4.054359e-001
	5.853616e-001	-4.314179e-001	-2.615633e-001	-2.388811e-002	3.803997e-001	3.099825e-001	2.427449e-001	1.201492e-001
	-2.753063e-001	-1.085331e-002	5.657892e-001	-4.043344e-001	2.425316e-001	1.203339e-001	4.093753e-001	3.389811e-001
4780440000	3.794289e-001	2.538301e-001	3.097483e-001	4.497836e-002	5.799350e-001	-4.394792e-001	-2.776039e-001	-9.128676e-003
	3.092173e-001	4.378772e-002	4.113843e-001	3.043127e-001	-2.637621e-001	-2.233832e-002	5.588231e-001	-4.118708e-001
	5.789081e-001	-4.387317e-001	-2.637426e-001	-2.302678e-002	3.848958e-001	3.056439e-001	2.455131e-001	1.150103e-001
	-2.769528e-001	-9.445156e-003	5.599664e-001	-4.107667e-001	2.453708e-001	1.153635e-001	4.147512e-001	3.347475e-001
4785430000	3.841772e-001	2.484162e-001	3.113391e-001	3.838068e-002	5.734091e-001	-4.467547e-001	-2.792619e-001	-7.822420e-003
	3.109647e-001	3.713122e-002	4.162800e-001	2.981999e-001	-2.660397e-001	-2.132990e-002	5.529086e-001	-4.184913e-001
	5.724085e-001	-4.460345e-001	-2.659106e-001	-2.211854e-002	3.891713e-001	3.013537e-001	2.481717e-001	1.100220e-001
	-2.785384e-001	-8.014831e-003	5.540717e-001	-4.174099e-001	2.480481e-001	1.102512e-001	4.197297e-001	3.305023e-001
4790420000	3.884550e-001	2.426765e-001	3.126402e-001	3.169835e-002	5.668661e-001	-4.540557e-001	-2.807526e-001	-6.468886e-003
	3.123607e-001	3.049160e-002	4.210031e-001	2.919915e-001	-2.681795e-001	-2.031183e-002	5.468590e-001	-4.251255e-001
	5.659552e-001	-4.533559e-001	-2.680699e-001	-2.109943e-002	3.930963e-001	2.967680e-001	2.506648e-001	1.047830e-001
	-2.801211e-001	-6.687929e-003	5.480642e-001	-4.240108e-001	2.505036e-001	1.050918e-001	4.244116e-001	3.262936e-001
4795410000	3.928383e-001	2.368230e-001	3.137218e-001	2.493901e-002	5.601980e-001	-4.613374e-001	-2.821646e-001	-5.158643e-003
	3.134987e-001	2.363833e-002	4.257707e-001	2.853419e-001	-2.704137e-001	-1.924653e-002	5.408203e-001	-4.314217e-001
	5.593379e-001	-4.605654e-001	-2.701758e-001	-1.999702e-002	3.968518e-001	2.920290e-001	2.529415e-001	9.959047e-002
	-2.815297e-001	-5.234096e-003	5.421639e-001	-4.304733e-001	2.527854e-001	9.989494e-002	4.288949e-001	3.218198e-001
4800400000	3.968662e-001	2.305177e-001	3.144929e-001	1.804340e-002	5.535082e-001	-4.684029e-001	-2.836027e-001	-3.821712e-003
	3.144093e-001	1.691241e-002	4.307829e-001	2.785232e-001	-2.723491e-001	-1.808046e-002	5.348528e-001	-4.377745e-001
	5.527839e-001	-4.677990e-001	-2.721111e-001	-1.877739e-002	4.007821e-001	2.868871e-001	2.550020e-001	9.433004e-002
	-2.829355e-001	-4.007239e-003	5.362595e-001	-4.366947e-001	2.547336e-001	9.455631e-002	4.331477e-001	3.170849e-001
4805390000	4.009381e-001	2.240529e-001	3.152064e-001	1.111879e-002	5.466506e-001	-4.755423e-001	-2.848078e-001	-2.484901e-003
	3.150358e-001	1.000421e-002	4.357085e-001	2.716671e-001	-2.742510e-001	-1.682936e-002	5.288041e-001	-4.440175e-001
	5.460668e-001	-4.748628e-001	-2.740661e-001	-1.748704e-002	4.047350e-001	2.816872e-001	2.567221e-001	8.895241e-002
	-2.842445e-001	-2.679377e-003	5.301974e-001	-4.430667e-001	2.566500e-001	8.909678e-002	4.375430e-001	3.117818e-001
4810380000	4.049077e-001	2.177712e-001	3.157777e-001	4.053656e-003	5.396163e-001	-4.827223e-001	-2.861458e-001	-1.042365e-003
	3.156068e-001	2.953983e-003	4.404809e-001	2.647082e-001	-2.761820e-001	-1.550653e-002	5.225643e-001	-4.503796e-001
	5.389827e-001	-4.819388e-001	-2.759892e-001	-1.617259e-002	4.087799e-001	2.762281e-001	2.584886e-001	8.341356e-002
	-2.856350e-001	-1.292250e-003	5.239991e-001	-4.494327e-001	2.584342e-001	8.362506e-002	4.420568e-001	3.065498e-001
4815370000	4.090003e-001	2.113773e-001	3.162598e-001	-3.084008e-003	5.323856e-001	-4.896779e-001	-2.874769e-001	3.102574e-004
	3.160936e-001	-4.151930e-003	4.450961e-001	2.579511e-001	-2.779206e-001	-1.403737e-002	5.162210e-001	-4.567930e-001
	5.318018e-001	-4.890797e-001	-2.778961e-001	-1.481101e-002	4.132340e-001	2.708779e-001	2.600857e-001	7.787499e-002
	-2.870825e-001	2.105282e-004	5.177188e-001	-4.558857e-001	2.600181e-001	7.788722e-002	4.466123e-001	3.011528e-001
4820360000	4.129698e-001	2.051107e-001	3.166535e-001	-1.015550e-002	5.248884e-001	-4.967470e-001	-2.889085e-001	1.813450e-003
	3.164060e-001	-1.128320e-002	4.494692e-001	2.512714e-001	-2.798272e-001	-1.269775e-002	5.097995e-001	-4.631665e-001
	5.243329e-001	-4.960697e-001	-2.797818e-001	-1.347356e-002	4.174522e-001	2.654694e-001	2.616067e-001	7.226851e-002
	-2.885659e-001	1.701891e-003	5.112135e-001	-4.623224e-001	2.616725e-001	7.234125e-002	4.513436e-001	2.959227e-001
4825350000	4.167747e-001	1.988096e-001	3.167177e-001	-1.728373e-002	5.172980e-001	-5.035802e-001	-2.903140e-001	3.372520e-003
	3.165336e-001	-1.843417e-002	4.538690e-001	2.445681e-001	-2.816516e-001	-1.126153e-002	5.032366e-001	-4.694200e-001
	5.167887e-001	-5.029706e-001	-2.814921e-001	-1.209192e-002	4.217997e-001	2.601385e-001	2.630365e-001	6.654414e-002
	-2.899808e-001	3.141995e-003	5.046797e-001	-4.685872e-001	2.632371e-001	6.669221e-002	4.562219e-001	2.909185e-001
4830340000	4.204163e-001	1.925935e-001	3.166682e-001	-2.435323e-002	5.096350e-001	-5.105303e-001	-2.918415e-001	4.895827e-003
	3.164375e-001	-2.544985e-002	4.577393e-001	2.379976e-001	-2.835214e-001	-9.902668e-003	4.964446e-001	-4.757875e-001
	5.090580e-001	-5.098569e-001	-2.832775e-001	-1.075867e-002	4.258173e-001	2.548218e-001	2.645900e-001	6.094530e-002
	-2.913578e-001	4.613444e-003	4.980134e-001	-4.750320e-001	2.646928e-001	6.116985e-002	4.606781e-001	2.861770e-001
4835330000	4.236984e-001	1.864953e-001	3.163978e-001	-3.140815e-002	5.017486e-001	-5.172863e-001	-2.931769e-001	6.384988e-003
	3.161654e-001	-3.260376e-002	4.612781e-001	2.313318e-001	-2.852416e-001	-8.510440e-003	4.896785e-001	-4.820820e-001
	5.013151e-001	-5.166067e-001	-2.849671e-001	-9.382912e-003	4.296024e-001	2.495730e-001	2.658065e-001	5.532868e-002
	-2.927631e-001	6.089432e-003	4.911519e-001	-4.813915e-001	2.659362e-001	5.552038e-002	4.650997e-001	2.813732e-001
4840320000	4.267716e-001	1.802704e-001	3.159455e-001	-3.836301e-002	4.940136e-001	-5.239214e-001	-2.944713e-001	7.950613e-003
	3.157583e-001	-3.956256e-002	4.645007e-001	2.245840e-001	-2.869375e-001	-7.138120e-003	4.827198e-001	-4.882059e-001
	4.934469e-001	-5.232078e-001	-2.867613e-001	-8.011557e-003	4.332902e-001	2.441789e-001	2.668354e-001	4.968295e-002
	-2.941189e-001	7.568434e-003	4.844464e-001	-4.876204e-001	2.670201e-001	4.999997e-002	4.692521e-001	2.767261e-001
4845310000	4.295593e-001	1.738577e-001	3.152154e-001	-4.532998e-002	4.862312e-001	-5.304562e-001	-2.957760e-001	9.476204e-003
	3.150564e-001	-4.657630e-002	4.674183e-001	2.176353e-001	-2.886810e-001	-5.730057e-003	4.757789e-001	-4.942874e-001
	4.857209e-001	-5.296291e-001	-2.884009e-001	-6.673544e-003	4.365079e-001	2.387150e-001	2.677402e-001	4.405965e-002
	-2.955001e-001	9.001067e-003	4.776382e-001	-4.936303e-001	2.678940e-001	4.448395e-002	4.730056e-001	2.718546e-001
4850300000	4.320955e-001	1.672978e-001	3.142919e-001	-5.227463e-002	4.785623e-001	-5.367733e-001	-2.972430e-001	1.089718e-002
	3.140669e-001	-5.347782e-002	4.702576e-001	2.104651e-001	-2.903061e-001	-4.452698e-003	4.687939e-001	-5.001948e-001
	4.780489e-001	-5.359283e-001	-2.901001e-001	-5.399927e-003	4.394378e-001	2.330123e-001	2.684644e-001	3.852870e-002
	-2.968110e-001	1.038409e-002	4.709407e-001	-4.995299e-001	2.685115e-001	3.893272e-002	4.763882e-001	2.670147e-001
4855290000	4.343925e-001	1.605889e-001	3.131608e-001	-5.929365e-002	4.708964e-001	-5.429643e-001	-2.985089e-001	1.235967e-002
	3.129124e-001	-6.037198e-002	4.728784e-001	2.030446e-001	-2.919687e-001	-3.186435e-003	4.618452e-001	-5.059687e-001
	4.703036e-001	-5.420386e-001	-2.917979e-001	-4.083072e-003	4.423758e-001	2.271247e-001	2.690060e-001	3.294406e-002
	-2.981644e-001	1.172864e-002	4.641570e-001	-5.051539e-001	2.688986e-001	3.330619e-002	4.795206e-001	2.617606e-001
4860280000	4.366764e-001	1.537445e-001	3.118960e-001	-6.617305e-002	4.631338e-001	-5.490338e-001	-2.999239e-001	1.373469e-002
	3.116053e-001	-6.730830e-002	4.755732e-001	1.954020e-001	-2.936919e-001	-1.909919e-003	4.550010e-001	-5.116501e-001
	4.624694e-001	-5.481339e-001	-2.935529e-001	-2.842353e-003	4.453360e-001	2.211862e-001	2.692737e-001	2.738273e-002
	-2.995167e-001	1.316721e-002	4.573199e-001	-5.108135e-001	2.692494e-001	2.766396e-002	4.823886e-001	2.562105e-001
4865270000	4.389727e-001	1.467982e-001	3.105618e-001	-7.311698e-002	4.553889e-001	-5.551012e-001	-3.014345e-001	1.515002e-002
	3.101911e-001	-7.418808e-002	4.781809e-001	1.877594e-001	-2.954248e-001	-7.116288e-004	4.479848e-001	-5.172807e-001
	4.545638e-001	-5.540457e-001	-2.952828e-001	-1.599090e-003	4.481261e-001	2.149960e-001	2.695406e-001	2.171865e-002
	-3.009516e-001	1.460553e-002	4.503594e-001	-5.163116e-001	2.694391e-001	2.208040e-002	4.851789e-001	2.506052e-001
4870260000	4.409343e-001	1.398072e-001	3.091615e-001	-7.992964e-002	4.473418e-001	-5.610046e-001	-3.028811e-001	1.654674e-002
	3.087029e-001	-8.100226e-002	4.806520e-001	1.800894e-001	-2.971791e-001	6.623428e-004	4.410958e-001	-5.227225e-001
	4.466227e-001	-5.600734e-001	-2.971341e-001	-3.577273e-004	4.509971e-001	2.092779e-001	2.696804e-001	1.608061e-002
	-3.024303e-001	1.601390e-002	4.433322e-001	-5.218301e-001	2.697005e-001	1.635045e-002	4.879394e-001	2.448599e-001
4875250000	4.428863e-001	1.328696e-001	3.074878e-001	-8.666000e-002	4.393264e-001	-5.669691e-001	-3.044024e-001	1.796911e-002
	3.070789e-001	-8.772183e-002	4.831113e-001	1.725523e-001	-2.990215e-001	1.925585e-003	4.339395e-001	-5.283056e-001
	4.385353e-001	-5.658926e-001	-2.988286e-001	8.896291e-004	4.536366e-001	2.035381e-001	2.697112e-001	1.053097e-002
	-3.037993e-001	1.746415e-002	4.362375e-001	-5.273301e-001	2.697134e-001	1.084294e-002	4.906445e-001	2.391385e-001
4880240000	4.445923e-001	1.261342e-001	3.057949e-001	-9.314992e-002	4.310111e-001	-5.727858e-001	-3.059329e-001	1.928731e-002
	3.053813e-001	-9.438712e-002	4.852753e-001	1.651685e-001	-3.008169e-001	3.216646e-003	4.268720e-001	-5.336685e-001
	4.302752e-001	-5.717660e-001	-3.006158e-001	2.096010e-003	4.560068e-001	1.978700e-001	2.696242e-001	5.172833e-003
	-3.053563e-001	1.897857e-002	4.288716e-001	-5.326922e-001	2.697240e-001	5.487999e-003	4.932242e-001	2.332791e-001
4885230000	4.458374e-001	1.193079e-001	3.037986e-001	-9.964957e-002	4.227994e-001	-5.785902e-001	-3.075099e-001	2.074998e-002
	3.035257e-001	-1.008064e-001	4.870317e-001	1.575560e-001	-3.027365e-001	4.462827e-003	4.196318e-001	-5.390803e-001
	4.220351e-001	-5.776425e-001	-3.023694e-001	3.327560e-003	4.579111e-001	1.922258e-001	2.696171e-001	-1.583592e-004
	-3.068377e-001	2.042560e-002	4.217146e-001	-5.381360e-001	2.695973e-001	1.392245e-004	4.955332e-001	2.276090e-001
4890220000	4.468993e-001	1.124915e-001	3.015188e-001	-1.060117e-001	4.143655e-001	-5.842833e-001	-3.088914e-001	2.211185e-002
	3.013667e-001	-1.071985e-001	4.885963e-001	1.498419e-001	-3.045759e-001	5.691665e-003	4.124462e-001	-5.443326e-001
	4.136399e-001	-5.833475e-001	-3.041640e-001	4.493187e-003	4.594390e-001	1.864399e-001	2.693019e-001	-5.476556e-003
	-3.082211e-001	2.182045e-002	4.144617e-001	-5.435340e-001	2.693230e-001	-5.110783e-003	4.977680e-001	2.218188e-001
4895210000	4.478753e-001	1.057179e-001	2.991305e-001	-1.124028e-001	4.059357e-001	-5.897182e-001	-3.102158e-001	2.342783e-002
	2.990437e-001	-1.134760e-001	4.898722e-001	1.421013e-001	-3.063662e-001	6.889549e-003	4.052008e-001	-5.494770e-001
	4.051097e-001	-5.887735e-001	-3.059590e-001	5.718533e-003	4.609182e-001	1.804168e-001	2.687918e-001	-1.072007e-002
	-3.096810e-001	2.327389e-002	4.072046e-001	-5.488902e-001	2.686983e-001	-1.041576e-002	4.994967e-001	2.158793e-001
4900200000	4.485078e-001	9.844589e-002	2.965145e-001	-1.187446e-001	3.975032e-001	-5.950880e-001	-3.115760e-001	2.466134e-002
	2.964242e-001	-1.197338e-001	4.912290e-001	1.343277e-001	-3.081872e-001	8.061399e-003	3.980236e-001	-5.545660e-001
	3.968933e-001	-5.942400e-001	-3.077583e-001	6.983648e-003	4.622156e-001	1.741413e-001	2.681625e-001	-1.595574e-002
	-3.109838e-001	2.445722e-002	3.999895e-001	-5.540247e-001	2.680327e-001	-1.574898e-002	5.009844e-001	2.095740e-001
4905190000	4.491234e-001	9.137143e-002	2.937873e-001	-1.252030e-001	3.889615e-001	-6.002930e-001	-3.128804e-001	2.589440e-002
	2.937270e-001	-1.260837e-001	4.926468e-001	1.263204e-001	-3.099002e-001	9.266759e-003	3.908009e-001	-5.597309e-001
	3.883226e-001	-5.993357e-001	-3.094560e-001	8.374306e-003	4.634943e-001	1.676138e-001	2.672915e-001	-2.128968e-002
	-3.123780e-001	2.585076e-002	3.926565e-001	-5.591370e-001	2.672288e-001	-2.117685e-002	5.023556e-001	2.030162e-001
4910180000	4.495183e-001	8.400066e-002	2.909497e-001	-1.316917e-001	3.802014e-001	-6.053404e-001	-3.143364e-001	2.736122e-002
	2.908426e-001	-1.324806e-001	4.937879e-001	1.184584e-001	-3.116984e-001	1.066669e-002	3.831892e-001	-5.648128e-001
	3.796533e-001	-6.045584e-001	-3.113541e-001	9.791757e-003	4.648672e-001	1.611097e-001	2.664947e-001	-2.681420e-002
	-3.138368e-001	2.725421e-002	3.850364e-001	-5.643699e-001	2.664870e-001	-2.674614e-002	5.038124e-001	1.964440e-001
4915170000	4.498418e-001	7.686036e-002	2.879131e-001	-1.380203e-001	3.714104e-001	-6.105074e-001	-3.159275e-001	2.888794e-002
	2.878588e-001	-1.387564e-001	4.946797e-001	1.104408e-001	-3.136584e-001	1.214953e-002	3.753825e-001	-5.700061e-001
	3.707723e-001	-6.098018e-001	-3.132421e-001	1.111631e-002	4.662599e-001	1.543816e-001	2.656679e-001	-3.240013e-002
	-3.155053e-001	2.879281e-002	3.772543e-001	-5.695658e-001	2.656480e-001	-3.233741e-002	5.052691e-001	1.897884e-001
4920160000	4.500885e-001	6.984496e-002	2.849086e-001	-1.443194e-001	3.624570e-001	-6.154896e-001	-3.175004e-001	3.051692e-002
	2.848546e-001	-1.451254e-001	4.955616e-001	1.028005e-001	-3.154980e-001	1.363763e-002	3.675114e-001	-5.750660e-001
	3.616927e-001	-6.148603e-001	-3.152751e-001	1.270097e-002	4.677544e-001	1.476621e-001	2.646560e-001	-3.806034e-002
	-3.172102e-001	3.036910e-002	3.693297e-001	-5.746873e-001	2.647211e-001	-3.801612e-002	5.070097e-001	1.831840e-001
4925150000	4.503230e-001	6.286431e-002	2.816720e-001	-1.505127e-001	3.532122e-001	-6.205206e-001	-3.193199e-001	3.221691e-002
	2.816328e-001	-1.513658e-001	4.959689e-001	9.526932e-002	-3.176009e-001	1.523583e-002	3.594723e-001	-5.800622e-001
	3.525668e-001	-6.199011e-001	-3.171746e-001	1.423392e-002	4.690744e-001	1.410912e-001	2.637077e-001	-4.355309e-002
	-3.188858e-001	3.204105e-002	3.612487e-001	-5.796746e-001	2.637345e-001	-4.351436e-002	5.086709e-001	1.768195e-001
4930140000	4.504680e-001	5.603909e-002	2.783554e-001	-1.565687e-001	3.439114e-001	-6.253729e-001	-3.210079e-001	3.387757e-002
	2.782138e-001	-1.574397e-001	4.961823e-001	8.792000e-002	-3.196242e-001	1.680156e-002	3.513463e-001	-5.850033e-001
	3.432254e-001	-6.248030e-001	-3.192402e-001	1.576575e-002	4.702921e-001	1.346121e-001	2.625259e-001	-4.904571e-002
	-3.205565e-001	3.364851e-002	3.530883e-001	-5.845849e-001	2.626150e-001	-4.892841e-002	5.103416e-001	1.705613e-001
4935130000	4.502306e-001	4.926589e-002	2.747908e-001	-1.625730e-001	3.345122e-001	-6.301246e-001	-3.227134e-001	3.561280e-002
	2.747111e-001	-1.633650e-001	4.959936e-001	8.065374e-002	-3.216373e-001	1.844401e-002	3.431178e-001	-5.898559e-001
	3.337958e-001	-6.295425e-001	-3.211445e-001	1.732703e-002	4.713805e-001	1.282055e-001	2.613037e-001	-5.447783e-002
	-3.222515e-001	3.529120e-002	3.448862e-001	-5.893735e-001	2.613520e-001	-5.427660e-002	5.120445e-001	1.643858e-001
4940120000	4.498214e-001	4.240315e-002	2.710652e-001	-1.683658e-001	3.250624e-001	-6.347167e-001	-3.243193e-001	3.736622e-002
	2.709205e-001	-1.691893e-001	4.955298e-001	7.337992e-002	-3.236242e-001	1.996216e-002	3.347772e-001	-5.945546e-001
	3.244683e-001	-6.341274e-001	-3.231496e-001	1.890865e-002	4.720823e-001	1.218631e-001	2.598320e-001	-5.992121e-002
	-3.238421e-001	3.682598e-002	3.367127e-001	-5.941712e-001	2.598500e-001	-5.950464e-002	5.134110e-001	1.584063e-001
4945110000	4.492207e-001	3.592261e-002	2.672528e-001	-1.741100e-001	3.154928e-001	-6.391171e-001	-3.260159e-001	3.910638e-002
	2.670253e-001	-1.748751e-001	4.945992e-001	6.602825e-002	-3.256395e-001	2.177737e-002	3.264366e-001	-5.991520e-001
	3.148955e-001	-6.386176e-001	-3.252039e-001	2.049069e-002	4.728730e-001	1.156562e-001	2.582672e-001	-6.513114e-002
	-3.255471e-001	3.860610e-002	3.284733e-001	-5.988106e-001	2.582550e-001	-6.488111e-002	5.142955e-001	1.523646e-001
4950100000	4.484217e-001	2.925264e-002	2.632726e-001	-1.798025e-001	3.061391e-001	-6.433676e-001	-3.276455e-001	4.083948e-002
	2.630771e-001	-1.805395e-001	4.934473e-001	5.868858e-002	-3.277610e-001	2.328290e-002	3.182394e-001	-6.035988e-001
	3.055123e-001	-6.427776e-001	-3.273093e-001	2.220664e-002	4.730131e-001	1.091837e-001	2.563360e-001	-7.034212e-002
	-3.272341e-001	4.033067e-002	3.203916e-001	-6.032373e-001	2.563455e-001	-7.000569e-002	5.150427e-001	1.462702e-001
4955090000	4.473178e-001	2.257199e-002	2.591345e-001	-1.853949e-001	2.967828e-001	-6.475026e-001	-3.294394e-001	4.260090e-002
	2.589644e-001	-1.861103e-001	4.919576e-001	5.110088e-002	-3.298549e-001	2.494246e-002	3.099651e-001	-6.080834e-001
	2.961498e-001	-6.468807e-001	-3.294770e-001	2.387493e-002	4.731680e-001	1.026942e-001	2.543559e-001	-7.547125e-002
	-3.289952e-001	4.205021e-002	3.122327e-001	-6.077516e-001	2.543468e-001	-7.516196e-002	5.152899e-001	1.400650e-001
4960080000	4.460787e-001	1.585066e-002	2.550130e-001	-1.910552e-001	2.872692e-001	-6.515131e-001	-3.313525e-001	4.457690e-002
	2.547605e-001	-1.916670e-001	4.905185e-001	4.341771e-002	-3.320675e-001	2.672521e-002	3.015599e-001	-6.125065e-001
	2.866743e-001	-6.507915e-001	-3.317401e-001	2.564387e-002	4.732291e-001	9.600815e-002	2.522923e-001	-8.060991e-002
	-3.308758e-001	4.388174e-002	3.040497e-001	-6.121099e-001	2.522642e-001	-8.035429e-002	5.153412e-001	1.338475e-001
4965070000	4.447811e-001	9.196358e-003	2.508252e-001	-1.966218e-001	2.776680e-001	-6.552752e-001	-3.331815e-001	4.664219e-002
	2.504259e-001	-1.972103e-001	4.888208e-001	3.567405e-002	-3.342591e-001	2.853816e-002	2.930434e-001	-6.166934e-001
	2.770954e-001	-6.546170e-001	-3.340132e-001	2.738239e-002	4.733852e-001	8.960666e-002	2.500432e-001	-8.578416e-002
	-3.327570e-001	4.579925e-002	2.955183e-001	-6.163899e-001	2.500713e-001	-8.560836e-002	5.154030e-001	1.275699e-001
4970060000	4.434171e-001	2.736972e-003	2.465304e-001	-2.020887e-001	2.680446e-001	-6.590598e-001	-3.351568e-001	4.862580e-002
	2.460953e-001	-2.026329e-001	4.870424e-001	2.825073e-002	-3.364786e-001	3.033206e-002	2.844502e-001	-6.207330e-001
	2.673523e-001	-6.583061e-001	-3.362397e-001	2.916116e-002	4.735735e-001	8.312256e-002	2.477478e-001	-9.085954e-002
	-3.347476e-001	4.788642e-002	2.869273e-001	-6.204036e-001	2.478345e-001	-9.064779e-002	5.153748e-001	1.213238e-001
4975050000	4.420138e-001	-3.501123e-003	2.421622e-001	-2.074316e-001	2.581631e-001	-6.625906e-001	-3.371297e-001	5.057562e-002
	2.417419e-001	-2.079827e-001	4.852426e-001	2.107875e-002	-3.387310e-001	3.211349e-002	2.758852e-001	-6.247447e-001
	2.575104e-001	-6.618469e-001	-3.384797e-001	3.084378e-002	4.736722e-001	7.694334e-002	2.452836e-001	-9.576111e-002
	-3.367977e-001	4.998191e-002	2.782240e-001	-6.243494e-001	2.455160e-001	-9.556931e-002	5.153216e-001	1.149831e-001
4980040000	4.404596e-001	-9.569598e-003	2.375202e-001	-2.125789e-001	2.483222e-001	-6.660157e-001	-3.391296e-001	5.259121e-002
	2.370969e-001	-2.132486e-001	4.834275e-001	1.404623e-002	-3.410670e-001	3.376518e-002	2.672071e-001	-6.285745e-001
	2.476336e-001	-6.651777e-001	-3.407251e-001	3.251952e-002	4.734580e-001	7.101132e-002	2.427452e-001	-1.005097e-001
	-3.387582e-001	5.205933e-002	2.695436e-001	-6.282471e-001	2.430065e-001	-1.002810e-001	5.152641e-001	1.088018e-001
4985030000	4.385348e-001	-1.557351e-002	2.326266e-001	-2.175729e-001	2.384090e-001	-6.693011e-001	-3.411792e-001	5.458520e-002
	2.321316e-001	-2.181316e-001	4.813965e-001	7.071980e-003	-3.434202e-001	3.541236e-002	2.585306e-001	-6.323727e-001
	2.377470e-001	-6.685918e-001	-3.430748e-001	3.406251e-002	4.729157e-001	6.516782e-002	2.401080e-001	-1.050358e-001
	-3.407870e-001	5.408696e-002	2.607258e-001	-6.321039e-001	2.402890e-001	-1.047699e-001	5.150370e-001	1.026358e-001
4990020000	4.365765e-001	-2.132053e-002	2.272868e-001	-2.224303e-001	2.283734e-001	-6.724099e-001	-3.430912e-001	5.662765e-002
	2.270608e-001	-2.229600e-001	4.792975e-001	1.245339e-004	-3.458997e-001	3.707976e-002	2.496959e-001	-6.359437e-001
	2.277272e-001	-6.716668e-001	-3.454686e-001	3.584577e-002	4.721737e-001	5.955652e-002	2.372514e-001	-1.094072e-001
	-3.427980e-001	5.629009e-002	2.518139e-001	-6.357421e-001	2.373937e-001	-1.092251e-001	5.144639e-001	9.667355e-002
4995010000	4.343770e-001	-2.698571e-002	2.218087e-001	-2.271412e-001	2.184031e-001	-6.752740e-001	-3.449598e-001	5.872948e-002
	2.215646e-001	-2.276102e-001	4.768743e-001	-6.845127e-003	-3.483835e-001	3.881312e-002	2.408669e-001	-6.394149e-001
	2.177295e-001	-6.744712e-001	-3.479421e-001	3.758707e-002	4.709105e-001	5.374991e-002	2.342756e-001	-1.137724e-001
	-3.446236e-001	5.844444e-002	2.428986e-001	-6.393414e-001	2.343042e-001	-1.135841e-001	5.136737e-001	9.089096e-002
5000000000	4.319574e-001	-3.270439e-002	2.159686e-001	-2.317458e-001	2.084392e-001	-6.780311e-001	-3.466901e-001	6.096217e-002
	2.158500e-001	-2.320352e-001	4.742431e-001	-1.391721e-002	-3.509355e-001	4.056719e-002	2.319667e-001	-6.425689e-001
	2.078163e-001	-6.772614e-001	-3.503718e-001	3.951323e-002	4.695214e-001	4.805741e-002	2.310782e-001	-1.181046e-001
	-3.464696e-001	6.072442e-002	2.338744e-001	-6.425605e-001	2.310970e-001	-1.179652e-001	5.127788e-001	8.502806e-002
